NAME          BLEND_S42
OBJSENSE
 MAX
ROWS
 N  COST
 G  YLD1
 G  YLD2
 G  YLD3
 G  YLD4
 G  YLD5
 G  YLD6
 G  YLD7
 G  YLD8
 L  CAP
 G  DEM1
 G  DEM2
 G  DEM3
 G  DEM4
 G  DEM5
 G  DEM6
 G  DEM7
 G  DEM8
 L  SULF
COLUMNS
    CRUDE1  COST  -69.8271  YLD1  0.155306
    CRUDE1  YLD2  0.222894  YLD3  0.378178
    CRUDE1  YLD4  0.156255  YLD5  0.490015
    CRUDE1  YLD6  0.438692  YLD7  0.205733
    CRUDE1  YLD8  0.237376  CAP  1
    CRUDE1  SULF  -0.531818
    CRUDE2  COST  -68.9845  YLD1  0.526881
    CRUDE2  YLD2  0.452145  YLD3  0.358334
    CRUDE2  YLD4  0.319361  YLD5  0.32978
    CRUDE2  YLD6  0.244394  YLD7  0.391767
    CRUDE2  YLD8  0.316604  CAP  1
    CRUDE2  SULF  0.832453
    CRUDE3  COST  -52.2916  YLD1  0.375315
    CRUDE3  YLD2  0.320062  YLD3  0.534469
    CRUDE3  YLD4  0.307953  YLD5  0.188164
    CRUDE3  YLD6  0.252427  YLD7  0.365936
    CRUDE3  YLD8  0.503312  CAP  1
    CRUDE3  SULF  -0.807236
    CRUDE4  COST  -52.9624  YLD1  0.304167
    CRUDE4  YLD2  0.233177  YLD3  0.487814
    CRUDE4  YLD4  0.267395  YLD5  0.298327
    CRUDE4  YLD6  0.166173  YLD7  0.231224
    CRUDE4  YLD8  0.279738  CAP  1
    CRUDE4  SULF  -0.0359146
    CRUDE5  COST  -37.1433  YLD1  0.156387
    CRUDE5  YLD2  0.37708  YLD3  0.448928
    CRUDE5  YLD4  0.155632  YLD5  0.417537
    CRUDE5  YLD6  0.434265  YLD7  0.527141
    CRUDE5  YLD8  0.198835  CAP  1
    CRUDE5  SULF  1.01078
    CRUDE6  COST  -32.8206  YLD1  0.242358
    CRUDE6  YLD2  0.162525  YLD3  0.365877
    CRUDE6  YLD4  0.229537  YLD5  0.416369
    CRUDE6  YLD6  0.194356  YLD7  0.389546
    CRUDE6  YLD8  0.292519  CAP  1
    CRUDE6  SULF  1.24544
    CRUDE7  COST  -76.9276  YLD1  0.24641
    CRUDE7  YLD2  0.486914  YLD3  0.3847
    CRUDE7  YLD4  0.434537  YLD5  0.386519
    CRUDE7  YLD6  0.325735  YLD7  0.427914
    CRUDE7  YLD8  0.512731  CAP  1
    CRUDE7  SULF  -1.13458
    CRUDE8  COST  -79.6106  YLD1  0.423305
    CRUDE8  YLD2  0.329902  YLD3  0.536102
    CRUDE8  YLD4  0.46607  YLD5  0.259889
    CRUDE8  YLD6  0.230688  YLD7  0.502187
    CRUDE8  YLD8  0.258853  CAP  1
    CRUDE8  SULF  0.900536
    CRUDE9  COST  -60.5827  YLD1  0.393999
    CRUDE9  YLD2  0.30806  YLD3  0.392814
    CRUDE9  YLD4  0.392384  YLD5  0.374497
    CRUDE9  YLD6  0.508305  YLD7  0.399742
    CRUDE9  YLD8  0.409076  CAP  1
    CRUDE9  SULF  -1.11383
    CRUDE10  COST  -31.1531  YLD1  0.483278
    CRUDE10  YLD2  0.520664  YLD3  0.2604
    CRUDE10  YLD4  0.52052  YLD5  0.303171
    CRUDE10  YLD6  0.340148  YLD7  0.268253
    CRUDE10  YLD8  0.150208  CAP  1
    CRUDE10  SULF  0.594603
    CRUDE11  COST  -49.993  YLD1  0.219346
    CRUDE11  YLD2  0.440909  YLD3  0.268509
    CRUDE11  YLD4  0.410431  YLD5  0.538685
    CRUDE11  YLD6  0.37531  YLD7  0.192198
    CRUDE11  YLD8  0.291028  CAP  1
    CRUDE11  SULF  -0.983156
    CRUDE12  COST  -78.6878  YLD1  0.306424
    CRUDE12  YLD2  0.280616  YLD3  0.216107
    CRUDE12  YLD4  0.515984  YLD5  0.489566
    CRUDE12  YLD6  0.428206  YLD7  0.332614
    CRUDE12  YLD8  0.271913  CAP  1
    CRUDE12  SULF  -0.369008
    PROD1  COST  96.3425  YLD1  -1
    PROD1  DEM1  1
    PROD2  COST  133.287  YLD2  -1
    PROD2  DEM2  1
    PROD3  COST  116.772  YLD3  -1
    PROD3  DEM3  1
    PROD4  COST  158.826  YLD4  -1
    PROD4  DEM4  1
    PROD5  COST  122.673  YLD5  -1
    PROD5  DEM5  1
    PROD6  COST  150.196  YLD6  -1
    PROD6  DEM6  1
    PROD7  COST  137.622  YLD7  -1
    PROD7  DEM7  1
    PROD8  COST  121.535  YLD8  -1
    PROD8  DEM8  1
RHS
    RHS       CAP  60000
    RHS       DEM1  1658.62
    RHS       DEM2  1875
    RHS       DEM3  1875
    RHS       DEM4  1875
    RHS       DEM5  1875
    RHS       DEM6  1875
    RHS       DEM7  1673.16
    RHS       DEM8  1875
BOUNDS
 UP BND       CRUDE1  60000
 UP BND       CRUDE2  60000
 UP BND       CRUDE3  60000
 UP BND       CRUDE4  60000
 UP BND       CRUDE5  60000
 UP BND       CRUDE6  60000
 UP BND       CRUDE7  60000
 UP BND       CRUDE8  60000
 UP BND       CRUDE9  60000
 UP BND       CRUDE10  60000
 UP BND       CRUDE11  60000
 UP BND       CRUDE12  60000
 UP BND       PROD1  48000
 UP BND       PROD2  48000
 UP BND       PROD3  48000
 UP BND       PROD4  48000
 UP BND       PROD5  48000
 UP BND       PROD6  48000
 UP BND       PROD7  48000
 UP BND       PROD8  48000
ENDATA
