NAME          SCHED_S42
ROWS
 N  COST
 G  DEM_T1
 G  DEM_T2
 G  DEM_T3
 G  DEM_T4
 G  DEM_T5
 G  DEM_T6
 G  DEM_T7
 G  DEM_T8
 G  DEM_T9
 G  DEM_T10
 G  DEM_T11
 G  DEM_T12
 G  DEM_T13
 G  DEM_T14
 G  DEM_T15
 G  DEM_T16
 G  DEM_T17
 G  DEM_T18
 G  DEM_T19
 G  DEM_T20
 G  DEM_T21
 G  DEM_T22
 G  DEM_T23
 G  DEM_T24
 G  DEM_T25
 G  DEM_T26
 G  DEM_T27
 G  DEM_T28
 G  DEM_T29
 G  DEM_T30
 G  DEM_T31
 G  DEM_T32
 G  DEM_T33
 G  DEM_T34
 G  DEM_T35
 G  DEM_T36
 G  DEM_T37
 G  DEM_T38
 G  DEM_T39
 G  DEM_T40
 G  DEM_T41
 G  DEM_T42
 G  DEM_T43
 G  DEM_T44
 G  DEM_T45
 G  DEM_T46
 G  DEM_T47
 G  DEM_T48
 G  DEM_T49
 G  DEM_T50
 G  DEM_T51
 G  DEM_T52
 G  DEM_T53
 G  DEM_T54
 G  DEM_T55
 G  DEM_T56
 G  DEM_T57
 G  DEM_T58
 G  DEM_T59
 G  DEM_T60
 G  DEM_T61
 G  DEM_T62
 G  DEM_T63
 G  DEM_T64
 G  DEM_T65
 G  DEM_T66
 G  DEM_T67
 G  DEM_T68
 G  DEM_T69
 G  DEM_T70
 G  DEM_T71
 G  DEM_T72
 G  DEM_T73
 G  DEM_T74
 G  DEM_T75
 G  DEM_T76
 G  DEM_T77
 G  DEM_T78
 G  DEM_T79
 G  DEM_T80
 G  DEM_T81
 G  DEM_T82
 G  DEM_T83
 G  DEM_T84
 G  DEM_T85
 G  DEM_T86
 G  DEM_T87
 G  DEM_T88
 G  DEM_T89
 G  DEM_T90
 G  DEM_T91
 G  DEM_T92
 G  DEM_T93
 G  DEM_T94
 G  DEM_T95
 G  DEM_T96
 G  DEM_T97
 G  DEM_T98
 G  DEM_T99
 G  DEM_T100
 G  DEM_T101
 G  DEM_T102
 G  DEM_T103
 G  DEM_T104
 G  DEM_T105
 G  DEM_T106
 G  DEM_T107
 G  DEM_T108
 G  DEM_T109
 G  DEM_T110
 G  DEM_T111
 G  DEM_T112
 G  DEM_T113
 G  DEM_T114
 G  DEM_T115
 G  DEM_T116
 G  DEM_T117
 G  DEM_T118
 G  DEM_T119
 G  DEM_T120
 G  DEM_T121
 G  DEM_T122
 G  DEM_T123
 G  DEM_T124
 G  DEM_T125
 G  DEM_T126
 G  DEM_T127
 G  DEM_T128
 G  DEM_T129
 G  DEM_T130
 G  DEM_T131
 G  DEM_T132
 G  DEM_T133
 G  DEM_T134
 G  DEM_T135
 G  DEM_T136
 G  DEM_T137
 G  DEM_T138
 G  DEM_T139
 G  DEM_T140
 G  DEM_T141
 G  DEM_T142
 G  DEM_T143
 G  DEM_T144
 G  DEM_T145
 G  DEM_T146
 G  DEM_T147
 G  DEM_T148
 G  DEM_T149
 G  DEM_T150
 G  DEM_T151
 G  DEM_T152
 G  DEM_T153
 G  DEM_T154
 G  DEM_T155
 G  DEM_T156
 G  DEM_T157
 G  DEM_T158
 G  DEM_T159
 G  DEM_T160
 G  DEM_T161
 G  DEM_T162
 G  DEM_T163
 G  DEM_T164
 G  DEM_T165
 G  DEM_T166
 G  DEM_T167
 G  DEM_T168
 L  SU_T1U1
 L  SU_T1U2
 L  SU_T1U3
 L  SU_T1U4
 L  SU_T1U5
 L  SU_T1U6
 L  SU_T1U7
 L  SU_T1U8
 L  SU_T1U9
 L  SU_T1U10
 L  SU_T1U11
 L  SU_T1U12
 L  SU_T1U13
 L  SU_T1U14
 L  SU_T1U15
 L  SU_T1U16
 L  SU_T1U17
 L  SU_T1U18
 L  SU_T1U19
 L  SU_T1U20
 L  SU_T1U21
 L  SU_T1U22
 L  SU_T1U23
 L  SU_T1U24
 L  SU_T1U25
 L  SU_T1U26
 L  SU_T1U27
 L  SU_T1U28
 L  SU_T1U29
 L  SU_T1U30
 L  SU_T2U1
 L  SU_T2U2
 L  SU_T2U3
 L  SU_T2U4
 L  SU_T2U5
 L  SU_T2U6
 L  SU_T2U7
 L  SU_T2U8
 L  SU_T2U9
 L  SU_T2U10
 L  SU_T2U11
 L  SU_T2U12
 L  SU_T2U13
 L  SU_T2U14
 L  SU_T2U15
 L  SU_T2U16
 L  SU_T2U17
 L  SU_T2U18
 L  SU_T2U19
 L  SU_T2U20
 L  SU_T2U21
 L  SU_T2U22
 L  SU_T2U23
 L  SU_T2U24
 L  SU_T2U25
 L  SU_T2U26
 L  SU_T2U27
 L  SU_T2U28
 L  SU_T2U29
 L  SU_T2U30
 L  SU_T3U1
 L  SU_T3U2
 L  SU_T3U3
 L  SU_T3U4
 L  SU_T3U5
 L  SU_T3U6
 L  SU_T3U7
 L  SU_T3U8
 L  SU_T3U9
 L  SU_T3U10
 L  SU_T3U11
 L  SU_T3U12
 L  SU_T3U13
 L  SU_T3U14
 L  SU_T3U15
 L  SU_T3U16
 L  SU_T3U17
 L  SU_T3U18
 L  SU_T3U19
 L  SU_T3U20
 L  SU_T3U21
 L  SU_T3U22
 L  SU_T3U23
 L  SU_T3U24
 L  SU_T3U25
 L  SU_T3U26
 L  SU_T3U27
 L  SU_T3U28
 L  SU_T3U29
 L  SU_T3U30
 L  SU_T4U1
 L  SU_T4U2
 L  SU_T4U3
 L  SU_T4U4
 L  SU_T4U5
 L  SU_T4U6
 L  SU_T4U7
 L  SU_T4U8
 L  SU_T4U9
 L  SU_T4U10
 L  SU_T4U11
 L  SU_T4U12
 L  SU_T4U13
 L  SU_T4U14
 L  SU_T4U15
 L  SU_T4U16
 L  SU_T4U17
 L  SU_T4U18
 L  SU_T4U19
 L  SU_T4U20
 L  SU_T4U21
 L  SU_T4U22
 L  SU_T4U23
 L  SU_T4U24
 L  SU_T4U25
 L  SU_T4U26
 L  SU_T4U27
 L  SU_T4U28
 L  SU_T4U29
 L  SU_T4U30
 L  SU_T5U1
 L  SU_T5U2
 L  SU_T5U3
 L  SU_T5U4
 L  SU_T5U5
 L  SU_T5U6
 L  SU_T5U7
 L  SU_T5U8
 L  SU_T5U9
 L  SU_T5U10
 L  SU_T5U11
 L  SU_T5U12
 L  SU_T5U13
 L  SU_T5U14
 L  SU_T5U15
 L  SU_T5U16
 L  SU_T5U17
 L  SU_T5U18
 L  SU_T5U19
 L  SU_T5U20
 L  SU_T5U21
 L  SU_T5U22
 L  SU_T5U23
 L  SU_T5U24
 L  SU_T5U25
 L  SU_T5U26
 L  SU_T5U27
 L  SU_T5U28
 L  SU_T5U29
 L  SU_T5U30
 L  SU_T6U1
 L  SU_T6U2
 L  SU_T6U3
 L  SU_T6U4
 L  SU_T6U5
 L  SU_T6U6
 L  SU_T6U7
 L  SU_T6U8
 L  SU_T6U9
 L  SU_T6U10
 L  SU_T6U11
 L  SU_T6U12
 L  SU_T6U13
 L  SU_T6U14
 L  SU_T6U15
 L  SU_T6U16
 L  SU_T6U17
 L  SU_T6U18
 L  SU_T6U19
 L  SU_T6U20
 L  SU_T6U21
 L  SU_T6U22
 L  SU_T6U23
 L  SU_T6U24
 L  SU_T6U25
 L  SU_T6U26
 L  SU_T6U27
 L  SU_T6U28
 L  SU_T6U29
 L  SU_T6U30
 L  SU_T7U1
 L  SU_T7U2
 L  SU_T7U3
 L  SU_T7U4
 L  SU_T7U5
 L  SU_T7U6
 L  SU_T7U7
 L  SU_T7U8
 L  SU_T7U9
 L  SU_T7U10
 L  SU_T7U11
 L  SU_T7U12
 L  SU_T7U13
 L  SU_T7U14
 L  SU_T7U15
 L  SU_T7U16
 L  SU_T7U17
 L  SU_T7U18
 L  SU_T7U19
 L  SU_T7U20
 L  SU_T7U21
 L  SU_T7U22
 L  SU_T7U23
 L  SU_T7U24
 L  SU_T7U25
 L  SU_T7U26
 L  SU_T7U27
 L  SU_T7U28
 L  SU_T7U29
 L  SU_T7U30
 L  SU_T8U1
 L  SU_T8U2
 L  SU_T8U3
 L  SU_T8U4
 L  SU_T8U5
 L  SU_T8U6
 L  SU_T8U7
 L  SU_T8U8
 L  SU_T8U9
 L  SU_T8U10
 L  SU_T8U11
 L  SU_T8U12
 L  SU_T8U13
 L  SU_T8U14
 L  SU_T8U15
 L  SU_T8U16
 L  SU_T8U17
 L  SU_T8U18
 L  SU_T8U19
 L  SU_T8U20
 L  SU_T8U21
 L  SU_T8U22
 L  SU_T8U23
 L  SU_T8U24
 L  SU_T8U25
 L  SU_T8U26
 L  SU_T8U27
 L  SU_T8U28
 L  SU_T8U29
 L  SU_T8U30
 L  SU_T9U1
 L  SU_T9U2
 L  SU_T9U3
 L  SU_T9U4
 L  SU_T9U5
 L  SU_T9U6
 L  SU_T9U7
 L  SU_T9U8
 L  SU_T9U9
 L  SU_T9U10
 L  SU_T9U11
 L  SU_T9U12
 L  SU_T9U13
 L  SU_T9U14
 L  SU_T9U15
 L  SU_T9U16
 L  SU_T9U17
 L  SU_T9U18
 L  SU_T9U19
 L  SU_T9U20
 L  SU_T9U21
 L  SU_T9U22
 L  SU_T9U23
 L  SU_T9U24
 L  SU_T9U25
 L  SU_T9U26
 L  SU_T9U27
 L  SU_T9U28
 L  SU_T9U29
 L  SU_T9U30
 L  SU_T10U1
 L  SU_T10U2
 L  SU_T10U3
 L  SU_T10U4
 L  SU_T10U5
 L  SU_T10U6
 L  SU_T10U7
 L  SU_T10U8
 L  SU_T10U9
 L  SU_T10U10
 L  SU_T10U11
 L  SU_T10U12
 L  SU_T10U13
 L  SU_T10U14
 L  SU_T10U15
 L  SU_T10U16
 L  SU_T10U17
 L  SU_T10U18
 L  SU_T10U19
 L  SU_T10U20
 L  SU_T10U21
 L  SU_T10U22
 L  SU_T10U23
 L  SU_T10U24
 L  SU_T10U25
 L  SU_T10U26
 L  SU_T10U27
 L  SU_T10U28
 L  SU_T10U29
 L  SU_T10U30
 L  SU_T11U1
 L  SU_T11U2
 L  SU_T11U3
 L  SU_T11U4
 L  SU_T11U5
 L  SU_T11U6
 L  SU_T11U7
 L  SU_T11U8
 L  SU_T11U9
 L  SU_T11U10
 L  SU_T11U11
 L  SU_T11U12
 L  SU_T11U13
 L  SU_T11U14
 L  SU_T11U15
 L  SU_T11U16
 L  SU_T11U17
 L  SU_T11U18
 L  SU_T11U19
 L  SU_T11U20
 L  SU_T11U21
 L  SU_T11U22
 L  SU_T11U23
 L  SU_T11U24
 L  SU_T11U25
 L  SU_T11U26
 L  SU_T11U27
 L  SU_T11U28
 L  SU_T11U29
 L  SU_T11U30
 L  SU_T12U1
 L  SU_T12U2
 L  SU_T12U3
 L  SU_T12U4
 L  SU_T12U5
 L  SU_T12U6
 L  SU_T12U7
 L  SU_T12U8
 L  SU_T12U9
 L  SU_T12U10
 L  SU_T12U11
 L  SU_T12U12
 L  SU_T12U13
 L  SU_T12U14
 L  SU_T12U15
 L  SU_T12U16
 L  SU_T12U17
 L  SU_T12U18
 L  SU_T12U19
 L  SU_T12U20
 L  SU_T12U21
 L  SU_T12U22
 L  SU_T12U23
 L  SU_T12U24
 L  SU_T12U25
 L  SU_T12U26
 L  SU_T12U27
 L  SU_T12U28
 L  SU_T12U29
 L  SU_T12U30
 L  SU_T13U1
 L  SU_T13U2
 L  SU_T13U3
 L  SU_T13U4
 L  SU_T13U5
 L  SU_T13U6
 L  SU_T13U7
 L  SU_T13U8
 L  SU_T13U9
 L  SU_T13U10
 L  SU_T13U11
 L  SU_T13U12
 L  SU_T13U13
 L  SU_T13U14
 L  SU_T13U15
 L  SU_T13U16
 L  SU_T13U17
 L  SU_T13U18
 L  SU_T13U19
 L  SU_T13U20
 L  SU_T13U21
 L  SU_T13U22
 L  SU_T13U23
 L  SU_T13U24
 L  SU_T13U25
 L  SU_T13U26
 L  SU_T13U27
 L  SU_T13U28
 L  SU_T13U29
 L  SU_T13U30
 L  SU_T14U1
 L  SU_T14U2
 L  SU_T14U3
 L  SU_T14U4
 L  SU_T14U5
 L  SU_T14U6
 L  SU_T14U7
 L  SU_T14U8
 L  SU_T14U9
 L  SU_T14U10
 L  SU_T14U11
 L  SU_T14U12
 L  SU_T14U13
 L  SU_T14U14
 L  SU_T14U15
 L  SU_T14U16
 L  SU_T14U17
 L  SU_T14U18
 L  SU_T14U19
 L  SU_T14U20
 L  SU_T14U21
 L  SU_T14U22
 L  SU_T14U23
 L  SU_T14U24
 L  SU_T14U25
 L  SU_T14U26
 L  SU_T14U27
 L  SU_T14U28
 L  SU_T14U29
 L  SU_T14U30
 L  SU_T15U1
 L  SU_T15U2
 L  SU_T15U3
 L  SU_T15U4
 L  SU_T15U5
 L  SU_T15U6
 L  SU_T15U7
 L  SU_T15U8
 L  SU_T15U9
 L  SU_T15U10
 L  SU_T15U11
 L  SU_T15U12
 L  SU_T15U13
 L  SU_T15U14
 L  SU_T15U15
 L  SU_T15U16
 L  SU_T15U17
 L  SU_T15U18
 L  SU_T15U19
 L  SU_T15U20
 L  SU_T15U21
 L  SU_T15U22
 L  SU_T15U23
 L  SU_T15U24
 L  SU_T15U25
 L  SU_T15U26
 L  SU_T15U27
 L  SU_T15U28
 L  SU_T15U29
 L  SU_T15U30
 L  SU_T16U1
 L  SU_T16U2
 L  SU_T16U3
 L  SU_T16U4
 L  SU_T16U5
 L  SU_T16U6
 L  SU_T16U7
 L  SU_T16U8
 L  SU_T16U9
 L  SU_T16U10
 L  SU_T16U11
 L  SU_T16U12
 L  SU_T16U13
 L  SU_T16U14
 L  SU_T16U15
 L  SU_T16U16
 L  SU_T16U17
 L  SU_T16U18
 L  SU_T16U19
 L  SU_T16U20
 L  SU_T16U21
 L  SU_T16U22
 L  SU_T16U23
 L  SU_T16U24
 L  SU_T16U25
 L  SU_T16U26
 L  SU_T16U27
 L  SU_T16U28
 L  SU_T16U29
 L  SU_T16U30
 L  SU_T17U1
 L  SU_T17U2
 L  SU_T17U3
 L  SU_T17U4
 L  SU_T17U5
 L  SU_T17U6
 L  SU_T17U7
 L  SU_T17U8
 L  SU_T17U9
 L  SU_T17U10
 L  SU_T17U11
 L  SU_T17U12
 L  SU_T17U13
 L  SU_T17U14
 L  SU_T17U15
 L  SU_T17U16
 L  SU_T17U17
 L  SU_T17U18
 L  SU_T17U19
 L  SU_T17U20
 L  SU_T17U21
 L  SU_T17U22
 L  SU_T17U23
 L  SU_T17U24
 L  SU_T17U25
 L  SU_T17U26
 L  SU_T17U27
 L  SU_T17U28
 L  SU_T17U29
 L  SU_T17U30
 L  SU_T18U1
 L  SU_T18U2
 L  SU_T18U3
 L  SU_T18U4
 L  SU_T18U5
 L  SU_T18U6
 L  SU_T18U7
 L  SU_T18U8
 L  SU_T18U9
 L  SU_T18U10
 L  SU_T18U11
 L  SU_T18U12
 L  SU_T18U13
 L  SU_T18U14
 L  SU_T18U15
 L  SU_T18U16
 L  SU_T18U17
 L  SU_T18U18
 L  SU_T18U19
 L  SU_T18U20
 L  SU_T18U21
 L  SU_T18U22
 L  SU_T18U23
 L  SU_T18U24
 L  SU_T18U25
 L  SU_T18U26
 L  SU_T18U27
 L  SU_T18U28
 L  SU_T18U29
 L  SU_T18U30
 L  SU_T19U1
 L  SU_T19U2
 L  SU_T19U3
 L  SU_T19U4
 L  SU_T19U5
 L  SU_T19U6
 L  SU_T19U7
 L  SU_T19U8
 L  SU_T19U9
 L  SU_T19U10
 L  SU_T19U11
 L  SU_T19U12
 L  SU_T19U13
 L  SU_T19U14
 L  SU_T19U15
 L  SU_T19U16
 L  SU_T19U17
 L  SU_T19U18
 L  SU_T19U19
 L  SU_T19U20
 L  SU_T19U21
 L  SU_T19U22
 L  SU_T19U23
 L  SU_T19U24
 L  SU_T19U25
 L  SU_T19U26
 L  SU_T19U27
 L  SU_T19U28
 L  SU_T19U29
 L  SU_T19U30
 L  SU_T20U1
 L  SU_T20U2
 L  SU_T20U3
 L  SU_T20U4
 L  SU_T20U5
 L  SU_T20U6
 L  SU_T20U7
 L  SU_T20U8
 L  SU_T20U9
 L  SU_T20U10
 L  SU_T20U11
 L  SU_T20U12
 L  SU_T20U13
 L  SU_T20U14
 L  SU_T20U15
 L  SU_T20U16
 L  SU_T20U17
 L  SU_T20U18
 L  SU_T20U19
 L  SU_T20U20
 L  SU_T20U21
 L  SU_T20U22
 L  SU_T20U23
 L  SU_T20U24
 L  SU_T20U25
 L  SU_T20U26
 L  SU_T20U27
 L  SU_T20U28
 L  SU_T20U29
 L  SU_T20U30
 L  SU_T21U1
 L  SU_T21U2
 L  SU_T21U3
 L  SU_T21U4
 L  SU_T21U5
 L  SU_T21U6
 L  SU_T21U7
 L  SU_T21U8
 L  SU_T21U9
 L  SU_T21U10
 L  SU_T21U11
 L  SU_T21U12
 L  SU_T21U13
 L  SU_T21U14
 L  SU_T21U15
 L  SU_T21U16
 L  SU_T21U17
 L  SU_T21U18
 L  SU_T21U19
 L  SU_T21U20
 L  SU_T21U21
 L  SU_T21U22
 L  SU_T21U23
 L  SU_T21U24
 L  SU_T21U25
 L  SU_T21U26
 L  SU_T21U27
 L  SU_T21U28
 L  SU_T21U29
 L  SU_T21U30
 L  SU_T22U1
 L  SU_T22U2
 L  SU_T22U3
 L  SU_T22U4
 L  SU_T22U5
 L  SU_T22U6
 L  SU_T22U7
 L  SU_T22U8
 L  SU_T22U9
 L  SU_T22U10
 L  SU_T22U11
 L  SU_T22U12
 L  SU_T22U13
 L  SU_T22U14
 L  SU_T22U15
 L  SU_T22U16
 L  SU_T22U17
 L  SU_T22U18
 L  SU_T22U19
 L  SU_T22U20
 L  SU_T22U21
 L  SU_T22U22
 L  SU_T22U23
 L  SU_T22U24
 L  SU_T22U25
 L  SU_T22U26
 L  SU_T22U27
 L  SU_T22U28
 L  SU_T22U29
 L  SU_T22U30
 L  SU_T23U1
 L  SU_T23U2
 L  SU_T23U3
 L  SU_T23U4
 L  SU_T23U5
 L  SU_T23U6
 L  SU_T23U7
 L  SU_T23U8
 L  SU_T23U9
 L  SU_T23U10
 L  SU_T23U11
 L  SU_T23U12
 L  SU_T23U13
 L  SU_T23U14
 L  SU_T23U15
 L  SU_T23U16
 L  SU_T23U17
 L  SU_T23U18
 L  SU_T23U19
 L  SU_T23U20
 L  SU_T23U21
 L  SU_T23U22
 L  SU_T23U23
 L  SU_T23U24
 L  SU_T23U25
 L  SU_T23U26
 L  SU_T23U27
 L  SU_T23U28
 L  SU_T23U29
 L  SU_T23U30
 L  SU_T24U1
 L  SU_T24U2
 L  SU_T24U3
 L  SU_T24U4
 L  SU_T24U5
 L  SU_T24U6
 L  SU_T24U7
 L  SU_T24U8
 L  SU_T24U9
 L  SU_T24U10
 L  SU_T24U11
 L  SU_T24U12
 L  SU_T24U13
 L  SU_T24U14
 L  SU_T24U15
 L  SU_T24U16
 L  SU_T24U17
 L  SU_T24U18
 L  SU_T24U19
 L  SU_T24U20
 L  SU_T24U21
 L  SU_T24U22
 L  SU_T24U23
 L  SU_T24U24
 L  SU_T24U25
 L  SU_T24U26
 L  SU_T24U27
 L  SU_T24U28
 L  SU_T24U29
 L  SU_T24U30
 L  SU_T25U1
 L  SU_T25U2
 L  SU_T25U3
 L  SU_T25U4
 L  SU_T25U5
 L  SU_T25U6
 L  SU_T25U7
 L  SU_T25U8
 L  SU_T25U9
 L  SU_T25U10
 L  SU_T25U11
 L  SU_T25U12
 L  SU_T25U13
 L  SU_T25U14
 L  SU_T25U15
 L  SU_T25U16
 L  SU_T25U17
 L  SU_T25U18
 L  SU_T25U19
 L  SU_T25U20
 L  SU_T25U21
 L  SU_T25U22
 L  SU_T25U23
 L  SU_T25U24
 L  SU_T25U25
 L  SU_T25U26
 L  SU_T25U27
 L  SU_T25U28
 L  SU_T25U29
 L  SU_T25U30
 L  SU_T26U1
 L  SU_T26U2
 L  SU_T26U3
 L  SU_T26U4
 L  SU_T26U5
 L  SU_T26U6
 L  SU_T26U7
 L  SU_T26U8
 L  SU_T26U9
 L  SU_T26U10
 L  SU_T26U11
 L  SU_T26U12
 L  SU_T26U13
 L  SU_T26U14
 L  SU_T26U15
 L  SU_T26U16
 L  SU_T26U17
 L  SU_T26U18
 L  SU_T26U19
 L  SU_T26U20
 L  SU_T26U21
 L  SU_T26U22
 L  SU_T26U23
 L  SU_T26U24
 L  SU_T26U25
 L  SU_T26U26
 L  SU_T26U27
 L  SU_T26U28
 L  SU_T26U29
 L  SU_T26U30
 L  SU_T27U1
 L  SU_T27U2
 L  SU_T27U3
 L  SU_T27U4
 L  SU_T27U5
 L  SU_T27U6
 L  SU_T27U7
 L  SU_T27U8
 L  SU_T27U9
 L  SU_T27U10
 L  SU_T27U11
 L  SU_T27U12
 L  SU_T27U13
 L  SU_T27U14
 L  SU_T27U15
 L  SU_T27U16
 L  SU_T27U17
 L  SU_T27U18
 L  SU_T27U19
 L  SU_T27U20
 L  SU_T27U21
 L  SU_T27U22
 L  SU_T27U23
 L  SU_T27U24
 L  SU_T27U25
 L  SU_T27U26
 L  SU_T27U27
 L  SU_T27U28
 L  SU_T27U29
 L  SU_T27U30
 L  SU_T28U1
 L  SU_T28U2
 L  SU_T28U3
 L  SU_T28U4
 L  SU_T28U5
 L  SU_T28U6
 L  SU_T28U7
 L  SU_T28U8
 L  SU_T28U9
 L  SU_T28U10
 L  SU_T28U11
 L  SU_T28U12
 L  SU_T28U13
 L  SU_T28U14
 L  SU_T28U15
 L  SU_T28U16
 L  SU_T28U17
 L  SU_T28U18
 L  SU_T28U19
 L  SU_T28U20
 L  SU_T28U21
 L  SU_T28U22
 L  SU_T28U23
 L  SU_T28U24
 L  SU_T28U25
 L  SU_T28U26
 L  SU_T28U27
 L  SU_T28U28
 L  SU_T28U29
 L  SU_T28U30
 L  SU_T29U1
 L  SU_T29U2
 L  SU_T29U3
 L  SU_T29U4
 L  SU_T29U5
 L  SU_T29U6
 L  SU_T29U7
 L  SU_T29U8
 L  SU_T29U9
 L  SU_T29U10
 L  SU_T29U11
 L  SU_T29U12
 L  SU_T29U13
 L  SU_T29U14
 L  SU_T29U15
 L  SU_T29U16
 L  SU_T29U17
 L  SU_T29U18
 L  SU_T29U19
 L  SU_T29U20
 L  SU_T29U21
 L  SU_T29U22
 L  SU_T29U23
 L  SU_T29U24
 L  SU_T29U25
 L  SU_T29U26
 L  SU_T29U27
 L  SU_T29U28
 L  SU_T29U29
 L  SU_T29U30
 L  SU_T30U1
 L  SU_T30U2
 L  SU_T30U3
 L  SU_T30U4
 L  SU_T30U5
 L  SU_T30U6
 L  SU_T30U7
 L  SU_T30U8
 L  SU_T30U9
 L  SU_T30U10
 L  SU_T30U11
 L  SU_T30U12
 L  SU_T30U13
 L  SU_T30U14
 L  SU_T30U15
 L  SU_T30U16
 L  SU_T30U17
 L  SU_T30U18
 L  SU_T30U19
 L  SU_T30U20
 L  SU_T30U21
 L  SU_T30U22
 L  SU_T30U23
 L  SU_T30U24
 L  SU_T30U25
 L  SU_T30U26
 L  SU_T30U27
 L  SU_T30U28
 L  SU_T30U29
 L  SU_T30U30
 L  SU_T31U1
 L  SU_T31U2
 L  SU_T31U3
 L  SU_T31U4
 L  SU_T31U5
 L  SU_T31U6
 L  SU_T31U7
 L  SU_T31U8
 L  SU_T31U9
 L  SU_T31U10
 L  SU_T31U11
 L  SU_T31U12
 L  SU_T31U13
 L  SU_T31U14
 L  SU_T31U15
 L  SU_T31U16
 L  SU_T31U17
 L  SU_T31U18
 L  SU_T31U19
 L  SU_T31U20
 L  SU_T31U21
 L  SU_T31U22
 L  SU_T31U23
 L  SU_T31U24
 L  SU_T31U25
 L  SU_T31U26
 L  SU_T31U27
 L  SU_T31U28
 L  SU_T31U29
 L  SU_T31U30
 L  SU_T32U1
 L  SU_T32U2
 L  SU_T32U3
 L  SU_T32U4
 L  SU_T32U5
 L  SU_T32U6
 L  SU_T32U7
 L  SU_T32U8
 L  SU_T32U9
 L  SU_T32U10
 L  SU_T32U11
 L  SU_T32U12
 L  SU_T32U13
 L  SU_T32U14
 L  SU_T32U15
 L  SU_T32U16
 L  SU_T32U17
 L  SU_T32U18
 L  SU_T32U19
 L  SU_T32U20
 L  SU_T32U21
 L  SU_T32U22
 L  SU_T32U23
 L  SU_T32U24
 L  SU_T32U25
 L  SU_T32U26
 L  SU_T32U27
 L  SU_T32U28
 L  SU_T32U29
 L  SU_T32U30
 L  SU_T33U1
 L  SU_T33U2
 L  SU_T33U3
 L  SU_T33U4
 L  SU_T33U5
 L  SU_T33U6
 L  SU_T33U7
 L  SU_T33U8
 L  SU_T33U9
 L  SU_T33U10
 L  SU_T33U11
 L  SU_T33U12
 L  SU_T33U13
 L  SU_T33U14
 L  SU_T33U15
 L  SU_T33U16
 L  SU_T33U17
 L  SU_T33U18
 L  SU_T33U19
 L  SU_T33U20
 L  SU_T33U21
 L  SU_T33U22
 L  SU_T33U23
 L  SU_T33U24
 L  SU_T33U25
 L  SU_T33U26
 L  SU_T33U27
 L  SU_T33U28
 L  SU_T33U29
 L  SU_T33U30
 L  SU_T34U1
 L  SU_T34U2
 L  SU_T34U3
 L  SU_T34U4
 L  SU_T34U5
 L  SU_T34U6
 L  SU_T34U7
 L  SU_T34U8
 L  SU_T34U9
 L  SU_T34U10
 L  SU_T34U11
 L  SU_T34U12
 L  SU_T34U13
 L  SU_T34U14
 L  SU_T34U15
 L  SU_T34U16
 L  SU_T34U17
 L  SU_T34U18
 L  SU_T34U19
 L  SU_T34U20
 L  SU_T34U21
 L  SU_T34U22
 L  SU_T34U23
 L  SU_T34U24
 L  SU_T34U25
 L  SU_T34U26
 L  SU_T34U27
 L  SU_T34U28
 L  SU_T34U29
 L  SU_T34U30
 L  SU_T35U1
 L  SU_T35U2
 L  SU_T35U3
 L  SU_T35U4
 L  SU_T35U5
 L  SU_T35U6
 L  SU_T35U7
 L  SU_T35U8
 L  SU_T35U9
 L  SU_T35U10
 L  SU_T35U11
 L  SU_T35U12
 L  SU_T35U13
 L  SU_T35U14
 L  SU_T35U15
 L  SU_T35U16
 L  SU_T35U17
 L  SU_T35U18
 L  SU_T35U19
 L  SU_T35U20
 L  SU_T35U21
 L  SU_T35U22
 L  SU_T35U23
 L  SU_T35U24
 L  SU_T35U25
 L  SU_T35U26
 L  SU_T35U27
 L  SU_T35U28
 L  SU_T35U29
 L  SU_T35U30
 L  SU_T36U1
 L  SU_T36U2
 L  SU_T36U3
 L  SU_T36U4
 L  SU_T36U5
 L  SU_T36U6
 L  SU_T36U7
 L  SU_T36U8
 L  SU_T36U9
 L  SU_T36U10
 L  SU_T36U11
 L  SU_T36U12
 L  SU_T36U13
 L  SU_T36U14
 L  SU_T36U15
 L  SU_T36U16
 L  SU_T36U17
 L  SU_T36U18
 L  SU_T36U19
 L  SU_T36U20
 L  SU_T36U21
 L  SU_T36U22
 L  SU_T36U23
 L  SU_T36U24
 L  SU_T36U25
 L  SU_T36U26
 L  SU_T36U27
 L  SU_T36U28
 L  SU_T36U29
 L  SU_T36U30
 L  SU_T37U1
 L  SU_T37U2
 L  SU_T37U3
 L  SU_T37U4
 L  SU_T37U5
 L  SU_T37U6
 L  SU_T37U7
 L  SU_T37U8
 L  SU_T37U9
 L  SU_T37U10
 L  SU_T37U11
 L  SU_T37U12
 L  SU_T37U13
 L  SU_T37U14
 L  SU_T37U15
 L  SU_T37U16
 L  SU_T37U17
 L  SU_T37U18
 L  SU_T37U19
 L  SU_T37U20
 L  SU_T37U21
 L  SU_T37U22
 L  SU_T37U23
 L  SU_T37U24
 L  SU_T37U25
 L  SU_T37U26
 L  SU_T37U27
 L  SU_T37U28
 L  SU_T37U29
 L  SU_T37U30
 L  SU_T38U1
 L  SU_T38U2
 L  SU_T38U3
 L  SU_T38U4
 L  SU_T38U5
 L  SU_T38U6
 L  SU_T38U7
 L  SU_T38U8
 L  SU_T38U9
 L  SU_T38U10
 L  SU_T38U11
 L  SU_T38U12
 L  SU_T38U13
 L  SU_T38U14
 L  SU_T38U15
 L  SU_T38U16
 L  SU_T38U17
 L  SU_T38U18
 L  SU_T38U19
 L  SU_T38U20
 L  SU_T38U21
 L  SU_T38U22
 L  SU_T38U23
 L  SU_T38U24
 L  SU_T38U25
 L  SU_T38U26
 L  SU_T38U27
 L  SU_T38U28
 L  SU_T38U29
 L  SU_T38U30
 L  SU_T39U1
 L  SU_T39U2
 L  SU_T39U3
 L  SU_T39U4
 L  SU_T39U5
 L  SU_T39U6
 L  SU_T39U7
 L  SU_T39U8
 L  SU_T39U9
 L  SU_T39U10
 L  SU_T39U11
 L  SU_T39U12
 L  SU_T39U13
 L  SU_T39U14
 L  SU_T39U15
 L  SU_T39U16
 L  SU_T39U17
 L  SU_T39U18
 L  SU_T39U19
 L  SU_T39U20
 L  SU_T39U21
 L  SU_T39U22
 L  SU_T39U23
 L  SU_T39U24
 L  SU_T39U25
 L  SU_T39U26
 L  SU_T39U27
 L  SU_T39U28
 L  SU_T39U29
 L  SU_T39U30
 L  SU_T40U1
 L  SU_T40U2
 L  SU_T40U3
 L  SU_T40U4
 L  SU_T40U5
 L  SU_T40U6
 L  SU_T40U7
 L  SU_T40U8
 L  SU_T40U9
 L  SU_T40U10
 L  SU_T40U11
 L  SU_T40U12
 L  SU_T40U13
 L  SU_T40U14
 L  SU_T40U15
 L  SU_T40U16
 L  SU_T40U17
 L  SU_T40U18
 L  SU_T40U19
 L  SU_T40U20
 L  SU_T40U21
 L  SU_T40U22
 L  SU_T40U23
 L  SU_T40U24
 L  SU_T40U25
 L  SU_T40U26
 L  SU_T40U27
 L  SU_T40U28
 L  SU_T40U29
 L  SU_T40U30
 L  SU_T41U1
 L  SU_T41U2
 L  SU_T41U3
 L  SU_T41U4
 L  SU_T41U5
 L  SU_T41U6
 L  SU_T41U7
 L  SU_T41U8
 L  SU_T41U9
 L  SU_T41U10
 L  SU_T41U11
 L  SU_T41U12
 L  SU_T41U13
 L  SU_T41U14
 L  SU_T41U15
 L  SU_T41U16
 L  SU_T41U17
 L  SU_T41U18
 L  SU_T41U19
 L  SU_T41U20
 L  SU_T41U21
 L  SU_T41U22
 L  SU_T41U23
 L  SU_T41U24
 L  SU_T41U25
 L  SU_T41U26
 L  SU_T41U27
 L  SU_T41U28
 L  SU_T41U29
 L  SU_T41U30
 L  SU_T42U1
 L  SU_T42U2
 L  SU_T42U3
 L  SU_T42U4
 L  SU_T42U5
 L  SU_T42U6
 L  SU_T42U7
 L  SU_T42U8
 L  SU_T42U9
 L  SU_T42U10
 L  SU_T42U11
 L  SU_T42U12
 L  SU_T42U13
 L  SU_T42U14
 L  SU_T42U15
 L  SU_T42U16
 L  SU_T42U17
 L  SU_T42U18
 L  SU_T42U19
 L  SU_T42U20
 L  SU_T42U21
 L  SU_T42U22
 L  SU_T42U23
 L  SU_T42U24
 L  SU_T42U25
 L  SU_T42U26
 L  SU_T42U27
 L  SU_T42U28
 L  SU_T42U29
 L  SU_T42U30
 L  SU_T43U1
 L  SU_T43U2
 L  SU_T43U3
 L  SU_T43U4
 L  SU_T43U5
 L  SU_T43U6
 L  SU_T43U7
 L  SU_T43U8
 L  SU_T43U9
 L  SU_T43U10
 L  SU_T43U11
 L  SU_T43U12
 L  SU_T43U13
 L  SU_T43U14
 L  SU_T43U15
 L  SU_T43U16
 L  SU_T43U17
 L  SU_T43U18
 L  SU_T43U19
 L  SU_T43U20
 L  SU_T43U21
 L  SU_T43U22
 L  SU_T43U23
 L  SU_T43U24
 L  SU_T43U25
 L  SU_T43U26
 L  SU_T43U27
 L  SU_T43U28
 L  SU_T43U29
 L  SU_T43U30
 L  SU_T44U1
 L  SU_T44U2
 L  SU_T44U3
 L  SU_T44U4
 L  SU_T44U5
 L  SU_T44U6
 L  SU_T44U7
 L  SU_T44U8
 L  SU_T44U9
 L  SU_T44U10
 L  SU_T44U11
 L  SU_T44U12
 L  SU_T44U13
 L  SU_T44U14
 L  SU_T44U15
 L  SU_T44U16
 L  SU_T44U17
 L  SU_T44U18
 L  SU_T44U19
 L  SU_T44U20
 L  SU_T44U21
 L  SU_T44U22
 L  SU_T44U23
 L  SU_T44U24
 L  SU_T44U25
 L  SU_T44U26
 L  SU_T44U27
 L  SU_T44U28
 L  SU_T44U29
 L  SU_T44U30
 L  SU_T45U1
 L  SU_T45U2
 L  SU_T45U3
 L  SU_T45U4
 L  SU_T45U5
 L  SU_T45U6
 L  SU_T45U7
 L  SU_T45U8
 L  SU_T45U9
 L  SU_T45U10
 L  SU_T45U11
 L  SU_T45U12
 L  SU_T45U13
 L  SU_T45U14
 L  SU_T45U15
 L  SU_T45U16
 L  SU_T45U17
 L  SU_T45U18
 L  SU_T45U19
 L  SU_T45U20
 L  SU_T45U21
 L  SU_T45U22
 L  SU_T45U23
 L  SU_T45U24
 L  SU_T45U25
 L  SU_T45U26
 L  SU_T45U27
 L  SU_T45U28
 L  SU_T45U29
 L  SU_T45U30
 L  SU_T46U1
 L  SU_T46U2
 L  SU_T46U3
 L  SU_T46U4
 L  SU_T46U5
 L  SU_T46U6
 L  SU_T46U7
 L  SU_T46U8
 L  SU_T46U9
 L  SU_T46U10
 L  SU_T46U11
 L  SU_T46U12
 L  SU_T46U13
 L  SU_T46U14
 L  SU_T46U15
 L  SU_T46U16
 L  SU_T46U17
 L  SU_T46U18
 L  SU_T46U19
 L  SU_T46U20
 L  SU_T46U21
 L  SU_T46U22
 L  SU_T46U23
 L  SU_T46U24
 L  SU_T46U25
 L  SU_T46U26
 L  SU_T46U27
 L  SU_T46U28
 L  SU_T46U29
 L  SU_T46U30
 L  SU_T47U1
 L  SU_T47U2
 L  SU_T47U3
 L  SU_T47U4
 L  SU_T47U5
 L  SU_T47U6
 L  SU_T47U7
 L  SU_T47U8
 L  SU_T47U9
 L  SU_T47U10
 L  SU_T47U11
 L  SU_T47U12
 L  SU_T47U13
 L  SU_T47U14
 L  SU_T47U15
 L  SU_T47U16
 L  SU_T47U17
 L  SU_T47U18
 L  SU_T47U19
 L  SU_T47U20
 L  SU_T47U21
 L  SU_T47U22
 L  SU_T47U23
 L  SU_T47U24
 L  SU_T47U25
 L  SU_T47U26
 L  SU_T47U27
 L  SU_T47U28
 L  SU_T47U29
 L  SU_T47U30
 L  SU_T48U1
 L  SU_T48U2
 L  SU_T48U3
 L  SU_T48U4
 L  SU_T48U5
 L  SU_T48U6
 L  SU_T48U7
 L  SU_T48U8
 L  SU_T48U9
 L  SU_T48U10
 L  SU_T48U11
 L  SU_T48U12
 L  SU_T48U13
 L  SU_T48U14
 L  SU_T48U15
 L  SU_T48U16
 L  SU_T48U17
 L  SU_T48U18
 L  SU_T48U19
 L  SU_T48U20
 L  SU_T48U21
 L  SU_T48U22
 L  SU_T48U23
 L  SU_T48U24
 L  SU_T48U25
 L  SU_T48U26
 L  SU_T48U27
 L  SU_T48U28
 L  SU_T48U29
 L  SU_T48U30
 L  SU_T49U1
 L  SU_T49U2
 L  SU_T49U3
 L  SU_T49U4
 L  SU_T49U5
 L  SU_T49U6
 L  SU_T49U7
 L  SU_T49U8
 L  SU_T49U9
 L  SU_T49U10
 L  SU_T49U11
 L  SU_T49U12
 L  SU_T49U13
 L  SU_T49U14
 L  SU_T49U15
 L  SU_T49U16
 L  SU_T49U17
 L  SU_T49U18
 L  SU_T49U19
 L  SU_T49U20
 L  SU_T49U21
 L  SU_T49U22
 L  SU_T49U23
 L  SU_T49U24
 L  SU_T49U25
 L  SU_T49U26
 L  SU_T49U27
 L  SU_T49U28
 L  SU_T49U29
 L  SU_T49U30
 L  SU_T50U1
 L  SU_T50U2
 L  SU_T50U3
 L  SU_T50U4
 L  SU_T50U5
 L  SU_T50U6
 L  SU_T50U7
 L  SU_T50U8
 L  SU_T50U9
 L  SU_T50U10
 L  SU_T50U11
 L  SU_T50U12
 L  SU_T50U13
 L  SU_T50U14
 L  SU_T50U15
 L  SU_T50U16
 L  SU_T50U17
 L  SU_T50U18
 L  SU_T50U19
 L  SU_T50U20
 L  SU_T50U21
 L  SU_T50U22
 L  SU_T50U23
 L  SU_T50U24
 L  SU_T50U25
 L  SU_T50U26
 L  SU_T50U27
 L  SU_T50U28
 L  SU_T50U29
 L  SU_T50U30
 L  SU_T51U1
 L  SU_T51U2
 L  SU_T51U3
 L  SU_T51U4
 L  SU_T51U5
 L  SU_T51U6
 L  SU_T51U7
 L  SU_T51U8
 L  SU_T51U9
 L  SU_T51U10
 L  SU_T51U11
 L  SU_T51U12
 L  SU_T51U13
 L  SU_T51U14
 L  SU_T51U15
 L  SU_T51U16
 L  SU_T51U17
 L  SU_T51U18
 L  SU_T51U19
 L  SU_T51U20
 L  SU_T51U21
 L  SU_T51U22
 L  SU_T51U23
 L  SU_T51U24
 L  SU_T51U25
 L  SU_T51U26
 L  SU_T51U27
 L  SU_T51U28
 L  SU_T51U29
 L  SU_T51U30
 L  SU_T52U1
 L  SU_T52U2
 L  SU_T52U3
 L  SU_T52U4
 L  SU_T52U5
 L  SU_T52U6
 L  SU_T52U7
 L  SU_T52U8
 L  SU_T52U9
 L  SU_T52U10
 L  SU_T52U11
 L  SU_T52U12
 L  SU_T52U13
 L  SU_T52U14
 L  SU_T52U15
 L  SU_T52U16
 L  SU_T52U17
 L  SU_T52U18
 L  SU_T52U19
 L  SU_T52U20
 L  SU_T52U21
 L  SU_T52U22
 L  SU_T52U23
 L  SU_T52U24
 L  SU_T52U25
 L  SU_T52U26
 L  SU_T52U27
 L  SU_T52U28
 L  SU_T52U29
 L  SU_T52U30
 L  SU_T53U1
 L  SU_T53U2
 L  SU_T53U3
 L  SU_T53U4
 L  SU_T53U5
 L  SU_T53U6
 L  SU_T53U7
 L  SU_T53U8
 L  SU_T53U9
 L  SU_T53U10
 L  SU_T53U11
 L  SU_T53U12
 L  SU_T53U13
 L  SU_T53U14
 L  SU_T53U15
 L  SU_T53U16
 L  SU_T53U17
 L  SU_T53U18
 L  SU_T53U19
 L  SU_T53U20
 L  SU_T53U21
 L  SU_T53U22
 L  SU_T53U23
 L  SU_T53U24
 L  SU_T53U25
 L  SU_T53U26
 L  SU_T53U27
 L  SU_T53U28
 L  SU_T53U29
 L  SU_T53U30
 L  SU_T54U1
 L  SU_T54U2
 L  SU_T54U3
 L  SU_T54U4
 L  SU_T54U5
 L  SU_T54U6
 L  SU_T54U7
 L  SU_T54U8
 L  SU_T54U9
 L  SU_T54U10
 L  SU_T54U11
 L  SU_T54U12
 L  SU_T54U13
 L  SU_T54U14
 L  SU_T54U15
 L  SU_T54U16
 L  SU_T54U17
 L  SU_T54U18
 L  SU_T54U19
 L  SU_T54U20
 L  SU_T54U21
 L  SU_T54U22
 L  SU_T54U23
 L  SU_T54U24
 L  SU_T54U25
 L  SU_T54U26
 L  SU_T54U27
 L  SU_T54U28
 L  SU_T54U29
 L  SU_T54U30
 L  SU_T55U1
 L  SU_T55U2
 L  SU_T55U3
 L  SU_T55U4
 L  SU_T55U5
 L  SU_T55U6
 L  SU_T55U7
 L  SU_T55U8
 L  SU_T55U9
 L  SU_T55U10
 L  SU_T55U11
 L  SU_T55U12
 L  SU_T55U13
 L  SU_T55U14
 L  SU_T55U15
 L  SU_T55U16
 L  SU_T55U17
 L  SU_T55U18
 L  SU_T55U19
 L  SU_T55U20
 L  SU_T55U21
 L  SU_T55U22
 L  SU_T55U23
 L  SU_T55U24
 L  SU_T55U25
 L  SU_T55U26
 L  SU_T55U27
 L  SU_T55U28
 L  SU_T55U29
 L  SU_T55U30
 L  SU_T56U1
 L  SU_T56U2
 L  SU_T56U3
 L  SU_T56U4
 L  SU_T56U5
 L  SU_T56U6
 L  SU_T56U7
 L  SU_T56U8
 L  SU_T56U9
 L  SU_T56U10
 L  SU_T56U11
 L  SU_T56U12
 L  SU_T56U13
 L  SU_T56U14
 L  SU_T56U15
 L  SU_T56U16
 L  SU_T56U17
 L  SU_T56U18
 L  SU_T56U19
 L  SU_T56U20
 L  SU_T56U21
 L  SU_T56U22
 L  SU_T56U23
 L  SU_T56U24
 L  SU_T56U25
 L  SU_T56U26
 L  SU_T56U27
 L  SU_T56U28
 L  SU_T56U29
 L  SU_T56U30
 L  SU_T57U1
 L  SU_T57U2
 L  SU_T57U3
 L  SU_T57U4
 L  SU_T57U5
 L  SU_T57U6
 L  SU_T57U7
 L  SU_T57U8
 L  SU_T57U9
 L  SU_T57U10
 L  SU_T57U11
 L  SU_T57U12
 L  SU_T57U13
 L  SU_T57U14
 L  SU_T57U15
 L  SU_T57U16
 L  SU_T57U17
 L  SU_T57U18
 L  SU_T57U19
 L  SU_T57U20
 L  SU_T57U21
 L  SU_T57U22
 L  SU_T57U23
 L  SU_T57U24
 L  SU_T57U25
 L  SU_T57U26
 L  SU_T57U27
 L  SU_T57U28
 L  SU_T57U29
 L  SU_T57U30
 L  SU_T58U1
 L  SU_T58U2
 L  SU_T58U3
 L  SU_T58U4
 L  SU_T58U5
 L  SU_T58U6
 L  SU_T58U7
 L  SU_T58U8
 L  SU_T58U9
 L  SU_T58U10
 L  SU_T58U11
 L  SU_T58U12
 L  SU_T58U13
 L  SU_T58U14
 L  SU_T58U15
 L  SU_T58U16
 L  SU_T58U17
 L  SU_T58U18
 L  SU_T58U19
 L  SU_T58U20
 L  SU_T58U21
 L  SU_T58U22
 L  SU_T58U23
 L  SU_T58U24
 L  SU_T58U25
 L  SU_T58U26
 L  SU_T58U27
 L  SU_T58U28
 L  SU_T58U29
 L  SU_T58U30
 L  SU_T59U1
 L  SU_T59U2
 L  SU_T59U3
 L  SU_T59U4
 L  SU_T59U5
 L  SU_T59U6
 L  SU_T59U7
 L  SU_T59U8
 L  SU_T59U9
 L  SU_T59U10
 L  SU_T59U11
 L  SU_T59U12
 L  SU_T59U13
 L  SU_T59U14
 L  SU_T59U15
 L  SU_T59U16
 L  SU_T59U17
 L  SU_T59U18
 L  SU_T59U19
 L  SU_T59U20
 L  SU_T59U21
 L  SU_T59U22
 L  SU_T59U23
 L  SU_T59U24
 L  SU_T59U25
 L  SU_T59U26
 L  SU_T59U27
 L  SU_T59U28
 L  SU_T59U29
 L  SU_T59U30
 L  SU_T60U1
 L  SU_T60U2
 L  SU_T60U3
 L  SU_T60U4
 L  SU_T60U5
 L  SU_T60U6
 L  SU_T60U7
 L  SU_T60U8
 L  SU_T60U9
 L  SU_T60U10
 L  SU_T60U11
 L  SU_T60U12
 L  SU_T60U13
 L  SU_T60U14
 L  SU_T60U15
 L  SU_T60U16
 L  SU_T60U17
 L  SU_T60U18
 L  SU_T60U19
 L  SU_T60U20
 L  SU_T60U21
 L  SU_T60U22
 L  SU_T60U23
 L  SU_T60U24
 L  SU_T60U25
 L  SU_T60U26
 L  SU_T60U27
 L  SU_T60U28
 L  SU_T60U29
 L  SU_T60U30
 L  SU_T61U1
 L  SU_T61U2
 L  SU_T61U3
 L  SU_T61U4
 L  SU_T61U5
 L  SU_T61U6
 L  SU_T61U7
 L  SU_T61U8
 L  SU_T61U9
 L  SU_T61U10
 L  SU_T61U11
 L  SU_T61U12
 L  SU_T61U13
 L  SU_T61U14
 L  SU_T61U15
 L  SU_T61U16
 L  SU_T61U17
 L  SU_T61U18
 L  SU_T61U19
 L  SU_T61U20
 L  SU_T61U21
 L  SU_T61U22
 L  SU_T61U23
 L  SU_T61U24
 L  SU_T61U25
 L  SU_T61U26
 L  SU_T61U27
 L  SU_T61U28
 L  SU_T61U29
 L  SU_T61U30
 L  SU_T62U1
 L  SU_T62U2
 L  SU_T62U3
 L  SU_T62U4
 L  SU_T62U5
 L  SU_T62U6
 L  SU_T62U7
 L  SU_T62U8
 L  SU_T62U9
 L  SU_T62U10
 L  SU_T62U11
 L  SU_T62U12
 L  SU_T62U13
 L  SU_T62U14
 L  SU_T62U15
 L  SU_T62U16
 L  SU_T62U17
 L  SU_T62U18
 L  SU_T62U19
 L  SU_T62U20
 L  SU_T62U21
 L  SU_T62U22
 L  SU_T62U23
 L  SU_T62U24
 L  SU_T62U25
 L  SU_T62U26
 L  SU_T62U27
 L  SU_T62U28
 L  SU_T62U29
 L  SU_T62U30
 L  SU_T63U1
 L  SU_T63U2
 L  SU_T63U3
 L  SU_T63U4
 L  SU_T63U5
 L  SU_T63U6
 L  SU_T63U7
 L  SU_T63U8
 L  SU_T63U9
 L  SU_T63U10
 L  SU_T63U11
 L  SU_T63U12
 L  SU_T63U13
 L  SU_T63U14
 L  SU_T63U15
 L  SU_T63U16
 L  SU_T63U17
 L  SU_T63U18
 L  SU_T63U19
 L  SU_T63U20
 L  SU_T63U21
 L  SU_T63U22
 L  SU_T63U23
 L  SU_T63U24
 L  SU_T63U25
 L  SU_T63U26
 L  SU_T63U27
 L  SU_T63U28
 L  SU_T63U29
 L  SU_T63U30
 L  SU_T64U1
 L  SU_T64U2
 L  SU_T64U3
 L  SU_T64U4
 L  SU_T64U5
 L  SU_T64U6
 L  SU_T64U7
 L  SU_T64U8
 L  SU_T64U9
 L  SU_T64U10
 L  SU_T64U11
 L  SU_T64U12
 L  SU_T64U13
 L  SU_T64U14
 L  SU_T64U15
 L  SU_T64U16
 L  SU_T64U17
 L  SU_T64U18
 L  SU_T64U19
 L  SU_T64U20
 L  SU_T64U21
 L  SU_T64U22
 L  SU_T64U23
 L  SU_T64U24
 L  SU_T64U25
 L  SU_T64U26
 L  SU_T64U27
 L  SU_T64U28
 L  SU_T64U29
 L  SU_T64U30
 L  SU_T65U1
 L  SU_T65U2
 L  SU_T65U3
 L  SU_T65U4
 L  SU_T65U5
 L  SU_T65U6
 L  SU_T65U7
 L  SU_T65U8
 L  SU_T65U9
 L  SU_T65U10
 L  SU_T65U11
 L  SU_T65U12
 L  SU_T65U13
 L  SU_T65U14
 L  SU_T65U15
 L  SU_T65U16
 L  SU_T65U17
 L  SU_T65U18
 L  SU_T65U19
 L  SU_T65U20
 L  SU_T65U21
 L  SU_T65U22
 L  SU_T65U23
 L  SU_T65U24
 L  SU_T65U25
 L  SU_T65U26
 L  SU_T65U27
 L  SU_T65U28
 L  SU_T65U29
 L  SU_T65U30
 L  SU_T66U1
 L  SU_T66U2
 L  SU_T66U3
 L  SU_T66U4
 L  SU_T66U5
 L  SU_T66U6
 L  SU_T66U7
 L  SU_T66U8
 L  SU_T66U9
 L  SU_T66U10
 L  SU_T66U11
 L  SU_T66U12
 L  SU_T66U13
 L  SU_T66U14
 L  SU_T66U15
 L  SU_T66U16
 L  SU_T66U17
 L  SU_T66U18
 L  SU_T66U19
 L  SU_T66U20
 L  SU_T66U21
 L  SU_T66U22
 L  SU_T66U23
 L  SU_T66U24
 L  SU_T66U25
 L  SU_T66U26
 L  SU_T66U27
 L  SU_T66U28
 L  SU_T66U29
 L  SU_T66U30
 L  SU_T67U1
 L  SU_T67U2
 L  SU_T67U3
 L  SU_T67U4
 L  SU_T67U5
 L  SU_T67U6
 L  SU_T67U7
 L  SU_T67U8
 L  SU_T67U9
 L  SU_T67U10
 L  SU_T67U11
 L  SU_T67U12
 L  SU_T67U13
 L  SU_T67U14
 L  SU_T67U15
 L  SU_T67U16
 L  SU_T67U17
 L  SU_T67U18
 L  SU_T67U19
 L  SU_T67U20
 L  SU_T67U21
 L  SU_T67U22
 L  SU_T67U23
 L  SU_T67U24
 L  SU_T67U25
 L  SU_T67U26
 L  SU_T67U27
 L  SU_T67U28
 L  SU_T67U29
 L  SU_T67U30
 L  SU_T68U1
 L  SU_T68U2
 L  SU_T68U3
 L  SU_T68U4
 L  SU_T68U5
 L  SU_T68U6
 L  SU_T68U7
 L  SU_T68U8
 L  SU_T68U9
 L  SU_T68U10
 L  SU_T68U11
 L  SU_T68U12
 L  SU_T68U13
 L  SU_T68U14
 L  SU_T68U15
 L  SU_T68U16
 L  SU_T68U17
 L  SU_T68U18
 L  SU_T68U19
 L  SU_T68U20
 L  SU_T68U21
 L  SU_T68U22
 L  SU_T68U23
 L  SU_T68U24
 L  SU_T68U25
 L  SU_T68U26
 L  SU_T68U27
 L  SU_T68U28
 L  SU_T68U29
 L  SU_T68U30
 L  SU_T69U1
 L  SU_T69U2
 L  SU_T69U3
 L  SU_T69U4
 L  SU_T69U5
 L  SU_T69U6
 L  SU_T69U7
 L  SU_T69U8
 L  SU_T69U9
 L  SU_T69U10
 L  SU_T69U11
 L  SU_T69U12
 L  SU_T69U13
 L  SU_T69U14
 L  SU_T69U15
 L  SU_T69U16
 L  SU_T69U17
 L  SU_T69U18
 L  SU_T69U19
 L  SU_T69U20
 L  SU_T69U21
 L  SU_T69U22
 L  SU_T69U23
 L  SU_T69U24
 L  SU_T69U25
 L  SU_T69U26
 L  SU_T69U27
 L  SU_T69U28
 L  SU_T69U29
 L  SU_T69U30
 L  SU_T70U1
 L  SU_T70U2
 L  SU_T70U3
 L  SU_T70U4
 L  SU_T70U5
 L  SU_T70U6
 L  SU_T70U7
 L  SU_T70U8
 L  SU_T70U9
 L  SU_T70U10
 L  SU_T70U11
 L  SU_T70U12
 L  SU_T70U13
 L  SU_T70U14
 L  SU_T70U15
 L  SU_T70U16
 L  SU_T70U17
 L  SU_T70U18
 L  SU_T70U19
 L  SU_T70U20
 L  SU_T70U21
 L  SU_T70U22
 L  SU_T70U23
 L  SU_T70U24
 L  SU_T70U25
 L  SU_T70U26
 L  SU_T70U27
 L  SU_T70U28
 L  SU_T70U29
 L  SU_T70U30
 L  SU_T71U1
 L  SU_T71U2
 L  SU_T71U3
 L  SU_T71U4
 L  SU_T71U5
 L  SU_T71U6
 L  SU_T71U7
 L  SU_T71U8
 L  SU_T71U9
 L  SU_T71U10
 L  SU_T71U11
 L  SU_T71U12
 L  SU_T71U13
 L  SU_T71U14
 L  SU_T71U15
 L  SU_T71U16
 L  SU_T71U17
 L  SU_T71U18
 L  SU_T71U19
 L  SU_T71U20
 L  SU_T71U21
 L  SU_T71U22
 L  SU_T71U23
 L  SU_T71U24
 L  SU_T71U25
 L  SU_T71U26
 L  SU_T71U27
 L  SU_T71U28
 L  SU_T71U29
 L  SU_T71U30
 L  SU_T72U1
 L  SU_T72U2
 L  SU_T72U3
 L  SU_T72U4
 L  SU_T72U5
 L  SU_T72U6
 L  SU_T72U7
 L  SU_T72U8
 L  SU_T72U9
 L  SU_T72U10
 L  SU_T72U11
 L  SU_T72U12
 L  SU_T72U13
 L  SU_T72U14
 L  SU_T72U15
 L  SU_T72U16
 L  SU_T72U17
 L  SU_T72U18
 L  SU_T72U19
 L  SU_T72U20
 L  SU_T72U21
 L  SU_T72U22
 L  SU_T72U23
 L  SU_T72U24
 L  SU_T72U25
 L  SU_T72U26
 L  SU_T72U27
 L  SU_T72U28
 L  SU_T72U29
 L  SU_T72U30
 L  SU_T73U1
 L  SU_T73U2
 L  SU_T73U3
 L  SU_T73U4
 L  SU_T73U5
 L  SU_T73U6
 L  SU_T73U7
 L  SU_T73U8
 L  SU_T73U9
 L  SU_T73U10
 L  SU_T73U11
 L  SU_T73U12
 L  SU_T73U13
 L  SU_T73U14
 L  SU_T73U15
 L  SU_T73U16
 L  SU_T73U17
 L  SU_T73U18
 L  SU_T73U19
 L  SU_T73U20
 L  SU_T73U21
 L  SU_T73U22
 L  SU_T73U23
 L  SU_T73U24
 L  SU_T73U25
 L  SU_T73U26
 L  SU_T73U27
 L  SU_T73U28
 L  SU_T73U29
 L  SU_T73U30
 L  SU_T74U1
 L  SU_T74U2
 L  SU_T74U3
 L  SU_T74U4
 L  SU_T74U5
 L  SU_T74U6
 L  SU_T74U7
 L  SU_T74U8
 L  SU_T74U9
 L  SU_T74U10
 L  SU_T74U11
 L  SU_T74U12
 L  SU_T74U13
 L  SU_T74U14
 L  SU_T74U15
 L  SU_T74U16
 L  SU_T74U17
 L  SU_T74U18
 L  SU_T74U19
 L  SU_T74U20
 L  SU_T74U21
 L  SU_T74U22
 L  SU_T74U23
 L  SU_T74U24
 L  SU_T74U25
 L  SU_T74U26
 L  SU_T74U27
 L  SU_T74U28
 L  SU_T74U29
 L  SU_T74U30
 L  SU_T75U1
 L  SU_T75U2
 L  SU_T75U3
 L  SU_T75U4
 L  SU_T75U5
 L  SU_T75U6
 L  SU_T75U7
 L  SU_T75U8
 L  SU_T75U9
 L  SU_T75U10
 L  SU_T75U11
 L  SU_T75U12
 L  SU_T75U13
 L  SU_T75U14
 L  SU_T75U15
 L  SU_T75U16
 L  SU_T75U17
 L  SU_T75U18
 L  SU_T75U19
 L  SU_T75U20
 L  SU_T75U21
 L  SU_T75U22
 L  SU_T75U23
 L  SU_T75U24
 L  SU_T75U25
 L  SU_T75U26
 L  SU_T75U27
 L  SU_T75U28
 L  SU_T75U29
 L  SU_T75U30
 L  SU_T76U1
 L  SU_T76U2
 L  SU_T76U3
 L  SU_T76U4
 L  SU_T76U5
 L  SU_T76U6
 L  SU_T76U7
 L  SU_T76U8
 L  SU_T76U9
 L  SU_T76U10
 L  SU_T76U11
 L  SU_T76U12
 L  SU_T76U13
 L  SU_T76U14
 L  SU_T76U15
 L  SU_T76U16
 L  SU_T76U17
 L  SU_T76U18
 L  SU_T76U19
 L  SU_T76U20
 L  SU_T76U21
 L  SU_T76U22
 L  SU_T76U23
 L  SU_T76U24
 L  SU_T76U25
 L  SU_T76U26
 L  SU_T76U27
 L  SU_T76U28
 L  SU_T76U29
 L  SU_T76U30
 L  SU_T77U1
 L  SU_T77U2
 L  SU_T77U3
 L  SU_T77U4
 L  SU_T77U5
 L  SU_T77U6
 L  SU_T77U7
 L  SU_T77U8
 L  SU_T77U9
 L  SU_T77U10
 L  SU_T77U11
 L  SU_T77U12
 L  SU_T77U13
 L  SU_T77U14
 L  SU_T77U15
 L  SU_T77U16
 L  SU_T77U17
 L  SU_T77U18
 L  SU_T77U19
 L  SU_T77U20
 L  SU_T77U21
 L  SU_T77U22
 L  SU_T77U23
 L  SU_T77U24
 L  SU_T77U25
 L  SU_T77U26
 L  SU_T77U27
 L  SU_T77U28
 L  SU_T77U29
 L  SU_T77U30
 L  SU_T78U1
 L  SU_T78U2
 L  SU_T78U3
 L  SU_T78U4
 L  SU_T78U5
 L  SU_T78U6
 L  SU_T78U7
 L  SU_T78U8
 L  SU_T78U9
 L  SU_T78U10
 L  SU_T78U11
 L  SU_T78U12
 L  SU_T78U13
 L  SU_T78U14
 L  SU_T78U15
 L  SU_T78U16
 L  SU_T78U17
 L  SU_T78U18
 L  SU_T78U19
 L  SU_T78U20
 L  SU_T78U21
 L  SU_T78U22
 L  SU_T78U23
 L  SU_T78U24
 L  SU_T78U25
 L  SU_T78U26
 L  SU_T78U27
 L  SU_T78U28
 L  SU_T78U29
 L  SU_T78U30
 L  SU_T79U1
 L  SU_T79U2
 L  SU_T79U3
 L  SU_T79U4
 L  SU_T79U5
 L  SU_T79U6
 L  SU_T79U7
 L  SU_T79U8
 L  SU_T79U9
 L  SU_T79U10
 L  SU_T79U11
 L  SU_T79U12
 L  SU_T79U13
 L  SU_T79U14
 L  SU_T79U15
 L  SU_T79U16
 L  SU_T79U17
 L  SU_T79U18
 L  SU_T79U19
 L  SU_T79U20
 L  SU_T79U21
 L  SU_T79U22
 L  SU_T79U23
 L  SU_T79U24
 L  SU_T79U25
 L  SU_T79U26
 L  SU_T79U27
 L  SU_T79U28
 L  SU_T79U29
 L  SU_T79U30
 L  SU_T80U1
 L  SU_T80U2
 L  SU_T80U3
 L  SU_T80U4
 L  SU_T80U5
 L  SU_T80U6
 L  SU_T80U7
 L  SU_T80U8
 L  SU_T80U9
 L  SU_T80U10
 L  SU_T80U11
 L  SU_T80U12
 L  SU_T80U13
 L  SU_T80U14
 L  SU_T80U15
 L  SU_T80U16
 L  SU_T80U17
 L  SU_T80U18
 L  SU_T80U19
 L  SU_T80U20
 L  SU_T80U21
 L  SU_T80U22
 L  SU_T80U23
 L  SU_T80U24
 L  SU_T80U25
 L  SU_T80U26
 L  SU_T80U27
 L  SU_T80U28
 L  SU_T80U29
 L  SU_T80U30
 L  SU_T81U1
 L  SU_T81U2
 L  SU_T81U3
 L  SU_T81U4
 L  SU_T81U5
 L  SU_T81U6
 L  SU_T81U7
 L  SU_T81U8
 L  SU_T81U9
 L  SU_T81U10
 L  SU_T81U11
 L  SU_T81U12
 L  SU_T81U13
 L  SU_T81U14
 L  SU_T81U15
 L  SU_T81U16
 L  SU_T81U17
 L  SU_T81U18
 L  SU_T81U19
 L  SU_T81U20
 L  SU_T81U21
 L  SU_T81U22
 L  SU_T81U23
 L  SU_T81U24
 L  SU_T81U25
 L  SU_T81U26
 L  SU_T81U27
 L  SU_T81U28
 L  SU_T81U29
 L  SU_T81U30
 L  SU_T82U1
 L  SU_T82U2
 L  SU_T82U3
 L  SU_T82U4
 L  SU_T82U5
 L  SU_T82U6
 L  SU_T82U7
 L  SU_T82U8
 L  SU_T82U9
 L  SU_T82U10
 L  SU_T82U11
 L  SU_T82U12
 L  SU_T82U13
 L  SU_T82U14
 L  SU_T82U15
 L  SU_T82U16
 L  SU_T82U17
 L  SU_T82U18
 L  SU_T82U19
 L  SU_T82U20
 L  SU_T82U21
 L  SU_T82U22
 L  SU_T82U23
 L  SU_T82U24
 L  SU_T82U25
 L  SU_T82U26
 L  SU_T82U27
 L  SU_T82U28
 L  SU_T82U29
 L  SU_T82U30
 L  SU_T83U1
 L  SU_T83U2
 L  SU_T83U3
 L  SU_T83U4
 L  SU_T83U5
 L  SU_T83U6
 L  SU_T83U7
 L  SU_T83U8
 L  SU_T83U9
 L  SU_T83U10
 L  SU_T83U11
 L  SU_T83U12
 L  SU_T83U13
 L  SU_T83U14
 L  SU_T83U15
 L  SU_T83U16
 L  SU_T83U17
 L  SU_T83U18
 L  SU_T83U19
 L  SU_T83U20
 L  SU_T83U21
 L  SU_T83U22
 L  SU_T83U23
 L  SU_T83U24
 L  SU_T83U25
 L  SU_T83U26
 L  SU_T83U27
 L  SU_T83U28
 L  SU_T83U29
 L  SU_T83U30
 L  SU_T84U1
 L  SU_T84U2
 L  SU_T84U3
 L  SU_T84U4
 L  SU_T84U5
 L  SU_T84U6
 L  SU_T84U7
 L  SU_T84U8
 L  SU_T84U9
 L  SU_T84U10
 L  SU_T84U11
 L  SU_T84U12
 L  SU_T84U13
 L  SU_T84U14
 L  SU_T84U15
 L  SU_T84U16
 L  SU_T84U17
 L  SU_T84U18
 L  SU_T84U19
 L  SU_T84U20
 L  SU_T84U21
 L  SU_T84U22
 L  SU_T84U23
 L  SU_T84U24
 L  SU_T84U25
 L  SU_T84U26
 L  SU_T84U27
 L  SU_T84U28
 L  SU_T84U29
 L  SU_T84U30
 L  SU_T85U1
 L  SU_T85U2
 L  SU_T85U3
 L  SU_T85U4
 L  SU_T85U5
 L  SU_T85U6
 L  SU_T85U7
 L  SU_T85U8
 L  SU_T85U9
 L  SU_T85U10
 L  SU_T85U11
 L  SU_T85U12
 L  SU_T85U13
 L  SU_T85U14
 L  SU_T85U15
 L  SU_T85U16
 L  SU_T85U17
 L  SU_T85U18
 L  SU_T85U19
 L  SU_T85U20
 L  SU_T85U21
 L  SU_T85U22
 L  SU_T85U23
 L  SU_T85U24
 L  SU_T85U25
 L  SU_T85U26
 L  SU_T85U27
 L  SU_T85U28
 L  SU_T85U29
 L  SU_T85U30
 L  SU_T86U1
 L  SU_T86U2
 L  SU_T86U3
 L  SU_T86U4
 L  SU_T86U5
 L  SU_T86U6
 L  SU_T86U7
 L  SU_T86U8
 L  SU_T86U9
 L  SU_T86U10
 L  SU_T86U11
 L  SU_T86U12
 L  SU_T86U13
 L  SU_T86U14
 L  SU_T86U15
 L  SU_T86U16
 L  SU_T86U17
 L  SU_T86U18
 L  SU_T86U19
 L  SU_T86U20
 L  SU_T86U21
 L  SU_T86U22
 L  SU_T86U23
 L  SU_T86U24
 L  SU_T86U25
 L  SU_T86U26
 L  SU_T86U27
 L  SU_T86U28
 L  SU_T86U29
 L  SU_T86U30
 L  SU_T87U1
 L  SU_T87U2
 L  SU_T87U3
 L  SU_T87U4
 L  SU_T87U5
 L  SU_T87U6
 L  SU_T87U7
 L  SU_T87U8
 L  SU_T87U9
 L  SU_T87U10
 L  SU_T87U11
 L  SU_T87U12
 L  SU_T87U13
 L  SU_T87U14
 L  SU_T87U15
 L  SU_T87U16
 L  SU_T87U17
 L  SU_T87U18
 L  SU_T87U19
 L  SU_T87U20
 L  SU_T87U21
 L  SU_T87U22
 L  SU_T87U23
 L  SU_T87U24
 L  SU_T87U25
 L  SU_T87U26
 L  SU_T87U27
 L  SU_T87U28
 L  SU_T87U29
 L  SU_T87U30
 L  SU_T88U1
 L  SU_T88U2
 L  SU_T88U3
 L  SU_T88U4
 L  SU_T88U5
 L  SU_T88U6
 L  SU_T88U7
 L  SU_T88U8
 L  SU_T88U9
 L  SU_T88U10
 L  SU_T88U11
 L  SU_T88U12
 L  SU_T88U13
 L  SU_T88U14
 L  SU_T88U15
 L  SU_T88U16
 L  SU_T88U17
 L  SU_T88U18
 L  SU_T88U19
 L  SU_T88U20
 L  SU_T88U21
 L  SU_T88U22
 L  SU_T88U23
 L  SU_T88U24
 L  SU_T88U25
 L  SU_T88U26
 L  SU_T88U27
 L  SU_T88U28
 L  SU_T88U29
 L  SU_T88U30
 L  SU_T89U1
 L  SU_T89U2
 L  SU_T89U3
 L  SU_T89U4
 L  SU_T89U5
 L  SU_T89U6
 L  SU_T89U7
 L  SU_T89U8
 L  SU_T89U9
 L  SU_T89U10
 L  SU_T89U11
 L  SU_T89U12
 L  SU_T89U13
 L  SU_T89U14
 L  SU_T89U15
 L  SU_T89U16
 L  SU_T89U17
 L  SU_T89U18
 L  SU_T89U19
 L  SU_T89U20
 L  SU_T89U21
 L  SU_T89U22
 L  SU_T89U23
 L  SU_T89U24
 L  SU_T89U25
 L  SU_T89U26
 L  SU_T89U27
 L  SU_T89U28
 L  SU_T89U29
 L  SU_T89U30
 L  SU_T90U1
 L  SU_T90U2
 L  SU_T90U3
 L  SU_T90U4
 L  SU_T90U5
 L  SU_T90U6
 L  SU_T90U7
 L  SU_T90U8
 L  SU_T90U9
 L  SU_T90U10
 L  SU_T90U11
 L  SU_T90U12
 L  SU_T90U13
 L  SU_T90U14
 L  SU_T90U15
 L  SU_T90U16
 L  SU_T90U17
 L  SU_T90U18
 L  SU_T90U19
 L  SU_T90U20
 L  SU_T90U21
 L  SU_T90U22
 L  SU_T90U23
 L  SU_T90U24
 L  SU_T90U25
 L  SU_T90U26
 L  SU_T90U27
 L  SU_T90U28
 L  SU_T90U29
 L  SU_T90U30
 L  SU_T91U1
 L  SU_T91U2
 L  SU_T91U3
 L  SU_T91U4
 L  SU_T91U5
 L  SU_T91U6
 L  SU_T91U7
 L  SU_T91U8
 L  SU_T91U9
 L  SU_T91U10
 L  SU_T91U11
 L  SU_T91U12
 L  SU_T91U13
 L  SU_T91U14
 L  SU_T91U15
 L  SU_T91U16
 L  SU_T91U17
 L  SU_T91U18
 L  SU_T91U19
 L  SU_T91U20
 L  SU_T91U21
 L  SU_T91U22
 L  SU_T91U23
 L  SU_T91U24
 L  SU_T91U25
 L  SU_T91U26
 L  SU_T91U27
 L  SU_T91U28
 L  SU_T91U29
 L  SU_T91U30
 L  SU_T92U1
 L  SU_T92U2
 L  SU_T92U3
 L  SU_T92U4
 L  SU_T92U5
 L  SU_T92U6
 L  SU_T92U7
 L  SU_T92U8
 L  SU_T92U9
 L  SU_T92U10
 L  SU_T92U11
 L  SU_T92U12
 L  SU_T92U13
 L  SU_T92U14
 L  SU_T92U15
 L  SU_T92U16
 L  SU_T92U17
 L  SU_T92U18
 L  SU_T92U19
 L  SU_T92U20
 L  SU_T92U21
 L  SU_T92U22
 L  SU_T92U23
 L  SU_T92U24
 L  SU_T92U25
 L  SU_T92U26
 L  SU_T92U27
 L  SU_T92U28
 L  SU_T92U29
 L  SU_T92U30
 L  SU_T93U1
 L  SU_T93U2
 L  SU_T93U3
 L  SU_T93U4
 L  SU_T93U5
 L  SU_T93U6
 L  SU_T93U7
 L  SU_T93U8
 L  SU_T93U9
 L  SU_T93U10
 L  SU_T93U11
 L  SU_T93U12
 L  SU_T93U13
 L  SU_T93U14
 L  SU_T93U15
 L  SU_T93U16
 L  SU_T93U17
 L  SU_T93U18
 L  SU_T93U19
 L  SU_T93U20
 L  SU_T93U21
 L  SU_T93U22
 L  SU_T93U23
 L  SU_T93U24
 L  SU_T93U25
 L  SU_T93U26
 L  SU_T93U27
 L  SU_T93U28
 L  SU_T93U29
 L  SU_T93U30
 L  SU_T94U1
 L  SU_T94U2
 L  SU_T94U3
 L  SU_T94U4
 L  SU_T94U5
 L  SU_T94U6
 L  SU_T94U7
 L  SU_T94U8
 L  SU_T94U9
 L  SU_T94U10
 L  SU_T94U11
 L  SU_T94U12
 L  SU_T94U13
 L  SU_T94U14
 L  SU_T94U15
 L  SU_T94U16
 L  SU_T94U17
 L  SU_T94U18
 L  SU_T94U19
 L  SU_T94U20
 L  SU_T94U21
 L  SU_T94U22
 L  SU_T94U23
 L  SU_T94U24
 L  SU_T94U25
 L  SU_T94U26
 L  SU_T94U27
 L  SU_T94U28
 L  SU_T94U29
 L  SU_T94U30
 L  SU_T95U1
 L  SU_T95U2
 L  SU_T95U3
 L  SU_T95U4
 L  SU_T95U5
 L  SU_T95U6
 L  SU_T95U7
 L  SU_T95U8
 L  SU_T95U9
 L  SU_T95U10
 L  SU_T95U11
 L  SU_T95U12
 L  SU_T95U13
 L  SU_T95U14
 L  SU_T95U15
 L  SU_T95U16
 L  SU_T95U17
 L  SU_T95U18
 L  SU_T95U19
 L  SU_T95U20
 L  SU_T95U21
 L  SU_T95U22
 L  SU_T95U23
 L  SU_T95U24
 L  SU_T95U25
 L  SU_T95U26
 L  SU_T95U27
 L  SU_T95U28
 L  SU_T95U29
 L  SU_T95U30
 L  SU_T96U1
 L  SU_T96U2
 L  SU_T96U3
 L  SU_T96U4
 L  SU_T96U5
 L  SU_T96U6
 L  SU_T96U7
 L  SU_T96U8
 L  SU_T96U9
 L  SU_T96U10
 L  SU_T96U11
 L  SU_T96U12
 L  SU_T96U13
 L  SU_T96U14
 L  SU_T96U15
 L  SU_T96U16
 L  SU_T96U17
 L  SU_T96U18
 L  SU_T96U19
 L  SU_T96U20
 L  SU_T96U21
 L  SU_T96U22
 L  SU_T96U23
 L  SU_T96U24
 L  SU_T96U25
 L  SU_T96U26
 L  SU_T96U27
 L  SU_T96U28
 L  SU_T96U29
 L  SU_T96U30
 L  SU_T97U1
 L  SU_T97U2
 L  SU_T97U3
 L  SU_T97U4
 L  SU_T97U5
 L  SU_T97U6
 L  SU_T97U7
 L  SU_T97U8
 L  SU_T97U9
 L  SU_T97U10
 L  SU_T97U11
 L  SU_T97U12
 L  SU_T97U13
 L  SU_T97U14
 L  SU_T97U15
 L  SU_T97U16
 L  SU_T97U17
 L  SU_T97U18
 L  SU_T97U19
 L  SU_T97U20
 L  SU_T97U21
 L  SU_T97U22
 L  SU_T97U23
 L  SU_T97U24
 L  SU_T97U25
 L  SU_T97U26
 L  SU_T97U27
 L  SU_T97U28
 L  SU_T97U29
 L  SU_T97U30
 L  SU_T98U1
 L  SU_T98U2
 L  SU_T98U3
 L  SU_T98U4
 L  SU_T98U5
 L  SU_T98U6
 L  SU_T98U7
 L  SU_T98U8
 L  SU_T98U9
 L  SU_T98U10
 L  SU_T98U11
 L  SU_T98U12
 L  SU_T98U13
 L  SU_T98U14
 L  SU_T98U15
 L  SU_T98U16
 L  SU_T98U17
 L  SU_T98U18
 L  SU_T98U19
 L  SU_T98U20
 L  SU_T98U21
 L  SU_T98U22
 L  SU_T98U23
 L  SU_T98U24
 L  SU_T98U25
 L  SU_T98U26
 L  SU_T98U27
 L  SU_T98U28
 L  SU_T98U29
 L  SU_T98U30
 L  SU_T99U1
 L  SU_T99U2
 L  SU_T99U3
 L  SU_T99U4
 L  SU_T99U5
 L  SU_T99U6
 L  SU_T99U7
 L  SU_T99U8
 L  SU_T99U9
 L  SU_T99U10
 L  SU_T99U11
 L  SU_T99U12
 L  SU_T99U13
 L  SU_T99U14
 L  SU_T99U15
 L  SU_T99U16
 L  SU_T99U17
 L  SU_T99U18
 L  SU_T99U19
 L  SU_T99U20
 L  SU_T99U21
 L  SU_T99U22
 L  SU_T99U23
 L  SU_T99U24
 L  SU_T99U25
 L  SU_T99U26
 L  SU_T99U27
 L  SU_T99U28
 L  SU_T99U29
 L  SU_T99U30
 L  SU_T100U1
 L  SU_T100U2
 L  SU_T100U3
 L  SU_T100U4
 L  SU_T100U5
 L  SU_T100U6
 L  SU_T100U7
 L  SU_T100U8
 L  SU_T100U9
 L  SU_T100U10
 L  SU_T100U11
 L  SU_T100U12
 L  SU_T100U13
 L  SU_T100U14
 L  SU_T100U15
 L  SU_T100U16
 L  SU_T100U17
 L  SU_T100U18
 L  SU_T100U19
 L  SU_T100U20
 L  SU_T100U21
 L  SU_T100U22
 L  SU_T100U23
 L  SU_T100U24
 L  SU_T100U25
 L  SU_T100U26
 L  SU_T100U27
 L  SU_T100U28
 L  SU_T100U29
 L  SU_T100U30
 L  SU_T101U1
 L  SU_T101U2
 L  SU_T101U3
 L  SU_T101U4
 L  SU_T101U5
 L  SU_T101U6
 L  SU_T101U7
 L  SU_T101U8
 L  SU_T101U9
 L  SU_T101U10
 L  SU_T101U11
 L  SU_T101U12
 L  SU_T101U13
 L  SU_T101U14
 L  SU_T101U15
 L  SU_T101U16
 L  SU_T101U17
 L  SU_T101U18
 L  SU_T101U19
 L  SU_T101U20
 L  SU_T101U21
 L  SU_T101U22
 L  SU_T101U23
 L  SU_T101U24
 L  SU_T101U25
 L  SU_T101U26
 L  SU_T101U27
 L  SU_T101U28
 L  SU_T101U29
 L  SU_T101U30
 L  SU_T102U1
 L  SU_T102U2
 L  SU_T102U3
 L  SU_T102U4
 L  SU_T102U5
 L  SU_T102U6
 L  SU_T102U7
 L  SU_T102U8
 L  SU_T102U9
 L  SU_T102U10
 L  SU_T102U11
 L  SU_T102U12
 L  SU_T102U13
 L  SU_T102U14
 L  SU_T102U15
 L  SU_T102U16
 L  SU_T102U17
 L  SU_T102U18
 L  SU_T102U19
 L  SU_T102U20
 L  SU_T102U21
 L  SU_T102U22
 L  SU_T102U23
 L  SU_T102U24
 L  SU_T102U25
 L  SU_T102U26
 L  SU_T102U27
 L  SU_T102U28
 L  SU_T102U29
 L  SU_T102U30
 L  SU_T103U1
 L  SU_T103U2
 L  SU_T103U3
 L  SU_T103U4
 L  SU_T103U5
 L  SU_T103U6
 L  SU_T103U7
 L  SU_T103U8
 L  SU_T103U9
 L  SU_T103U10
 L  SU_T103U11
 L  SU_T103U12
 L  SU_T103U13
 L  SU_T103U14
 L  SU_T103U15
 L  SU_T103U16
 L  SU_T103U17
 L  SU_T103U18
 L  SU_T103U19
 L  SU_T103U20
 L  SU_T103U21
 L  SU_T103U22
 L  SU_T103U23
 L  SU_T103U24
 L  SU_T103U25
 L  SU_T103U26
 L  SU_T103U27
 L  SU_T103U28
 L  SU_T103U29
 L  SU_T103U30
 L  SU_T104U1
 L  SU_T104U2
 L  SU_T104U3
 L  SU_T104U4
 L  SU_T104U5
 L  SU_T104U6
 L  SU_T104U7
 L  SU_T104U8
 L  SU_T104U9
 L  SU_T104U10
 L  SU_T104U11
 L  SU_T104U12
 L  SU_T104U13
 L  SU_T104U14
 L  SU_T104U15
 L  SU_T104U16
 L  SU_T104U17
 L  SU_T104U18
 L  SU_T104U19
 L  SU_T104U20
 L  SU_T104U21
 L  SU_T104U22
 L  SU_T104U23
 L  SU_T104U24
 L  SU_T104U25
 L  SU_T104U26
 L  SU_T104U27
 L  SU_T104U28
 L  SU_T104U29
 L  SU_T104U30
 L  SU_T105U1
 L  SU_T105U2
 L  SU_T105U3
 L  SU_T105U4
 L  SU_T105U5
 L  SU_T105U6
 L  SU_T105U7
 L  SU_T105U8
 L  SU_T105U9
 L  SU_T105U10
 L  SU_T105U11
 L  SU_T105U12
 L  SU_T105U13
 L  SU_T105U14
 L  SU_T105U15
 L  SU_T105U16
 L  SU_T105U17
 L  SU_T105U18
 L  SU_T105U19
 L  SU_T105U20
 L  SU_T105U21
 L  SU_T105U22
 L  SU_T105U23
 L  SU_T105U24
 L  SU_T105U25
 L  SU_T105U26
 L  SU_T105U27
 L  SU_T105U28
 L  SU_T105U29
 L  SU_T105U30
 L  SU_T106U1
 L  SU_T106U2
 L  SU_T106U3
 L  SU_T106U4
 L  SU_T106U5
 L  SU_T106U6
 L  SU_T106U7
 L  SU_T106U8
 L  SU_T106U9
 L  SU_T106U10
 L  SU_T106U11
 L  SU_T106U12
 L  SU_T106U13
 L  SU_T106U14
 L  SU_T106U15
 L  SU_T106U16
 L  SU_T106U17
 L  SU_T106U18
 L  SU_T106U19
 L  SU_T106U20
 L  SU_T106U21
 L  SU_T106U22
 L  SU_T106U23
 L  SU_T106U24
 L  SU_T106U25
 L  SU_T106U26
 L  SU_T106U27
 L  SU_T106U28
 L  SU_T106U29
 L  SU_T106U30
 L  SU_T107U1
 L  SU_T107U2
 L  SU_T107U3
 L  SU_T107U4
 L  SU_T107U5
 L  SU_T107U6
 L  SU_T107U7
 L  SU_T107U8
 L  SU_T107U9
 L  SU_T107U10
 L  SU_T107U11
 L  SU_T107U12
 L  SU_T107U13
 L  SU_T107U14
 L  SU_T107U15
 L  SU_T107U16
 L  SU_T107U17
 L  SU_T107U18
 L  SU_T107U19
 L  SU_T107U20
 L  SU_T107U21
 L  SU_T107U22
 L  SU_T107U23
 L  SU_T107U24
 L  SU_T107U25
 L  SU_T107U26
 L  SU_T107U27
 L  SU_T107U28
 L  SU_T107U29
 L  SU_T107U30
 L  SU_T108U1
 L  SU_T108U2
 L  SU_T108U3
 L  SU_T108U4
 L  SU_T108U5
 L  SU_T108U6
 L  SU_T108U7
 L  SU_T108U8
 L  SU_T108U9
 L  SU_T108U10
 L  SU_T108U11
 L  SU_T108U12
 L  SU_T108U13
 L  SU_T108U14
 L  SU_T108U15
 L  SU_T108U16
 L  SU_T108U17
 L  SU_T108U18
 L  SU_T108U19
 L  SU_T108U20
 L  SU_T108U21
 L  SU_T108U22
 L  SU_T108U23
 L  SU_T108U24
 L  SU_T108U25
 L  SU_T108U26
 L  SU_T108U27
 L  SU_T108U28
 L  SU_T108U29
 L  SU_T108U30
 L  SU_T109U1
 L  SU_T109U2
 L  SU_T109U3
 L  SU_T109U4
 L  SU_T109U5
 L  SU_T109U6
 L  SU_T109U7
 L  SU_T109U8
 L  SU_T109U9
 L  SU_T109U10
 L  SU_T109U11
 L  SU_T109U12
 L  SU_T109U13
 L  SU_T109U14
 L  SU_T109U15
 L  SU_T109U16
 L  SU_T109U17
 L  SU_T109U18
 L  SU_T109U19
 L  SU_T109U20
 L  SU_T109U21
 L  SU_T109U22
 L  SU_T109U23
 L  SU_T109U24
 L  SU_T109U25
 L  SU_T109U26
 L  SU_T109U27
 L  SU_T109U28
 L  SU_T109U29
 L  SU_T109U30
 L  SU_T110U1
 L  SU_T110U2
 L  SU_T110U3
 L  SU_T110U4
 L  SU_T110U5
 L  SU_T110U6
 L  SU_T110U7
 L  SU_T110U8
 L  SU_T110U9
 L  SU_T110U10
 L  SU_T110U11
 L  SU_T110U12
 L  SU_T110U13
 L  SU_T110U14
 L  SU_T110U15
 L  SU_T110U16
 L  SU_T110U17
 L  SU_T110U18
 L  SU_T110U19
 L  SU_T110U20
 L  SU_T110U21
 L  SU_T110U22
 L  SU_T110U23
 L  SU_T110U24
 L  SU_T110U25
 L  SU_T110U26
 L  SU_T110U27
 L  SU_T110U28
 L  SU_T110U29
 L  SU_T110U30
 L  SU_T111U1
 L  SU_T111U2
 L  SU_T111U3
 L  SU_T111U4
 L  SU_T111U5
 L  SU_T111U6
 L  SU_T111U7
 L  SU_T111U8
 L  SU_T111U9
 L  SU_T111U10
 L  SU_T111U11
 L  SU_T111U12
 L  SU_T111U13
 L  SU_T111U14
 L  SU_T111U15
 L  SU_T111U16
 L  SU_T111U17
 L  SU_T111U18
 L  SU_T111U19
 L  SU_T111U20
 L  SU_T111U21
 L  SU_T111U22
 L  SU_T111U23
 L  SU_T111U24
 L  SU_T111U25
 L  SU_T111U26
 L  SU_T111U27
 L  SU_T111U28
 L  SU_T111U29
 L  SU_T111U30
 L  SU_T112U1
 L  SU_T112U2
 L  SU_T112U3
 L  SU_T112U4
 L  SU_T112U5
 L  SU_T112U6
 L  SU_T112U7
 L  SU_T112U8
 L  SU_T112U9
 L  SU_T112U10
 L  SU_T112U11
 L  SU_T112U12
 L  SU_T112U13
 L  SU_T112U14
 L  SU_T112U15
 L  SU_T112U16
 L  SU_T112U17
 L  SU_T112U18
 L  SU_T112U19
 L  SU_T112U20
 L  SU_T112U21
 L  SU_T112U22
 L  SU_T112U23
 L  SU_T112U24
 L  SU_T112U25
 L  SU_T112U26
 L  SU_T112U27
 L  SU_T112U28
 L  SU_T112U29
 L  SU_T112U30
 L  SU_T113U1
 L  SU_T113U2
 L  SU_T113U3
 L  SU_T113U4
 L  SU_T113U5
 L  SU_T113U6
 L  SU_T113U7
 L  SU_T113U8
 L  SU_T113U9
 L  SU_T113U10
 L  SU_T113U11
 L  SU_T113U12
 L  SU_T113U13
 L  SU_T113U14
 L  SU_T113U15
 L  SU_T113U16
 L  SU_T113U17
 L  SU_T113U18
 L  SU_T113U19
 L  SU_T113U20
 L  SU_T113U21
 L  SU_T113U22
 L  SU_T113U23
 L  SU_T113U24
 L  SU_T113U25
 L  SU_T113U26
 L  SU_T113U27
 L  SU_T113U28
 L  SU_T113U29
 L  SU_T113U30
 L  SU_T114U1
 L  SU_T114U2
 L  SU_T114U3
 L  SU_T114U4
 L  SU_T114U5
 L  SU_T114U6
 L  SU_T114U7
 L  SU_T114U8
 L  SU_T114U9
 L  SU_T114U10
 L  SU_T114U11
 L  SU_T114U12
 L  SU_T114U13
 L  SU_T114U14
 L  SU_T114U15
 L  SU_T114U16
 L  SU_T114U17
 L  SU_T114U18
 L  SU_T114U19
 L  SU_T114U20
 L  SU_T114U21
 L  SU_T114U22
 L  SU_T114U23
 L  SU_T114U24
 L  SU_T114U25
 L  SU_T114U26
 L  SU_T114U27
 L  SU_T114U28
 L  SU_T114U29
 L  SU_T114U30
 L  SU_T115U1
 L  SU_T115U2
 L  SU_T115U3
 L  SU_T115U4
 L  SU_T115U5
 L  SU_T115U6
 L  SU_T115U7
 L  SU_T115U8
 L  SU_T115U9
 L  SU_T115U10
 L  SU_T115U11
 L  SU_T115U12
 L  SU_T115U13
 L  SU_T115U14
 L  SU_T115U15
 L  SU_T115U16
 L  SU_T115U17
 L  SU_T115U18
 L  SU_T115U19
 L  SU_T115U20
 L  SU_T115U21
 L  SU_T115U22
 L  SU_T115U23
 L  SU_T115U24
 L  SU_T115U25
 L  SU_T115U26
 L  SU_T115U27
 L  SU_T115U28
 L  SU_T115U29
 L  SU_T115U30
 L  SU_T116U1
 L  SU_T116U2
 L  SU_T116U3
 L  SU_T116U4
 L  SU_T116U5
 L  SU_T116U6
 L  SU_T116U7
 L  SU_T116U8
 L  SU_T116U9
 L  SU_T116U10
 L  SU_T116U11
 L  SU_T116U12
 L  SU_T116U13
 L  SU_T116U14
 L  SU_T116U15
 L  SU_T116U16
 L  SU_T116U17
 L  SU_T116U18
 L  SU_T116U19
 L  SU_T116U20
 L  SU_T116U21
 L  SU_T116U22
 L  SU_T116U23
 L  SU_T116U24
 L  SU_T116U25
 L  SU_T116U26
 L  SU_T116U27
 L  SU_T116U28
 L  SU_T116U29
 L  SU_T116U30
 L  SU_T117U1
 L  SU_T117U2
 L  SU_T117U3
 L  SU_T117U4
 L  SU_T117U5
 L  SU_T117U6
 L  SU_T117U7
 L  SU_T117U8
 L  SU_T117U9
 L  SU_T117U10
 L  SU_T117U11
 L  SU_T117U12
 L  SU_T117U13
 L  SU_T117U14
 L  SU_T117U15
 L  SU_T117U16
 L  SU_T117U17
 L  SU_T117U18
 L  SU_T117U19
 L  SU_T117U20
 L  SU_T117U21
 L  SU_T117U22
 L  SU_T117U23
 L  SU_T117U24
 L  SU_T117U25
 L  SU_T117U26
 L  SU_T117U27
 L  SU_T117U28
 L  SU_T117U29
 L  SU_T117U30
 L  SU_T118U1
 L  SU_T118U2
 L  SU_T118U3
 L  SU_T118U4
 L  SU_T118U5
 L  SU_T118U6
 L  SU_T118U7
 L  SU_T118U8
 L  SU_T118U9
 L  SU_T118U10
 L  SU_T118U11
 L  SU_T118U12
 L  SU_T118U13
 L  SU_T118U14
 L  SU_T118U15
 L  SU_T118U16
 L  SU_T118U17
 L  SU_T118U18
 L  SU_T118U19
 L  SU_T118U20
 L  SU_T118U21
 L  SU_T118U22
 L  SU_T118U23
 L  SU_T118U24
 L  SU_T118U25
 L  SU_T118U26
 L  SU_T118U27
 L  SU_T118U28
 L  SU_T118U29
 L  SU_T118U30
 L  SU_T119U1
 L  SU_T119U2
 L  SU_T119U3
 L  SU_T119U4
 L  SU_T119U5
 L  SU_T119U6
 L  SU_T119U7
 L  SU_T119U8
 L  SU_T119U9
 L  SU_T119U10
 L  SU_T119U11
 L  SU_T119U12
 L  SU_T119U13
 L  SU_T119U14
 L  SU_T119U15
 L  SU_T119U16
 L  SU_T119U17
 L  SU_T119U18
 L  SU_T119U19
 L  SU_T119U20
 L  SU_T119U21
 L  SU_T119U22
 L  SU_T119U23
 L  SU_T119U24
 L  SU_T119U25
 L  SU_T119U26
 L  SU_T119U27
 L  SU_T119U28
 L  SU_T119U29
 L  SU_T119U30
 L  SU_T120U1
 L  SU_T120U2
 L  SU_T120U3
 L  SU_T120U4
 L  SU_T120U5
 L  SU_T120U6
 L  SU_T120U7
 L  SU_T120U8
 L  SU_T120U9
 L  SU_T120U10
 L  SU_T120U11
 L  SU_T120U12
 L  SU_T120U13
 L  SU_T120U14
 L  SU_T120U15
 L  SU_T120U16
 L  SU_T120U17
 L  SU_T120U18
 L  SU_T120U19
 L  SU_T120U20
 L  SU_T120U21
 L  SU_T120U22
 L  SU_T120U23
 L  SU_T120U24
 L  SU_T120U25
 L  SU_T120U26
 L  SU_T120U27
 L  SU_T120U28
 L  SU_T120U29
 L  SU_T120U30
 L  SU_T121U1
 L  SU_T121U2
 L  SU_T121U3
 L  SU_T121U4
 L  SU_T121U5
 L  SU_T121U6
 L  SU_T121U7
 L  SU_T121U8
 L  SU_T121U9
 L  SU_T121U10
 L  SU_T121U11
 L  SU_T121U12
 L  SU_T121U13
 L  SU_T121U14
 L  SU_T121U15
 L  SU_T121U16
 L  SU_T121U17
 L  SU_T121U18
 L  SU_T121U19
 L  SU_T121U20
 L  SU_T121U21
 L  SU_T121U22
 L  SU_T121U23
 L  SU_T121U24
 L  SU_T121U25
 L  SU_T121U26
 L  SU_T121U27
 L  SU_T121U28
 L  SU_T121U29
 L  SU_T121U30
 L  SU_T122U1
 L  SU_T122U2
 L  SU_T122U3
 L  SU_T122U4
 L  SU_T122U5
 L  SU_T122U6
 L  SU_T122U7
 L  SU_T122U8
 L  SU_T122U9
 L  SU_T122U10
 L  SU_T122U11
 L  SU_T122U12
 L  SU_T122U13
 L  SU_T122U14
 L  SU_T122U15
 L  SU_T122U16
 L  SU_T122U17
 L  SU_T122U18
 L  SU_T122U19
 L  SU_T122U20
 L  SU_T122U21
 L  SU_T122U22
 L  SU_T122U23
 L  SU_T122U24
 L  SU_T122U25
 L  SU_T122U26
 L  SU_T122U27
 L  SU_T122U28
 L  SU_T122U29
 L  SU_T122U30
 L  SU_T123U1
 L  SU_T123U2
 L  SU_T123U3
 L  SU_T123U4
 L  SU_T123U5
 L  SU_T123U6
 L  SU_T123U7
 L  SU_T123U8
 L  SU_T123U9
 L  SU_T123U10
 L  SU_T123U11
 L  SU_T123U12
 L  SU_T123U13
 L  SU_T123U14
 L  SU_T123U15
 L  SU_T123U16
 L  SU_T123U17
 L  SU_T123U18
 L  SU_T123U19
 L  SU_T123U20
 L  SU_T123U21
 L  SU_T123U22
 L  SU_T123U23
 L  SU_T123U24
 L  SU_T123U25
 L  SU_T123U26
 L  SU_T123U27
 L  SU_T123U28
 L  SU_T123U29
 L  SU_T123U30
 L  SU_T124U1
 L  SU_T124U2
 L  SU_T124U3
 L  SU_T124U4
 L  SU_T124U5
 L  SU_T124U6
 L  SU_T124U7
 L  SU_T124U8
 L  SU_T124U9
 L  SU_T124U10
 L  SU_T124U11
 L  SU_T124U12
 L  SU_T124U13
 L  SU_T124U14
 L  SU_T124U15
 L  SU_T124U16
 L  SU_T124U17
 L  SU_T124U18
 L  SU_T124U19
 L  SU_T124U20
 L  SU_T124U21
 L  SU_T124U22
 L  SU_T124U23
 L  SU_T124U24
 L  SU_T124U25
 L  SU_T124U26
 L  SU_T124U27
 L  SU_T124U28
 L  SU_T124U29
 L  SU_T124U30
 L  SU_T125U1
 L  SU_T125U2
 L  SU_T125U3
 L  SU_T125U4
 L  SU_T125U5
 L  SU_T125U6
 L  SU_T125U7
 L  SU_T125U8
 L  SU_T125U9
 L  SU_T125U10
 L  SU_T125U11
 L  SU_T125U12
 L  SU_T125U13
 L  SU_T125U14
 L  SU_T125U15
 L  SU_T125U16
 L  SU_T125U17
 L  SU_T125U18
 L  SU_T125U19
 L  SU_T125U20
 L  SU_T125U21
 L  SU_T125U22
 L  SU_T125U23
 L  SU_T125U24
 L  SU_T125U25
 L  SU_T125U26
 L  SU_T125U27
 L  SU_T125U28
 L  SU_T125U29
 L  SU_T125U30
 L  SU_T126U1
 L  SU_T126U2
 L  SU_T126U3
 L  SU_T126U4
 L  SU_T126U5
 L  SU_T126U6
 L  SU_T126U7
 L  SU_T126U8
 L  SU_T126U9
 L  SU_T126U10
 L  SU_T126U11
 L  SU_T126U12
 L  SU_T126U13
 L  SU_T126U14
 L  SU_T126U15
 L  SU_T126U16
 L  SU_T126U17
 L  SU_T126U18
 L  SU_T126U19
 L  SU_T126U20
 L  SU_T126U21
 L  SU_T126U22
 L  SU_T126U23
 L  SU_T126U24
 L  SU_T126U25
 L  SU_T126U26
 L  SU_T126U27
 L  SU_T126U28
 L  SU_T126U29
 L  SU_T126U30
 L  SU_T127U1
 L  SU_T127U2
 L  SU_T127U3
 L  SU_T127U4
 L  SU_T127U5
 L  SU_T127U6
 L  SU_T127U7
 L  SU_T127U8
 L  SU_T127U9
 L  SU_T127U10
 L  SU_T127U11
 L  SU_T127U12
 L  SU_T127U13
 L  SU_T127U14
 L  SU_T127U15
 L  SU_T127U16
 L  SU_T127U17
 L  SU_T127U18
 L  SU_T127U19
 L  SU_T127U20
 L  SU_T127U21
 L  SU_T127U22
 L  SU_T127U23
 L  SU_T127U24
 L  SU_T127U25
 L  SU_T127U26
 L  SU_T127U27
 L  SU_T127U28
 L  SU_T127U29
 L  SU_T127U30
 L  SU_T128U1
 L  SU_T128U2
 L  SU_T128U3
 L  SU_T128U4
 L  SU_T128U5
 L  SU_T128U6
 L  SU_T128U7
 L  SU_T128U8
 L  SU_T128U9
 L  SU_T128U10
 L  SU_T128U11
 L  SU_T128U12
 L  SU_T128U13
 L  SU_T128U14
 L  SU_T128U15
 L  SU_T128U16
 L  SU_T128U17
 L  SU_T128U18
 L  SU_T128U19
 L  SU_T128U20
 L  SU_T128U21
 L  SU_T128U22
 L  SU_T128U23
 L  SU_T128U24
 L  SU_T128U25
 L  SU_T128U26
 L  SU_T128U27
 L  SU_T128U28
 L  SU_T128U29
 L  SU_T128U30
 L  SU_T129U1
 L  SU_T129U2
 L  SU_T129U3
 L  SU_T129U4
 L  SU_T129U5
 L  SU_T129U6
 L  SU_T129U7
 L  SU_T129U8
 L  SU_T129U9
 L  SU_T129U10
 L  SU_T129U11
 L  SU_T129U12
 L  SU_T129U13
 L  SU_T129U14
 L  SU_T129U15
 L  SU_T129U16
 L  SU_T129U17
 L  SU_T129U18
 L  SU_T129U19
 L  SU_T129U20
 L  SU_T129U21
 L  SU_T129U22
 L  SU_T129U23
 L  SU_T129U24
 L  SU_T129U25
 L  SU_T129U26
 L  SU_T129U27
 L  SU_T129U28
 L  SU_T129U29
 L  SU_T129U30
 L  SU_T130U1
 L  SU_T130U2
 L  SU_T130U3
 L  SU_T130U4
 L  SU_T130U5
 L  SU_T130U6
 L  SU_T130U7
 L  SU_T130U8
 L  SU_T130U9
 L  SU_T130U10
 L  SU_T130U11
 L  SU_T130U12
 L  SU_T130U13
 L  SU_T130U14
 L  SU_T130U15
 L  SU_T130U16
 L  SU_T130U17
 L  SU_T130U18
 L  SU_T130U19
 L  SU_T130U20
 L  SU_T130U21
 L  SU_T130U22
 L  SU_T130U23
 L  SU_T130U24
 L  SU_T130U25
 L  SU_T130U26
 L  SU_T130U27
 L  SU_T130U28
 L  SU_T130U29
 L  SU_T130U30
 L  SU_T131U1
 L  SU_T131U2
 L  SU_T131U3
 L  SU_T131U4
 L  SU_T131U5
 L  SU_T131U6
 L  SU_T131U7
 L  SU_T131U8
 L  SU_T131U9
 L  SU_T131U10
 L  SU_T131U11
 L  SU_T131U12
 L  SU_T131U13
 L  SU_T131U14
 L  SU_T131U15
 L  SU_T131U16
 L  SU_T131U17
 L  SU_T131U18
 L  SU_T131U19
 L  SU_T131U20
 L  SU_T131U21
 L  SU_T131U22
 L  SU_T131U23
 L  SU_T131U24
 L  SU_T131U25
 L  SU_T131U26
 L  SU_T131U27
 L  SU_T131U28
 L  SU_T131U29
 L  SU_T131U30
 L  SU_T132U1
 L  SU_T132U2
 L  SU_T132U3
 L  SU_T132U4
 L  SU_T132U5
 L  SU_T132U6
 L  SU_T132U7
 L  SU_T132U8
 L  SU_T132U9
 L  SU_T132U10
 L  SU_T132U11
 L  SU_T132U12
 L  SU_T132U13
 L  SU_T132U14
 L  SU_T132U15
 L  SU_T132U16
 L  SU_T132U17
 L  SU_T132U18
 L  SU_T132U19
 L  SU_T132U20
 L  SU_T132U21
 L  SU_T132U22
 L  SU_T132U23
 L  SU_T132U24
 L  SU_T132U25
 L  SU_T132U26
 L  SU_T132U27
 L  SU_T132U28
 L  SU_T132U29
 L  SU_T132U30
 L  SU_T133U1
 L  SU_T133U2
 L  SU_T133U3
 L  SU_T133U4
 L  SU_T133U5
 L  SU_T133U6
 L  SU_T133U7
 L  SU_T133U8
 L  SU_T133U9
 L  SU_T133U10
 L  SU_T133U11
 L  SU_T133U12
 L  SU_T133U13
 L  SU_T133U14
 L  SU_T133U15
 L  SU_T133U16
 L  SU_T133U17
 L  SU_T133U18
 L  SU_T133U19
 L  SU_T133U20
 L  SU_T133U21
 L  SU_T133U22
 L  SU_T133U23
 L  SU_T133U24
 L  SU_T133U25
 L  SU_T133U26
 L  SU_T133U27
 L  SU_T133U28
 L  SU_T133U29
 L  SU_T133U30
 L  SU_T134U1
 L  SU_T134U2
 L  SU_T134U3
 L  SU_T134U4
 L  SU_T134U5
 L  SU_T134U6
 L  SU_T134U7
 L  SU_T134U8
 L  SU_T134U9
 L  SU_T134U10
 L  SU_T134U11
 L  SU_T134U12
 L  SU_T134U13
 L  SU_T134U14
 L  SU_T134U15
 L  SU_T134U16
 L  SU_T134U17
 L  SU_T134U18
 L  SU_T134U19
 L  SU_T134U20
 L  SU_T134U21
 L  SU_T134U22
 L  SU_T134U23
 L  SU_T134U24
 L  SU_T134U25
 L  SU_T134U26
 L  SU_T134U27
 L  SU_T134U28
 L  SU_T134U29
 L  SU_T134U30
 L  SU_T135U1
 L  SU_T135U2
 L  SU_T135U3
 L  SU_T135U4
 L  SU_T135U5
 L  SU_T135U6
 L  SU_T135U7
 L  SU_T135U8
 L  SU_T135U9
 L  SU_T135U10
 L  SU_T135U11
 L  SU_T135U12
 L  SU_T135U13
 L  SU_T135U14
 L  SU_T135U15
 L  SU_T135U16
 L  SU_T135U17
 L  SU_T135U18
 L  SU_T135U19
 L  SU_T135U20
 L  SU_T135U21
 L  SU_T135U22
 L  SU_T135U23
 L  SU_T135U24
 L  SU_T135U25
 L  SU_T135U26
 L  SU_T135U27
 L  SU_T135U28
 L  SU_T135U29
 L  SU_T135U30
 L  SU_T136U1
 L  SU_T136U2
 L  SU_T136U3
 L  SU_T136U4
 L  SU_T136U5
 L  SU_T136U6
 L  SU_T136U7
 L  SU_T136U8
 L  SU_T136U9
 L  SU_T136U10
 L  SU_T136U11
 L  SU_T136U12
 L  SU_T136U13
 L  SU_T136U14
 L  SU_T136U15
 L  SU_T136U16
 L  SU_T136U17
 L  SU_T136U18
 L  SU_T136U19
 L  SU_T136U20
 L  SU_T136U21
 L  SU_T136U22
 L  SU_T136U23
 L  SU_T136U24
 L  SU_T136U25
 L  SU_T136U26
 L  SU_T136U27
 L  SU_T136U28
 L  SU_T136U29
 L  SU_T136U30
 L  SU_T137U1
 L  SU_T137U2
 L  SU_T137U3
 L  SU_T137U4
 L  SU_T137U5
 L  SU_T137U6
 L  SU_T137U7
 L  SU_T137U8
 L  SU_T137U9
 L  SU_T137U10
 L  SU_T137U11
 L  SU_T137U12
 L  SU_T137U13
 L  SU_T137U14
 L  SU_T137U15
 L  SU_T137U16
 L  SU_T137U17
 L  SU_T137U18
 L  SU_T137U19
 L  SU_T137U20
 L  SU_T137U21
 L  SU_T137U22
 L  SU_T137U23
 L  SU_T137U24
 L  SU_T137U25
 L  SU_T137U26
 L  SU_T137U27
 L  SU_T137U28
 L  SU_T137U29
 L  SU_T137U30
 L  SU_T138U1
 L  SU_T138U2
 L  SU_T138U3
 L  SU_T138U4
 L  SU_T138U5
 L  SU_T138U6
 L  SU_T138U7
 L  SU_T138U8
 L  SU_T138U9
 L  SU_T138U10
 L  SU_T138U11
 L  SU_T138U12
 L  SU_T138U13
 L  SU_T138U14
 L  SU_T138U15
 L  SU_T138U16
 L  SU_T138U17
 L  SU_T138U18
 L  SU_T138U19
 L  SU_T138U20
 L  SU_T138U21
 L  SU_T138U22
 L  SU_T138U23
 L  SU_T138U24
 L  SU_T138U25
 L  SU_T138U26
 L  SU_T138U27
 L  SU_T138U28
 L  SU_T138U29
 L  SU_T138U30
 L  SU_T139U1
 L  SU_T139U2
 L  SU_T139U3
 L  SU_T139U4
 L  SU_T139U5
 L  SU_T139U6
 L  SU_T139U7
 L  SU_T139U8
 L  SU_T139U9
 L  SU_T139U10
 L  SU_T139U11
 L  SU_T139U12
 L  SU_T139U13
 L  SU_T139U14
 L  SU_T139U15
 L  SU_T139U16
 L  SU_T139U17
 L  SU_T139U18
 L  SU_T139U19
 L  SU_T139U20
 L  SU_T139U21
 L  SU_T139U22
 L  SU_T139U23
 L  SU_T139U24
 L  SU_T139U25
 L  SU_T139U26
 L  SU_T139U27
 L  SU_T139U28
 L  SU_T139U29
 L  SU_T139U30
 L  SU_T140U1
 L  SU_T140U2
 L  SU_T140U3
 L  SU_T140U4
 L  SU_T140U5
 L  SU_T140U6
 L  SU_T140U7
 L  SU_T140U8
 L  SU_T140U9
 L  SU_T140U10
 L  SU_T140U11
 L  SU_T140U12
 L  SU_T140U13
 L  SU_T140U14
 L  SU_T140U15
 L  SU_T140U16
 L  SU_T140U17
 L  SU_T140U18
 L  SU_T140U19
 L  SU_T140U20
 L  SU_T140U21
 L  SU_T140U22
 L  SU_T140U23
 L  SU_T140U24
 L  SU_T140U25
 L  SU_T140U26
 L  SU_T140U27
 L  SU_T140U28
 L  SU_T140U29
 L  SU_T140U30
 L  SU_T141U1
 L  SU_T141U2
 L  SU_T141U3
 L  SU_T141U4
 L  SU_T141U5
 L  SU_T141U6
 L  SU_T141U7
 L  SU_T141U8
 L  SU_T141U9
 L  SU_T141U10
 L  SU_T141U11
 L  SU_T141U12
 L  SU_T141U13
 L  SU_T141U14
 L  SU_T141U15
 L  SU_T141U16
 L  SU_T141U17
 L  SU_T141U18
 L  SU_T141U19
 L  SU_T141U20
 L  SU_T141U21
 L  SU_T141U22
 L  SU_T141U23
 L  SU_T141U24
 L  SU_T141U25
 L  SU_T141U26
 L  SU_T141U27
 L  SU_T141U28
 L  SU_T141U29
 L  SU_T141U30
 L  SU_T142U1
 L  SU_T142U2
 L  SU_T142U3
 L  SU_T142U4
 L  SU_T142U5
 L  SU_T142U6
 L  SU_T142U7
 L  SU_T142U8
 L  SU_T142U9
 L  SU_T142U10
 L  SU_T142U11
 L  SU_T142U12
 L  SU_T142U13
 L  SU_T142U14
 L  SU_T142U15
 L  SU_T142U16
 L  SU_T142U17
 L  SU_T142U18
 L  SU_T142U19
 L  SU_T142U20
 L  SU_T142U21
 L  SU_T142U22
 L  SU_T142U23
 L  SU_T142U24
 L  SU_T142U25
 L  SU_T142U26
 L  SU_T142U27
 L  SU_T142U28
 L  SU_T142U29
 L  SU_T142U30
 L  SU_T143U1
 L  SU_T143U2
 L  SU_T143U3
 L  SU_T143U4
 L  SU_T143U5
 L  SU_T143U6
 L  SU_T143U7
 L  SU_T143U8
 L  SU_T143U9
 L  SU_T143U10
 L  SU_T143U11
 L  SU_T143U12
 L  SU_T143U13
 L  SU_T143U14
 L  SU_T143U15
 L  SU_T143U16
 L  SU_T143U17
 L  SU_T143U18
 L  SU_T143U19
 L  SU_T143U20
 L  SU_T143U21
 L  SU_T143U22
 L  SU_T143U23
 L  SU_T143U24
 L  SU_T143U25
 L  SU_T143U26
 L  SU_T143U27
 L  SU_T143U28
 L  SU_T143U29
 L  SU_T143U30
 L  SU_T144U1
 L  SU_T144U2
 L  SU_T144U3
 L  SU_T144U4
 L  SU_T144U5
 L  SU_T144U6
 L  SU_T144U7
 L  SU_T144U8
 L  SU_T144U9
 L  SU_T144U10
 L  SU_T144U11
 L  SU_T144U12
 L  SU_T144U13
 L  SU_T144U14
 L  SU_T144U15
 L  SU_T144U16
 L  SU_T144U17
 L  SU_T144U18
 L  SU_T144U19
 L  SU_T144U20
 L  SU_T144U21
 L  SU_T144U22
 L  SU_T144U23
 L  SU_T144U24
 L  SU_T144U25
 L  SU_T144U26
 L  SU_T144U27
 L  SU_T144U28
 L  SU_T144U29
 L  SU_T144U30
 L  SU_T145U1
 L  SU_T145U2
 L  SU_T145U3
 L  SU_T145U4
 L  SU_T145U5
 L  SU_T145U6
 L  SU_T145U7
 L  SU_T145U8
 L  SU_T145U9
 L  SU_T145U10
 L  SU_T145U11
 L  SU_T145U12
 L  SU_T145U13
 L  SU_T145U14
 L  SU_T145U15
 L  SU_T145U16
 L  SU_T145U17
 L  SU_T145U18
 L  SU_T145U19
 L  SU_T145U20
 L  SU_T145U21
 L  SU_T145U22
 L  SU_T145U23
 L  SU_T145U24
 L  SU_T145U25
 L  SU_T145U26
 L  SU_T145U27
 L  SU_T145U28
 L  SU_T145U29
 L  SU_T145U30
 L  SU_T146U1
 L  SU_T146U2
 L  SU_T146U3
 L  SU_T146U4
 L  SU_T146U5
 L  SU_T146U6
 L  SU_T146U7
 L  SU_T146U8
 L  SU_T146U9
 L  SU_T146U10
 L  SU_T146U11
 L  SU_T146U12
 L  SU_T146U13
 L  SU_T146U14
 L  SU_T146U15
 L  SU_T146U16
 L  SU_T146U17
 L  SU_T146U18
 L  SU_T146U19
 L  SU_T146U20
 L  SU_T146U21
 L  SU_T146U22
 L  SU_T146U23
 L  SU_T146U24
 L  SU_T146U25
 L  SU_T146U26
 L  SU_T146U27
 L  SU_T146U28
 L  SU_T146U29
 L  SU_T146U30
 L  SU_T147U1
 L  SU_T147U2
 L  SU_T147U3
 L  SU_T147U4
 L  SU_T147U5
 L  SU_T147U6
 L  SU_T147U7
 L  SU_T147U8
 L  SU_T147U9
 L  SU_T147U10
 L  SU_T147U11
 L  SU_T147U12
 L  SU_T147U13
 L  SU_T147U14
 L  SU_T147U15
 L  SU_T147U16
 L  SU_T147U17
 L  SU_T147U18
 L  SU_T147U19
 L  SU_T147U20
 L  SU_T147U21
 L  SU_T147U22
 L  SU_T147U23
 L  SU_T147U24
 L  SU_T147U25
 L  SU_T147U26
 L  SU_T147U27
 L  SU_T147U28
 L  SU_T147U29
 L  SU_T147U30
 L  SU_T148U1
 L  SU_T148U2
 L  SU_T148U3
 L  SU_T148U4
 L  SU_T148U5
 L  SU_T148U6
 L  SU_T148U7
 L  SU_T148U8
 L  SU_T148U9
 L  SU_T148U10
 L  SU_T148U11
 L  SU_T148U12
 L  SU_T148U13
 L  SU_T148U14
 L  SU_T148U15
 L  SU_T148U16
 L  SU_T148U17
 L  SU_T148U18
 L  SU_T148U19
 L  SU_T148U20
 L  SU_T148U21
 L  SU_T148U22
 L  SU_T148U23
 L  SU_T148U24
 L  SU_T148U25
 L  SU_T148U26
 L  SU_T148U27
 L  SU_T148U28
 L  SU_T148U29
 L  SU_T148U30
 L  SU_T149U1
 L  SU_T149U2
 L  SU_T149U3
 L  SU_T149U4
 L  SU_T149U5
 L  SU_T149U6
 L  SU_T149U7
 L  SU_T149U8
 L  SU_T149U9
 L  SU_T149U10
 L  SU_T149U11
 L  SU_T149U12
 L  SU_T149U13
 L  SU_T149U14
 L  SU_T149U15
 L  SU_T149U16
 L  SU_T149U17
 L  SU_T149U18
 L  SU_T149U19
 L  SU_T149U20
 L  SU_T149U21
 L  SU_T149U22
 L  SU_T149U23
 L  SU_T149U24
 L  SU_T149U25
 L  SU_T149U26
 L  SU_T149U27
 L  SU_T149U28
 L  SU_T149U29
 L  SU_T149U30
 L  SU_T150U1
 L  SU_T150U2
 L  SU_T150U3
 L  SU_T150U4
 L  SU_T150U5
 L  SU_T150U6
 L  SU_T150U7
 L  SU_T150U8
 L  SU_T150U9
 L  SU_T150U10
 L  SU_T150U11
 L  SU_T150U12
 L  SU_T150U13
 L  SU_T150U14
 L  SU_T150U15
 L  SU_T150U16
 L  SU_T150U17
 L  SU_T150U18
 L  SU_T150U19
 L  SU_T150U20
 L  SU_T150U21
 L  SU_T150U22
 L  SU_T150U23
 L  SU_T150U24
 L  SU_T150U25
 L  SU_T150U26
 L  SU_T150U27
 L  SU_T150U28
 L  SU_T150U29
 L  SU_T150U30
 L  SU_T151U1
 L  SU_T151U2
 L  SU_T151U3
 L  SU_T151U4
 L  SU_T151U5
 L  SU_T151U6
 L  SU_T151U7
 L  SU_T151U8
 L  SU_T151U9
 L  SU_T151U10
 L  SU_T151U11
 L  SU_T151U12
 L  SU_T151U13
 L  SU_T151U14
 L  SU_T151U15
 L  SU_T151U16
 L  SU_T151U17
 L  SU_T151U18
 L  SU_T151U19
 L  SU_T151U20
 L  SU_T151U21
 L  SU_T151U22
 L  SU_T151U23
 L  SU_T151U24
 L  SU_T151U25
 L  SU_T151U26
 L  SU_T151U27
 L  SU_T151U28
 L  SU_T151U29
 L  SU_T151U30
 L  SU_T152U1
 L  SU_T152U2
 L  SU_T152U3
 L  SU_T152U4
 L  SU_T152U5
 L  SU_T152U6
 L  SU_T152U7
 L  SU_T152U8
 L  SU_T152U9
 L  SU_T152U10
 L  SU_T152U11
 L  SU_T152U12
 L  SU_T152U13
 L  SU_T152U14
 L  SU_T152U15
 L  SU_T152U16
 L  SU_T152U17
 L  SU_T152U18
 L  SU_T152U19
 L  SU_T152U20
 L  SU_T152U21
 L  SU_T152U22
 L  SU_T152U23
 L  SU_T152U24
 L  SU_T152U25
 L  SU_T152U26
 L  SU_T152U27
 L  SU_T152U28
 L  SU_T152U29
 L  SU_T152U30
 L  SU_T153U1
 L  SU_T153U2
 L  SU_T153U3
 L  SU_T153U4
 L  SU_T153U5
 L  SU_T153U6
 L  SU_T153U7
 L  SU_T153U8
 L  SU_T153U9
 L  SU_T153U10
 L  SU_T153U11
 L  SU_T153U12
 L  SU_T153U13
 L  SU_T153U14
 L  SU_T153U15
 L  SU_T153U16
 L  SU_T153U17
 L  SU_T153U18
 L  SU_T153U19
 L  SU_T153U20
 L  SU_T153U21
 L  SU_T153U22
 L  SU_T153U23
 L  SU_T153U24
 L  SU_T153U25
 L  SU_T153U26
 L  SU_T153U27
 L  SU_T153U28
 L  SU_T153U29
 L  SU_T153U30
 L  SU_T154U1
 L  SU_T154U2
 L  SU_T154U3
 L  SU_T154U4
 L  SU_T154U5
 L  SU_T154U6
 L  SU_T154U7
 L  SU_T154U8
 L  SU_T154U9
 L  SU_T154U10
 L  SU_T154U11
 L  SU_T154U12
 L  SU_T154U13
 L  SU_T154U14
 L  SU_T154U15
 L  SU_T154U16
 L  SU_T154U17
 L  SU_T154U18
 L  SU_T154U19
 L  SU_T154U20
 L  SU_T154U21
 L  SU_T154U22
 L  SU_T154U23
 L  SU_T154U24
 L  SU_T154U25
 L  SU_T154U26
 L  SU_T154U27
 L  SU_T154U28
 L  SU_T154U29
 L  SU_T154U30
 L  SU_T155U1
 L  SU_T155U2
 L  SU_T155U3
 L  SU_T155U4
 L  SU_T155U5
 L  SU_T155U6
 L  SU_T155U7
 L  SU_T155U8
 L  SU_T155U9
 L  SU_T155U10
 L  SU_T155U11
 L  SU_T155U12
 L  SU_T155U13
 L  SU_T155U14
 L  SU_T155U15
 L  SU_T155U16
 L  SU_T155U17
 L  SU_T155U18
 L  SU_T155U19
 L  SU_T155U20
 L  SU_T155U21
 L  SU_T155U22
 L  SU_T155U23
 L  SU_T155U24
 L  SU_T155U25
 L  SU_T155U26
 L  SU_T155U27
 L  SU_T155U28
 L  SU_T155U29
 L  SU_T155U30
 L  SU_T156U1
 L  SU_T156U2
 L  SU_T156U3
 L  SU_T156U4
 L  SU_T156U5
 L  SU_T156U6
 L  SU_T156U7
 L  SU_T156U8
 L  SU_T156U9
 L  SU_T156U10
 L  SU_T156U11
 L  SU_T156U12
 L  SU_T156U13
 L  SU_T156U14
 L  SU_T156U15
 L  SU_T156U16
 L  SU_T156U17
 L  SU_T156U18
 L  SU_T156U19
 L  SU_T156U20
 L  SU_T156U21
 L  SU_T156U22
 L  SU_T156U23
 L  SU_T156U24
 L  SU_T156U25
 L  SU_T156U26
 L  SU_T156U27
 L  SU_T156U28
 L  SU_T156U29
 L  SU_T156U30
 L  SU_T157U1
 L  SU_T157U2
 L  SU_T157U3
 L  SU_T157U4
 L  SU_T157U5
 L  SU_T157U6
 L  SU_T157U7
 L  SU_T157U8
 L  SU_T157U9
 L  SU_T157U10
 L  SU_T157U11
 L  SU_T157U12
 L  SU_T157U13
 L  SU_T157U14
 L  SU_T157U15
 L  SU_T157U16
 L  SU_T157U17
 L  SU_T157U18
 L  SU_T157U19
 L  SU_T157U20
 L  SU_T157U21
 L  SU_T157U22
 L  SU_T157U23
 L  SU_T157U24
 L  SU_T157U25
 L  SU_T157U26
 L  SU_T157U27
 L  SU_T157U28
 L  SU_T157U29
 L  SU_T157U30
 L  SU_T158U1
 L  SU_T158U2
 L  SU_T158U3
 L  SU_T158U4
 L  SU_T158U5
 L  SU_T158U6
 L  SU_T158U7
 L  SU_T158U8
 L  SU_T158U9
 L  SU_T158U10
 L  SU_T158U11
 L  SU_T158U12
 L  SU_T158U13
 L  SU_T158U14
 L  SU_T158U15
 L  SU_T158U16
 L  SU_T158U17
 L  SU_T158U18
 L  SU_T158U19
 L  SU_T158U20
 L  SU_T158U21
 L  SU_T158U22
 L  SU_T158U23
 L  SU_T158U24
 L  SU_T158U25
 L  SU_T158U26
 L  SU_T158U27
 L  SU_T158U28
 L  SU_T158U29
 L  SU_T158U30
 L  SU_T159U1
 L  SU_T159U2
 L  SU_T159U3
 L  SU_T159U4
 L  SU_T159U5
 L  SU_T159U6
 L  SU_T159U7
 L  SU_T159U8
 L  SU_T159U9
 L  SU_T159U10
 L  SU_T159U11
 L  SU_T159U12
 L  SU_T159U13
 L  SU_T159U14
 L  SU_T159U15
 L  SU_T159U16
 L  SU_T159U17
 L  SU_T159U18
 L  SU_T159U19
 L  SU_T159U20
 L  SU_T159U21
 L  SU_T159U22
 L  SU_T159U23
 L  SU_T159U24
 L  SU_T159U25
 L  SU_T159U26
 L  SU_T159U27
 L  SU_T159U28
 L  SU_T159U29
 L  SU_T159U30
 L  SU_T160U1
 L  SU_T160U2
 L  SU_T160U3
 L  SU_T160U4
 L  SU_T160U5
 L  SU_T160U6
 L  SU_T160U7
 L  SU_T160U8
 L  SU_T160U9
 L  SU_T160U10
 L  SU_T160U11
 L  SU_T160U12
 L  SU_T160U13
 L  SU_T160U14
 L  SU_T160U15
 L  SU_T160U16
 L  SU_T160U17
 L  SU_T160U18
 L  SU_T160U19
 L  SU_T160U20
 L  SU_T160U21
 L  SU_T160U22
 L  SU_T160U23
 L  SU_T160U24
 L  SU_T160U25
 L  SU_T160U26
 L  SU_T160U27
 L  SU_T160U28
 L  SU_T160U29
 L  SU_T160U30
 L  SU_T161U1
 L  SU_T161U2
 L  SU_T161U3
 L  SU_T161U4
 L  SU_T161U5
 L  SU_T161U6
 L  SU_T161U7
 L  SU_T161U8
 L  SU_T161U9
 L  SU_T161U10
 L  SU_T161U11
 L  SU_T161U12
 L  SU_T161U13
 L  SU_T161U14
 L  SU_T161U15
 L  SU_T161U16
 L  SU_T161U17
 L  SU_T161U18
 L  SU_T161U19
 L  SU_T161U20
 L  SU_T161U21
 L  SU_T161U22
 L  SU_T161U23
 L  SU_T161U24
 L  SU_T161U25
 L  SU_T161U26
 L  SU_T161U27
 L  SU_T161U28
 L  SU_T161U29
 L  SU_T161U30
 L  SU_T162U1
 L  SU_T162U2
 L  SU_T162U3
 L  SU_T162U4
 L  SU_T162U5
 L  SU_T162U6
 L  SU_T162U7
 L  SU_T162U8
 L  SU_T162U9
 L  SU_T162U10
 L  SU_T162U11
 L  SU_T162U12
 L  SU_T162U13
 L  SU_T162U14
 L  SU_T162U15
 L  SU_T162U16
 L  SU_T162U17
 L  SU_T162U18
 L  SU_T162U19
 L  SU_T162U20
 L  SU_T162U21
 L  SU_T162U22
 L  SU_T162U23
 L  SU_T162U24
 L  SU_T162U25
 L  SU_T162U26
 L  SU_T162U27
 L  SU_T162U28
 L  SU_T162U29
 L  SU_T162U30
 L  SU_T163U1
 L  SU_T163U2
 L  SU_T163U3
 L  SU_T163U4
 L  SU_T163U5
 L  SU_T163U6
 L  SU_T163U7
 L  SU_T163U8
 L  SU_T163U9
 L  SU_T163U10
 L  SU_T163U11
 L  SU_T163U12
 L  SU_T163U13
 L  SU_T163U14
 L  SU_T163U15
 L  SU_T163U16
 L  SU_T163U17
 L  SU_T163U18
 L  SU_T163U19
 L  SU_T163U20
 L  SU_T163U21
 L  SU_T163U22
 L  SU_T163U23
 L  SU_T163U24
 L  SU_T163U25
 L  SU_T163U26
 L  SU_T163U27
 L  SU_T163U28
 L  SU_T163U29
 L  SU_T163U30
 L  SU_T164U1
 L  SU_T164U2
 L  SU_T164U3
 L  SU_T164U4
 L  SU_T164U5
 L  SU_T164U6
 L  SU_T164U7
 L  SU_T164U8
 L  SU_T164U9
 L  SU_T164U10
 L  SU_T164U11
 L  SU_T164U12
 L  SU_T164U13
 L  SU_T164U14
 L  SU_T164U15
 L  SU_T164U16
 L  SU_T164U17
 L  SU_T164U18
 L  SU_T164U19
 L  SU_T164U20
 L  SU_T164U21
 L  SU_T164U22
 L  SU_T164U23
 L  SU_T164U24
 L  SU_T164U25
 L  SU_T164U26
 L  SU_T164U27
 L  SU_T164U28
 L  SU_T164U29
 L  SU_T164U30
 L  SU_T165U1
 L  SU_T165U2
 L  SU_T165U3
 L  SU_T165U4
 L  SU_T165U5
 L  SU_T165U6
 L  SU_T165U7
 L  SU_T165U8
 L  SU_T165U9
 L  SU_T165U10
 L  SU_T165U11
 L  SU_T165U12
 L  SU_T165U13
 L  SU_T165U14
 L  SU_T165U15
 L  SU_T165U16
 L  SU_T165U17
 L  SU_T165U18
 L  SU_T165U19
 L  SU_T165U20
 L  SU_T165U21
 L  SU_T165U22
 L  SU_T165U23
 L  SU_T165U24
 L  SU_T165U25
 L  SU_T165U26
 L  SU_T165U27
 L  SU_T165U28
 L  SU_T165U29
 L  SU_T165U30
 L  SU_T166U1
 L  SU_T166U2
 L  SU_T166U3
 L  SU_T166U4
 L  SU_T166U5
 L  SU_T166U6
 L  SU_T166U7
 L  SU_T166U8
 L  SU_T166U9
 L  SU_T166U10
 L  SU_T166U11
 L  SU_T166U12
 L  SU_T166U13
 L  SU_T166U14
 L  SU_T166U15
 L  SU_T166U16
 L  SU_T166U17
 L  SU_T166U18
 L  SU_T166U19
 L  SU_T166U20
 L  SU_T166U21
 L  SU_T166U22
 L  SU_T166U23
 L  SU_T166U24
 L  SU_T166U25
 L  SU_T166U26
 L  SU_T166U27
 L  SU_T166U28
 L  SU_T166U29
 L  SU_T166U30
 L  SU_T167U1
 L  SU_T167U2
 L  SU_T167U3
 L  SU_T167U4
 L  SU_T167U5
 L  SU_T167U6
 L  SU_T167U7
 L  SU_T167U8
 L  SU_T167U9
 L  SU_T167U10
 L  SU_T167U11
 L  SU_T167U12
 L  SU_T167U13
 L  SU_T167U14
 L  SU_T167U15
 L  SU_T167U16
 L  SU_T167U17
 L  SU_T167U18
 L  SU_T167U19
 L  SU_T167U20
 L  SU_T167U21
 L  SU_T167U22
 L  SU_T167U23
 L  SU_T167U24
 L  SU_T167U25
 L  SU_T167U26
 L  SU_T167U27
 L  SU_T167U28
 L  SU_T167U29
 L  SU_T167U30
 L  SU_T168U1
 L  SU_T168U2
 L  SU_T168U3
 L  SU_T168U4
 L  SU_T168U5
 L  SU_T168U6
 L  SU_T168U7
 L  SU_T168U8
 L  SU_T168U9
 L  SU_T168U10
 L  SU_T168U11
 L  SU_T168U12
 L  SU_T168U13
 L  SU_T168U14
 L  SU_T168U15
 L  SU_T168U16
 L  SU_T168U17
 L  SU_T168U18
 L  SU_T168U19
 L  SU_T168U20
 L  SU_T168U21
 L  SU_T168U22
 L  SU_T168U23
 L  SU_T168U24
 L  SU_T168U25
 L  SU_T168U26
 L  SU_T168U27
 L  SU_T168U28
 L  SU_T168U29
 L  SU_T168U30
COLUMNS
    MARK0000  'MARKER'                 'INTORG'
    X_T1U1  COST  33.8963  DEM_T1  1
    X_T1U1  SU_T1U1  1  SU_T2U1  -1
    X_T1U2  COST  33.3907  DEM_T1  1
    X_T1U2  SU_T1U2  1  SU_T2U2  -1
    X_T1U3  COST  23.375  DEM_T1  1
    X_T1U3  SU_T1U3  1  SU_T2U3  -1
    X_T1U4  COST  23.7775  DEM_T1  1
    X_T1U4  SU_T1U4  1  SU_T2U4  -1
    X_T1U5  COST  14.286  DEM_T1  1
    X_T1U5  SU_T1U5  1  SU_T2U5  -1
    X_T1U6  COST  11.6923  DEM_T1  1
    X_T1U6  SU_T1U6  1  SU_T2U6  -1
    X_T1U7  COST  38.1566  DEM_T1  1
    X_T1U7  SU_T1U7  1  SU_T2U7  -1
    X_T1U8  COST  39.7663  DEM_T1  1
    X_T1U8  SU_T1U8  1  SU_T2U8  -1
    X_T1U9  COST  28.3496  DEM_T1  1
    X_T1U9  SU_T1U9  1  SU_T2U9  -1
    X_T1U10  COST  10.6919  DEM_T1  1
    X_T1U10  SU_T1U10  1  SU_T2U10  -1
    X_T1U11  COST  21.9958  DEM_T1  1
    X_T1U11  SU_T1U11  1  SU_T2U11  -1
    X_T1U12  COST  39.2127  DEM_T1  1
    X_T1U12  SU_T1U12  1  SU_T2U12  -1
    X_T1U13  COST  12.7182  DEM_T1  1
    X_T1U13  SU_T1U13  1  SU_T2U13  -1
    X_T1U14  COST  21.4739  DEM_T1  1
    X_T1U14  SU_T1U14  1  SU_T2U14  -1
    X_T1U15  COST  24.0029  DEM_T1  1
    X_T1U15  SU_T1U15  1  SU_T2U15  -1
    X_T1U16  COST  30.4092  DEM_T1  1
    X_T1U16  SU_T1U16  1  SU_T2U16  -1
    X_T1U17  COST  10.3979  DEM_T1  1
    X_T1U17  SU_T1U17  1  SU_T2U17  -1
    X_T1U18  COST  26.8986  DEM_T1  1
    X_T1U18  SU_T1U18  1  SU_T2U18  -1
    X_T1U19  COST  10.479  DEM_T1  1
    X_T1U19  SU_T1U19  1  SU_T2U19  -1
    X_T1U20  COST  17.2308  DEM_T1  1
    X_T1U20  SU_T1U20  1  SU_T2U20  -1
    X_T1U21  COST  28.2999  DEM_T1  1
    X_T1U21  SU_T1U21  1  SU_T2U21  -1
    X_T1U22  COST  15.2009  DEM_T1  1
    X_T1U22  SU_T1U22  1  SU_T2U22  -1
    X_T1U23  COST  15.4671  DEM_T1  1
    X_T1U23  SU_T1U23  1  SU_T2U23  -1
    X_T1U24  COST  22.7547  DEM_T1  1
    X_T1U24  SU_T1U24  1  SU_T2U24  -1
    X_T1U25  COST  27.031  DEM_T1  1
    X_T1U25  SU_T1U25  1  SU_T2U25  -1
    X_T1U26  COST  35.2685  DEM_T1  1
    X_T1U26  SU_T1U26  1  SU_T2U26  -1
    X_T1U27  COST  21.8545  DEM_T1  1
    X_T1U27  SU_T1U27  1  SU_T2U27  -1
    X_T1U28  COST  31.8182  DEM_T1  1
    X_T1U28  SU_T1U28  1  SU_T2U28  -1
    X_T1U29  COST  27.1133  DEM_T1  1
    X_T1U29  SU_T1U29  1  SU_T2U29  -1
    X_T1U30  COST  38.8352  DEM_T1  1
    X_T1U30  SU_T1U30  1  SU_T2U30  -1
    X_T2U1  COST  32.4196  DEM_T2  1
    X_T2U1  SU_T2U1  1  SU_T3U1  -1
    X_T2U2  COST  27.6025  DEM_T2  1
    X_T2U2  SU_T2U2  1  SU_T3U2  -1
    X_T2U3  COST  28.211  DEM_T2  1
    X_T2U3  SU_T2U3  1  SU_T3U3  -1
    X_T2U4  COST  18.8882  DEM_T2  1
    X_T2U4  SU_T2U4  1  SU_T3U4  -1
    X_T2U5  COST  10.4691  DEM_T2  1
    X_T2U5  SU_T2U5  1  SU_T3U5  -1
    X_T2U6  COST  21.8464  DEM_T2  1
    X_T2U6  SU_T2U6  1  SU_T3U6  -1
    X_T2U7  COST  10.4224  DEM_T2  1
    X_T2U7  SU_T2U7  1  SU_T3U7  -1
    X_T2U8  COST  31.3403  DEM_T2  1
    X_T2U8  SU_T2U8  1  SU_T3U8  -1
    X_T2U9  COST  28.1788  DEM_T2  1
    X_T2U9  SU_T2U9  1  SU_T3U9  -1
    X_T2U10  COST  29.5323  DEM_T2  1
    X_T2U10  SU_T2U10  1  SU_T3U10  -1
    X_T2U11  COST  35.5012  DEM_T2  1
    X_T2U11  SU_T2U11  1  SU_T3U11  -1
    X_T2U12  COST  12.8623  DEM_T2  1
    X_T2U12  SU_T2U12  1  SU_T3U12  -1
    X_T2U13  COST  30.0652  DEM_T2  1
    X_T2U13  SU_T2U13  1  SU_T3U13  -1
    X_T2U14  COST  27.7389  DEM_T2  1
    X_T2U14  SU_T2U14  1  SU_T3U14  -1
    X_T2U15  COST  26.8373  DEM_T2  1
    X_T2U15  SU_T2U15  1  SU_T3U15  -1
    X_T2U16  COST  39.1514  DEM_T2  1
    X_T2U16  SU_T2U16  1  SU_T3U16  -1
    X_T2U17  COST  31.6519  DEM_T2  1
    X_T2U17  SU_T2U17  1  SU_T3U17  -1
    X_T2U18  COST  17.682  DEM_T2  1
    X_T2U18  SU_T2U18  1  SU_T3U18  -1
    X_T2U19  COST  31.3199  DEM_T2  1
    X_T2U19  SU_T2U19  1  SU_T3U19  -1
    X_T2U20  COST  23.1801  DEM_T2  1
    X_T2U20  SU_T2U20  1  SU_T3U20  -1
    X_T2U21  COST  36.8729  DEM_T2  1
    X_T2U21  SU_T2U21  1  SU_T3U21  -1
    X_T2U22  COST  26.8983  DEM_T2  1
    X_T2U22  SU_T2U22  1  SU_T3U22  -1
    X_T2U23  COST  14.1799  DEM_T2  1
    X_T2U23  SU_T2U23  1  SU_T3U23  -1
    X_T2U24  COST  26.1952  DEM_T2  1
    X_T2U24  SU_T2U24  1  SU_T3U24  -1
    X_T2U25  COST  38.2856  DEM_T2  1
    X_T2U25  SU_T2U25  1  SU_T3U25  -1
    X_T2U26  COST  30.8435  DEM_T2  1
    X_T2U26  SU_T2U26  1  SU_T3U26  -1
    X_T2U27  COST  28.7306  DEM_T2  1
    X_T2U27  SU_T2U27  1  SU_T3U27  -1
    X_T2U28  COST  13.1648  DEM_T2  1
    X_T2U28  SU_T2U28  1  SU_T3U28  -1
    X_T2U29  COST  16.5532  DEM_T2  1
    X_T2U29  SU_T2U29  1  SU_T3U29  -1
    X_T2U30  COST  36.4984  DEM_T2  1
    X_T2U30  SU_T2U30  1  SU_T3U30  -1
    X_T3U1  COST  13.6626  DEM_T3  1
    X_T3U1  SU_T3U1  1  SU_T4U1  -1
    X_T3U2  COST  37.2049  DEM_T3  1
    X_T3U2  SU_T3U2  1  SU_T4U2  -1
    X_T3U3  COST  29.4307  DEM_T3  1
    X_T3U3  SU_T3U3  1  SU_T4U3  -1
    X_T3U4  COST  20.5771  DEM_T3  1
    X_T3U4  SU_T3U4  1  SU_T4U4  -1
    X_T3U5  COST  14.9397  DEM_T3  1
    X_T3U5  SU_T3U5  1  SU_T4U5  -1
    X_T3U6  COST  24.5449  DEM_T3  1
    X_T3U6  SU_T3U6  1  SU_T4U6  -1
    X_T3U7  COST  18.0824  DEM_T3  1
    X_T3U7  SU_T3U7  1  SU_T4U7  -1
    X_T3U8  COST  15.0487  DEM_T3  1
    X_T3U8  SU_T3U8  1  SU_T4U8  -1
    X_T3U9  COST  26.7431  DEM_T3  1
    X_T3U9  SU_T3U9  1  SU_T4U9  -1
    X_T3U10  COST  11.9468  DEM_T3  1
    X_T3U10  SU_T3U10  1  SU_T4U10  -1
    X_T3U11  COST  17.4063  DEM_T3  1
    X_T3U11  SU_T3U11  1  SU_T4U11  -1
    X_T3U12  COST  31.3681  DEM_T3  1
    X_T3U12  SU_T3U12  1  SU_T4U12  -1
    X_T3U13  COST  39.9322  DEM_T3  1
    X_T3U13  SU_T3U13  1  SU_T4U13  -1
    X_T3U14  COST  39.2984  DEM_T3  1
    X_T3U14  SU_T3U14  1  SU_T4U14  -1
    X_T3U15  COST  10.9915  DEM_T3  1
    X_T3U15  SU_T3U15  1  SU_T4U15  -1
    X_T3U16  COST  29.0305  DEM_T3  1
    X_T3U16  SU_T3U16  1  SU_T4U16  -1
    X_T3U17  COST  25.928  DEM_T3  1
    X_T3U17  SU_T3U17  1  SU_T4U17  -1
    X_T3U18  COST  26.5868  DEM_T3  1
    X_T3U18  SU_T3U18  1  SU_T4U18  -1
    X_T3U19  COST  12.4256  DEM_T3  1
    X_T3U19  SU_T3U19  1  SU_T4U19  -1
    X_T3U20  COST  17.2648  DEM_T3  1
    X_T3U20  SU_T3U20  1  SU_T4U20  -1
    X_T3U21  COST  24.109  DEM_T3  1
    X_T3U21  SU_T3U21  1  SU_T4U21  -1
    X_T3U22  COST  21.9647  DEM_T3  1
    X_T3U22  SU_T3U22  1  SU_T4U22  -1
    X_T3U23  COST  33.9504  DEM_T3  1
    X_T3U23  SU_T3U23  1  SU_T4U23  -1
    X_T3U24  COST  25.246  DEM_T3  1
    X_T3U24  SU_T3U24  1  SU_T4U24  -1
    X_T3U25  COST  35.7508  DEM_T3  1
    X_T3U25  SU_T3U25  1  SU_T4U25  -1
    X_T3U26  COST  16.6072  DEM_T3  1
    X_T3U26  SU_T3U26  1  SU_T4U26  -1
    X_T3U27  COST  34.285  DEM_T3  1
    X_T3U27  SU_T3U27  1  SU_T4U27  -1
    X_T3U28  COST  12.8853  DEM_T3  1
    X_T3U28  SU_T3U28  1  SU_T4U28  -1
    X_T3U29  COST  21.9272  DEM_T3  1
    X_T3U29  SU_T3U29  1  SU_T4U29  -1
    X_T3U30  COST  35.1313  DEM_T3  1
    X_T3U30  SU_T3U30  1  SU_T4U30  -1
    X_T4U1  COST  32.0565  DEM_T4  1
    X_T4U1  SU_T4U1  1  SU_T5U1  -1
    X_T4U2  COST  26.2434  DEM_T4  1
    X_T4U2  SU_T4U2  1  SU_T5U2  -1
    X_T4U3  COST  16.8565  DEM_T4  1
    X_T4U3  SU_T4U3  1  SU_T5U3  -1
    X_T4U4  COST  39.4651  DEM_T4  1
    X_T4U4  SU_T4U4  1  SU_T5U4  -1
    X_T4U5  COST  17.8249  DEM_T4  1
    X_T4U5  SU_T4U5  1  SU_T5U5  -1
    X_T4U6  COST  38.9626  DEM_T4  1
    X_T4U6  SU_T4U6  1  SU_T5U6  -1
    X_T4U7  COST  36.4791  DEM_T4  1
    X_T4U7  SU_T4U7  1  SU_T5U7  -1
    X_T4U8  COST  18.3661  DEM_T4  1
    X_T4U8  SU_T4U8  1  SU_T5U8  -1
    X_T4U9  COST  35.3998  DEM_T4  1
    X_T4U9  SU_T4U9  1  SU_T5U9  -1
    X_T4U10  COST  22.1352  DEM_T4  1
    X_T4U10  SU_T4U10  1  SU_T5U10  -1
    X_T4U11  COST  35.5279  DEM_T4  1
    X_T4U11  SU_T4U11  1  SU_T5U11  -1
    X_T4U12  COST  33.5602  DEM_T4  1
    X_T4U12  SU_T4U12  1  SU_T5U12  -1
    X_T4U13  COST  27.4206  DEM_T4  1
    X_T4U13  SU_T4U13  1  SU_T5U13  -1
    X_T4U14  COST  38.204  DEM_T4  1
    X_T4U14  SU_T4U14  1  SU_T5U14  -1
    X_T4U15  COST  18.5176  DEM_T4  1
    X_T4U15  SU_T4U15  1  SU_T5U15  -1
    X_T4U16  COST  24.5684  DEM_T4  1
    X_T4U16  SU_T4U16  1  SU_T5U16  -1
    X_T4U17  COST  39.8337  DEM_T4  1
    X_T4U17  SU_T4U17  1  SU_T5U17  -1
    X_T4U18  COST  10.5423  DEM_T4  1
    X_T4U18  SU_T4U18  1  SU_T5U18  -1
    X_T4U19  COST  15.3647  DEM_T4  1
    X_T4U19  SU_T4U19  1  SU_T5U19  -1
    X_T4U20  COST  32.3251  DEM_T4  1
    X_T4U20  SU_T4U20  1  SU_T5U20  -1
    X_T4U21  COST  19.2418  DEM_T4  1
    X_T4U21  SU_T4U21  1  SU_T5U21  -1
    X_T4U22  COST  25.2644  DEM_T4  1
    X_T4U22  SU_T4U22  1  SU_T5U22  -1
    X_T4U23  COST  17.5139  DEM_T4  1
    X_T4U23  SU_T4U23  1  SU_T5U23  -1
    X_T4U24  COST  39.3668  DEM_T4  1
    X_T4U24  SU_T4U24  1  SU_T5U24  -1
    X_T4U25  COST  37.183  DEM_T4  1
    X_T4U25  SU_T4U25  1  SU_T5U25  -1
    X_T4U26  COST  20.5024  DEM_T4  1
    X_T4U26  SU_T4U26  1  SU_T5U26  -1
    X_T4U27  COST  30.0677  DEM_T4  1
    X_T4U27  SU_T4U27  1  SU_T5U27  -1
    X_T4U28  COST  16.9056  DEM_T4  1
    X_T4U28  SU_T4U28  1  SU_T5U28  -1
    X_T4U29  COST  27.1601  DEM_T4  1
    X_T4U29  SU_T4U29  1  SU_T5U29  -1
    X_T4U30  COST  11.3081  DEM_T4  1
    X_T4U30  SU_T4U30  1  SU_T5U30  -1
    X_T5U1  COST  24.0983  DEM_T5  1
    X_T5U1  SU_T5U1  1  SU_T6U1  -1
    X_T5U2  COST  36.5048  DEM_T5  1
    X_T5U2  SU_T5U2  1  SU_T6U2  -1
    X_T5U3  COST  38.5922  DEM_T5  1
    X_T5U3  SU_T5U3  1  SU_T6U3  -1
    X_T5U4  COST  26.5829  DEM_T5  1
    X_T5U4  SU_T5U4  1  SU_T6U4  -1
    X_T5U5  COST  39.4099  DEM_T5  1
    X_T5U5  SU_T5U5  1  SU_T6U5  -1
    X_T5U6  COST  19.1709  DEM_T5  1
    X_T5U6  SU_T5U6  1  SU_T6U6  -1
    X_T5U7  COST  18.0542  DEM_T5  1
    X_T5U7  SU_T5U7  1  SU_T6U7  -1
    X_T5U8  COST  21.1806  DEM_T5  1
    X_T5U8  SU_T5U8  1  SU_T6U8  -1
    X_T5U9  COST  35.3264  DEM_T5  1
    X_T5U9  SU_T5U9  1  SU_T6U9  -1
    X_T5U10  COST  12.1125  DEM_T5  1
    X_T5U10  SU_T5U10  1  SU_T6U10  -1
    X_T5U11  COST  30.1343  DEM_T5  1
    X_T5U11  SU_T5U11  1  SU_T6U11  -1
    X_T5U12  COST  17.6249  DEM_T5  1
    X_T5U12  SU_T5U12  1  SU_T6U12  -1
    X_T5U13  COST  19.6765  DEM_T5  1
    X_T5U13  SU_T5U13  1  SU_T6U13  -1
    X_T5U14  COST  14.0986  DEM_T5  1
    X_T5U14  SU_T5U14  1  SU_T6U14  -1
    X_T5U15  COST  26.5846  DEM_T5  1
    X_T5U15  SU_T5U15  1  SU_T6U15  -1
    X_T5U16  COST  22.5934  DEM_T5  1
    X_T5U16  SU_T5U16  1  SU_T6U16  -1
    X_T5U17  COST  28.3454  DEM_T5  1
    X_T5U17  SU_T5U17  1  SU_T6U17  -1
    X_T5U18  COST  10.1555  DEM_T5  1
    X_T5U18  SU_T5U18  1  SU_T6U18  -1
    X_T5U19  COST  15.8282  DEM_T5  1
    X_T5U19  SU_T5U19  1  SU_T6U19  -1
    X_T5U20  COST  21.9035  DEM_T5  1
    X_T5U20  SU_T5U20  1  SU_T6U20  -1
    X_T5U21  COST  36.5985  DEM_T5  1
    X_T5U21  SU_T5U21  1  SU_T6U21  -1
    X_T5U22  COST  27.3659  DEM_T5  1
    X_T5U22  SU_T5U22  1  SU_T6U22  -1
    X_T5U23  COST  30.1608  DEM_T5  1
    X_T5U23  SU_T5U23  1  SU_T6U23  -1
    X_T5U24  COST  14.6512  DEM_T5  1
    X_T5U24  SU_T5U24  1  SU_T6U24  -1
    X_T5U25  COST  35.168  DEM_T5  1
    X_T5U25  SU_T5U25  1  SU_T6U25  -1
    X_T5U26  COST  17.5075  DEM_T5  1
    X_T5U26  SU_T5U26  1  SU_T6U26  -1
    X_T5U27  COST  19.098  DEM_T5  1
    X_T5U27  SU_T5U27  1  SU_T6U27  -1
    X_T5U28  COST  19.7995  DEM_T5  1
    X_T5U28  SU_T5U28  1  SU_T6U28  -1
    X_T5U29  COST  18.1463  DEM_T5  1
    X_T5U29  SU_T5U29  1  SU_T6U29  -1
    X_T5U30  COST  23.718  DEM_T5  1
    X_T5U30  SU_T5U30  1  SU_T6U30  -1
    X_T6U1  COST  15.8314  DEM_T6  1
    X_T6U1  SU_T6U1  1  SU_T7U1  -1
    X_T6U2  COST  30.9854  DEM_T6  1
    X_T6U2  SU_T6U2  1  SU_T7U2  -1
    X_T6U3  COST  13.9824  DEM_T6  1
    X_T6U3  SU_T6U3  1  SU_T7U3  -1
    X_T6U4  COST  31.4379  DEM_T6  1
    X_T6U4  SU_T6U4  1  SU_T7U4  -1
    X_T6U5  COST  21.9646  DEM_T6  1
    X_T6U5  SU_T6U5  1  SU_T7U5  -1
    X_T6U6  COST  32.3213  DEM_T6  1
    X_T6U6  SU_T6U6  1  SU_T7U6  -1
    X_T6U7  COST  15.53  DEM_T6  1
    X_T6U7  SU_T6U7  1  SU_T7U7  -1
    X_T6U8  COST  22.8494  DEM_T6  1
    X_T6U8  SU_T6U8  1  SU_T7U8  -1
    X_T6U9  COST  11.7458  DEM_T6  1
    X_T6U9  SU_T6U9  1  SU_T7U9  -1
    X_T6U10  COST  23.2706  DEM_T6  1
    X_T6U10  SU_T6U10  1  SU_T7U10  -1
    X_T6U11  COST  12.8162  DEM_T6  1
    X_T6U11  SU_T6U11  1  SU_T7U11  -1
    X_T6U12  COST  38.0384  DEM_T6  1
    X_T6U12  SU_T6U12  1  SU_T7U12  -1
    X_T6U13  COST  25.5009  DEM_T6  1
    X_T6U13  SU_T6U13  1  SU_T7U13  -1
    X_T6U14  COST  23.0702  DEM_T6  1
    X_T6U14  SU_T6U14  1  SU_T7U14  -1
    X_T6U15  COST  11.4315  DEM_T6  1
    X_T6U15  SU_T6U15  1  SU_T7U15  -1
    X_T6U16  COST  14.7594  DEM_T6  1
    X_T6U16  SU_T6U16  1  SU_T7U16  -1
    X_T6U17  COST  20.2564  DEM_T6  1
    X_T6U17  SU_T6U17  1  SU_T7U17  -1
    X_T6U18  COST  12.8247  DEM_T6  1
    X_T6U18  SU_T6U18  1  SU_T7U18  -1
    X_T6U19  COST  39.3853  DEM_T6  1
    X_T6U19  SU_T6U19  1  SU_T7U19  -1
    X_T6U20  COST  10.5148  DEM_T6  1
    X_T6U20  SU_T6U20  1  SU_T7U20  -1
    X_T6U21  COST  34.2074  DEM_T6  1
    X_T6U21  SU_T6U21  1  SU_T7U21  -1
    X_T6U22  COST  23.9402  DEM_T6  1
    X_T6U22  SU_T6U22  1  SU_T7U22  -1
    X_T6U23  COST  11.4418  DEM_T6  1
    X_T6U23  SU_T6U23  1  SU_T7U23  -1
    X_T6U24  COST  36.6004  DEM_T6  1
    X_T6U24  SU_T6U24  1  SU_T7U24  -1
    X_T6U25  COST  10.4591  DEM_T6  1
    X_T6U25  SU_T6U25  1  SU_T7U25  -1
    X_T6U26  COST  25.0312  DEM_T6  1
    X_T6U26  SU_T6U26  1  SU_T7U26  -1
    X_T6U27  COST  30.5189  DEM_T6  1
    X_T6U27  SU_T6U27  1  SU_T7U27  -1
    X_T6U28  COST  38.3167  DEM_T6  1
    X_T6U28  SU_T6U28  1  SU_T7U28  -1
    X_T6U29  COST  36.016  DEM_T6  1
    X_T6U29  SU_T6U29  1  SU_T7U29  -1
    X_T6U30  COST  34.0285  DEM_T6  1
    X_T6U30  SU_T6U30  1  SU_T7U30  -1
    X_T7U1  COST  27.201  DEM_T7  1
    X_T7U1  SU_T7U1  1  SU_T8U1  -1
    X_T7U2  COST  34.3361  DEM_T7  1
    X_T7U2  SU_T7U2  1  SU_T8U2  -1
    X_T7U3  COST  28.7782  DEM_T7  1
    X_T7U3  SU_T7U3  1  SU_T8U3  -1
    X_T7U4  COST  29.5445  DEM_T7  1
    X_T7U4  SU_T7U4  1  SU_T8U4  -1
    X_T7U5  COST  18.2188  DEM_T7  1
    X_T7U5  SU_T7U5  1  SU_T8U5  -1
    X_T7U6  COST  21.3178  DEM_T7  1
    X_T7U6  SU_T7U6  1  SU_T8U6  -1
    X_T7U7  COST  28.5476  DEM_T7  1
    X_T7U7  SU_T7U7  1  SU_T8U7  -1
    X_T7U8  COST  29.6717  DEM_T7  1
    X_T7U8  SU_T7U8  1  SU_T8U8  -1
    X_T7U9  COST  30.4484  DEM_T7  1
    X_T7U9  SU_T7U9  1  SU_T8U9  -1
    X_T7U10  COST  17.8208  DEM_T7  1
    X_T7U10  SU_T7U10  1  SU_T8U10  -1
    X_T7U11  COST  30.7867  DEM_T7  1
    X_T7U11  SU_T7U11  1  SU_T8U11  -1
    X_T7U12  COST  38.0994  DEM_T7  1
    X_T7U12  SU_T7U12  1  SU_T8U12  -1
    X_T7U13  COST  22.5384  DEM_T7  1
    X_T7U13  SU_T7U13  1  SU_T8U13  -1
    X_T7U14  COST  26.4392  DEM_T7  1
    X_T7U14  SU_T7U14  1  SU_T8U14  -1
    X_T7U15  COST  27.0556  DEM_T7  1
    X_T7U15  SU_T7U15  1  SU_T8U15  -1
    X_T7U16  COST  31.9494  DEM_T7  1
    X_T7U16  SU_T7U16  1  SU_T8U16  -1
    X_T7U17  COST  17.5005  DEM_T7  1
    X_T7U17  SU_T7U17  1  SU_T8U17  -1
    X_T7U18  COST  36.0135  DEM_T7  1
    X_T7U18  SU_T7U18  1  SU_T8U18  -1
    X_T7U19  COST  17.1579  DEM_T7  1
    X_T7U19  SU_T7U19  1  SU_T8U19  -1
    X_T7U20  COST  32.1973  DEM_T7  1
    X_T7U20  SU_T7U20  1  SU_T8U20  -1
    X_T7U21  COST  21.3319  DEM_T7  1
    X_T7U21  SU_T7U21  1  SU_T8U21  -1
    X_T7U22  COST  24.8968  DEM_T7  1
    X_T7U22  SU_T7U22  1  SU_T8U22  -1
    X_T7U23  COST  18.9291  DEM_T7  1
    X_T7U23  SU_T7U23  1  SU_T8U23  -1
    X_T7U24  COST  11.6046  DEM_T7  1
    X_T7U24  SU_T7U24  1  SU_T8U24  -1
    X_T7U25  COST  35.4143  DEM_T7  1
    X_T7U25  SU_T7U25  1  SU_T8U25  -1
    X_T7U26  COST  38.704  DEM_T7  1
    X_T7U26  SU_T7U26  1  SU_T8U26  -1
    X_T7U27  COST  24.4756  DEM_T7  1
    X_T7U27  SU_T7U27  1  SU_T8U27  -1
    X_T7U28  COST  12.4985  DEM_T7  1
    X_T7U28  SU_T7U28  1  SU_T8U28  -1
    X_T7U29  COST  28.0732  DEM_T7  1
    X_T7U29  SU_T7U29  1  SU_T8U29  -1
    X_T7U30  COST  16.3818  DEM_T7  1
    X_T7U30  SU_T7U30  1  SU_T8U30  -1
    X_T8U1  COST  33.4389  DEM_T8  1
    X_T8U1  SU_T8U1  1  SU_T9U1  -1
    X_T8U2  COST  37.9279  DEM_T8  1
    X_T8U2  SU_T8U2  1  SU_T9U2  -1
    X_T8U3  COST  39.8779  DEM_T8  1
    X_T8U3  SU_T8U3  1  SU_T9U3  -1
    X_T8U4  COST  32.1111  DEM_T8  1
    X_T8U4  SU_T8U4  1  SU_T9U4  -1
    X_T8U5  COST  31.1749  DEM_T8  1
    X_T8U5  SU_T8U5  1  SU_T9U5  -1
    X_T8U6  COST  30.6409  DEM_T8  1
    X_T8U6  SU_T8U6  1  SU_T9U6  -1
    X_T8U7  COST  36.0061  DEM_T8  1
    X_T8U7  SU_T8U7  1  SU_T9U7  -1
    X_T8U8  COST  22.7827  DEM_T8  1
    X_T8U8  SU_T8U8  1  SU_T9U8  -1
    X_T8U9  COST  21.8995  DEM_T8  1
    X_T8U9  SU_T8U9  1  SU_T9U9  -1
    X_T8U10  COST  14.3981  DEM_T8  1
    X_T8U10  SU_T8U10  1  SU_T9U10  -1
    X_T8U11  COST  16.9968  DEM_T8  1
    X_T8U11  SU_T8U11  1  SU_T9U11  -1
    X_T8U12  COST  35.8942  DEM_T8  1
    X_T8U12  SU_T8U12  1  SU_T9U12  -1
    X_T8U13  COST  17.1006  DEM_T8  1
    X_T8U13  SU_T8U13  1  SU_T9U13  -1
    X_T8U14  COST  27.7567  DEM_T8  1
    X_T8U14  SU_T8U14  1  SU_T9U14  -1
    X_T8U15  COST  31.2454  DEM_T8  1
    X_T8U15  SU_T8U15  1  SU_T9U15  -1
    X_T8U16  COST  21.3396  DEM_T8  1
    X_T8U16  SU_T8U16  1  SU_T9U16  -1
    X_T8U17  COST  17.4617  DEM_T8  1
    X_T8U17  SU_T8U17  1  SU_T9U17  -1
    X_T8U18  COST  23.0336  DEM_T8  1
    X_T8U18  SU_T8U18  1  SU_T9U18  -1
    X_T8U19  COST  22.1561  DEM_T8  1
    X_T8U19  SU_T8U19  1  SU_T9U19  -1
    X_T8U20  COST  32.2292  DEM_T8  1
    X_T8U20  SU_T8U20  1  SU_T9U20  -1
    X_T8U21  COST  34.6837  DEM_T8  1
    X_T8U21  SU_T8U21  1  SU_T9U21  -1
    X_T8U22  COST  30.4312  DEM_T8  1
    X_T8U22  SU_T8U22  1  SU_T9U22  -1
    X_T8U23  COST  22.0067  DEM_T8  1
    X_T8U23  SU_T8U23  1  SU_T9U23  -1
    X_T8U24  COST  12.4867  DEM_T8  1
    X_T8U24  SU_T8U24  1  SU_T9U24  -1
    X_T8U25  COST  23.0901  DEM_T8  1
    X_T8U25  SU_T8U25  1  SU_T9U25  -1
    X_T8U26  COST  39.337  DEM_T8  1
    X_T8U26  SU_T8U26  1  SU_T9U26  -1
    X_T8U27  COST  19.6806  DEM_T8  1
    X_T8U27  SU_T8U27  1  SU_T9U27  -1
    X_T8U28  COST  37.7393  DEM_T8  1
    X_T8U28  SU_T8U28  1  SU_T9U28  -1
    X_T8U29  COST  17.5897  DEM_T8  1
    X_T8U29  SU_T8U29  1  SU_T9U29  -1
    X_T8U30  COST  12.263  DEM_T8  1
    X_T8U30  SU_T8U30  1  SU_T9U30  -1
    X_T9U1  COST  16.5043  DEM_T9  1
    X_T9U1  SU_T9U1  1  SU_T10U1  -1
    X_T9U2  COST  39.8749  DEM_T9  1
    X_T9U2  SU_T9U2  1  SU_T10U2  -1
    X_T9U3  COST  21.5261  DEM_T9  1
    X_T9U3  SU_T9U3  1  SU_T10U3  -1
    X_T9U4  COST  37.4576  DEM_T9  1
    X_T9U4  SU_T9U4  1  SU_T10U4  -1
    X_T9U5  COST  11.7359  DEM_T9  1
    X_T9U5  SU_T9U5  1  SU_T10U5  -1
    X_T9U6  COST  13.2027  DEM_T9  1
    X_T9U6  SU_T9U6  1  SU_T10U6  -1
    X_T9U7  COST  15.0904  DEM_T9  1
    X_T9U7  SU_T9U7  1  SU_T10U7  -1
    X_T9U8  COST  21.6481  DEM_T9  1
    X_T9U8  SU_T9U8  1  SU_T10U8  -1
    X_T9U9  COST  17.9781  DEM_T9  1
    X_T9U9  SU_T9U9  1  SU_T10U9  -1
    X_T9U10  COST  17.7985  DEM_T9  1
    X_T9U10  SU_T9U10  1  SU_T10U10  -1
    X_T9U11  COST  10.9695  DEM_T9  1
    X_T9U11  SU_T9U11  1  SU_T10U11  -1
    X_T9U12  COST  22.3362  DEM_T9  1
    X_T9U12  SU_T9U12  1  SU_T10U12  -1
    X_T9U13  COST  18.1287  DEM_T9  1
    X_T9U13  SU_T9U13  1  SU_T10U13  -1
    X_T9U14  COST  12.286  DEM_T9  1
    X_T9U14  SU_T9U14  1  SU_T10U14  -1
    X_T9U15  COST  22.4992  DEM_T9  1
    X_T9U15  SU_T9U15  1  SU_T10U15  -1
    X_T9U16  COST  37.5753  DEM_T9  1
    X_T9U16  SU_T9U16  1  SU_T10U16  -1
    X_T9U17  COST  36.2998  DEM_T9  1
    X_T9U17  SU_T9U17  1  SU_T10U17  -1
    X_T9U18  COST  14.945  DEM_T9  1
    X_T9U18  SU_T9U18  1  SU_T10U18  -1
    X_T9U19  COST  33.3281  DEM_T9  1
    X_T9U19  SU_T9U19  1  SU_T10U19  -1
    X_T9U20  COST  39.5586  DEM_T9  1
    X_T9U20  SU_T9U20  1  SU_T10U20  -1
    X_T9U21  COST  32.4873  DEM_T9  1
    X_T9U21  SU_T9U21  1  SU_T10U21  -1
    X_T9U22  COST  34.8749  DEM_T9  1
    X_T9U22  SU_T9U22  1  SU_T10U22  -1
    X_T9U23  COST  11.9054  DEM_T9  1
    X_T9U23  SU_T9U23  1  SU_T10U23  -1
    X_T9U24  COST  14.0156  DEM_T9  1
    X_T9U24  SU_T9U24  1  SU_T10U24  -1
    X_T9U25  COST  12.2608  DEM_T9  1
    X_T9U25  SU_T9U25  1  SU_T10U25  -1
    X_T9U26  COST  26.0304  DEM_T9  1
    X_T9U26  SU_T9U26  1  SU_T10U26  -1
    X_T9U27  COST  37.395  DEM_T9  1
    X_T9U27  SU_T9U27  1  SU_T10U27  -1
    X_T9U28  COST  31.7836  DEM_T9  1
    X_T9U28  SU_T9U28  1  SU_T10U28  -1
    X_T9U29  COST  21.3355  DEM_T9  1
    X_T9U29  SU_T9U29  1  SU_T10U29  -1
    X_T9U30  COST  16.1514  DEM_T9  1
    X_T9U30  SU_T9U30  1  SU_T10U30  -1
    X_T10U1  COST  18.242  DEM_T10  1
    X_T10U1  SU_T10U1  1  SU_T11U1  -1
    X_T10U2  COST  36.3466  DEM_T10  1
    X_T10U2  SU_T10U2  1  SU_T11U2  -1
    X_T10U3  COST  11.4069  DEM_T10  1
    X_T10U3  SU_T10U3  1  SU_T11U3  -1
    X_T10U4  COST  10.6655  DEM_T10  1
    X_T10U4  SU_T10U4  1  SU_T11U4  -1
    X_T10U5  COST  24.2863  DEM_T10  1
    X_T10U5  SU_T10U5  1  SU_T11U5  -1
    X_T10U6  COST  19.2333  DEM_T10  1
    X_T10U6  SU_T10U6  1  SU_T11U6  -1
    X_T10U7  COST  39.0392  DEM_T10  1
    X_T10U7  SU_T10U7  1  SU_T11U7  -1
    X_T10U8  COST  33.7545  DEM_T10  1
    X_T10U8  SU_T10U8  1  SU_T11U8  -1
    X_T10U9  COST  24.4014  DEM_T10  1
    X_T10U9  SU_T10U9  1  SU_T11U9  -1
    X_T10U10  COST  33.54  DEM_T10  1
    X_T10U10  SU_T10U10  1  SU_T11U10  -1
    X_T10U11  COST  34.1513  DEM_T10  1
    X_T10U11  SU_T10U11  1  SU_T11U11  -1
    X_T10U12  COST  28.5179  DEM_T10  1
    X_T10U12  SU_T10U12  1  SU_T11U12  -1
    X_T10U13  COST  28.2426  DEM_T10  1
    X_T10U13  SU_T10U13  1  SU_T11U13  -1
    X_T10U14  COST  26.6445  DEM_T10  1
    X_T10U14  SU_T10U14  1  SU_T11U14  -1
    X_T10U15  COST  31.7919  DEM_T10  1
    X_T10U15  SU_T10U15  1  SU_T11U15  -1
    X_T10U16  COST  23.5273  DEM_T10  1
    X_T10U16  SU_T10U16  1  SU_T11U16  -1
    X_T10U17  COST  18.9388  DEM_T10  1
    X_T10U17  SU_T10U17  1  SU_T11U17  -1
    X_T10U18  COST  30.9293  DEM_T10  1
    X_T10U18  SU_T10U18  1  SU_T11U18  -1
    X_T10U19  COST  23.7804  DEM_T10  1
    X_T10U19  SU_T10U19  1  SU_T11U19  -1
    X_T10U20  COST  33.0675  DEM_T10  1
    X_T10U20  SU_T10U20  1  SU_T11U20  -1
    X_T10U21  COST  11.3758  DEM_T10  1
    X_T10U21  SU_T10U21  1  SU_T11U21  -1
    X_T10U22  COST  20.4224  DEM_T10  1
    X_T10U22  SU_T10U22  1  SU_T11U22  -1
    X_T10U23  COST  27.3895  DEM_T10  1
    X_T10U23  SU_T10U23  1  SU_T11U23  -1
    X_T10U24  COST  26.1179  DEM_T10  1
    X_T10U24  SU_T10U24  1  SU_T11U24  -1
    X_T10U25  COST  27.543  DEM_T10  1
    X_T10U25  SU_T10U25  1  SU_T11U25  -1
    X_T10U26  COST  30.93  DEM_T10  1
    X_T10U26  SU_T10U26  1  SU_T11U26  -1
    X_T10U27  COST  30.895  DEM_T10  1
    X_T10U27  SU_T10U27  1  SU_T11U27  -1
    X_T10U28  COST  36.2295  DEM_T10  1
    X_T10U28  SU_T10U28  1  SU_T11U28  -1
    X_T10U29  COST  39.1933  DEM_T10  1
    X_T10U29  SU_T10U29  1  SU_T11U29  -1
    X_T10U30  COST  16.7155  DEM_T10  1
    X_T10U30  SU_T10U30  1  SU_T11U30  -1
    X_T11U1  COST  20.3525  DEM_T11  1
    X_T11U1  SU_T11U1  1  SU_T12U1  -1
    X_T11U2  COST  10.9541  DEM_T11  1
    X_T11U2  SU_T11U2  1  SU_T12U2  -1
    X_T11U3  COST  26.0327  DEM_T11  1
    X_T11U3  SU_T11U3  1  SU_T12U3  -1
    X_T11U4  COST  36.8265  DEM_T11  1
    X_T11U4  SU_T11U4  1  SU_T12U4  -1
    X_T11U5  COST  19.903  DEM_T11  1
    X_T11U5  SU_T11U5  1  SU_T12U5  -1
    X_T11U6  COST  12.7687  DEM_T11  1
    X_T11U6  SU_T11U6  1  SU_T12U6  -1
    X_T11U7  COST  30.6335  DEM_T11  1
    X_T11U7  SU_T11U7  1  SU_T12U7  -1
    X_T11U8  COST  14.7093  DEM_T11  1
    X_T11U8  SU_T11U8  1  SU_T12U8  -1
    X_T11U9  COST  10.0779  DEM_T11  1
    X_T11U9  SU_T11U9  1  SU_T12U9  -1
    X_T11U10  COST  12.5355  DEM_T11  1
    X_T11U10  SU_T11U10  1  SU_T12U10  -1
    X_T11U11  COST  39.5877  DEM_T11  1
    X_T11U11  SU_T11U11  1  SU_T12U11  -1
    X_T11U12  COST  37.7213  DEM_T11  1
    X_T11U12  SU_T11U12  1  SU_T12U12  -1
    X_T11U13  COST  32.7987  DEM_T11  1
    X_T11U13  SU_T11U13  1  SU_T12U13  -1
    X_T11U14  COST  31.6155  DEM_T11  1
    X_T11U14  SU_T11U14  1  SU_T12U14  -1
    X_T11U15  COST  14.4322  DEM_T11  1
    X_T11U15  SU_T11U15  1  SU_T12U15  -1
    X_T11U16  COST  30.615  DEM_T11  1
    X_T11U16  SU_T11U16  1  SU_T12U16  -1
    X_T11U17  COST  32.4885  DEM_T11  1
    X_T11U17  SU_T11U17  1  SU_T12U17  -1
    X_T11U18  COST  36.0164  DEM_T11  1
    X_T11U18  SU_T11U18  1  SU_T12U18  -1
    X_T11U19  COST  21.9149  DEM_T11  1
    X_T11U19  SU_T11U19  1  SU_T12U19  -1
    X_T11U20  COST  32.1222  DEM_T11  1
    X_T11U20  SU_T11U20  1  SU_T12U20  -1
    X_T11U21  COST  26.919  DEM_T11  1
    X_T11U21  SU_T11U21  1  SU_T12U21  -1
    X_T11U22  COST  12.6761  DEM_T11  1
    X_T11U22  SU_T11U22  1  SU_T12U22  -1
    X_T11U23  COST  16.9965  DEM_T11  1
    X_T11U23  SU_T11U23  1  SU_T12U23  -1
    X_T11U24  COST  24.2191  DEM_T11  1
    X_T11U24  SU_T11U24  1  SU_T12U24  -1
    X_T11U25  COST  29.4647  DEM_T11  1
    X_T11U25  SU_T11U25  1  SU_T12U25  -1
    X_T11U26  COST  27.526  DEM_T11  1
    X_T11U26  SU_T11U26  1  SU_T12U26  -1
    X_T11U27  COST  26.7323  DEM_T11  1
    X_T11U27  SU_T11U27  1  SU_T12U27  -1
    X_T11U28  COST  26.9338  DEM_T11  1
    X_T11U28  SU_T11U28  1  SU_T12U28  -1
    X_T11U29  COST  20.1234  DEM_T11  1
    X_T11U29  SU_T11U29  1  SU_T12U29  -1
    X_T11U30  COST  28.2267  DEM_T11  1
    X_T11U30  SU_T11U30  1  SU_T12U30  -1
    X_T12U1  COST  24.9474  DEM_T12  1
    X_T12U1  SU_T12U1  1  SU_T13U1  -1
    X_T12U2  COST  38.0108  DEM_T12  1
    X_T12U2  SU_T12U2  1  SU_T13U2  -1
    X_T12U3  COST  16.76  DEM_T12  1
    X_T12U3  SU_T12U3  1  SU_T13U3  -1
    X_T12U4  COST  24.6343  DEM_T12  1
    X_T12U4  SU_T12U4  1  SU_T13U4  -1
    X_T12U5  COST  12.6366  DEM_T12  1
    X_T12U5  SU_T12U5  1  SU_T13U5  -1
    X_T12U6  COST  11.6696  DEM_T12  1
    X_T12U6  SU_T12U6  1  SU_T13U6  -1
    X_T12U7  COST  11.5491  DEM_T12  1
    X_T12U7  SU_T12U7  1  SU_T13U7  -1
    X_T12U8  COST  30.9088  DEM_T12  1
    X_T12U8  SU_T12U8  1  SU_T13U8  -1
    X_T12U9  COST  36.8983  DEM_T12  1
    X_T12U9  SU_T12U9  1  SU_T13U9  -1
    X_T12U10  COST  37.5219  DEM_T12  1
    X_T12U10  SU_T12U10  1  SU_T13U10  -1
    X_T12U11  COST  39.252  DEM_T12  1
    X_T12U11  SU_T12U11  1  SU_T13U11  -1
    X_T12U12  COST  31.6869  DEM_T12  1
    X_T12U12  SU_T12U12  1  SU_T13U12  -1
    X_T12U13  COST  31.5537  DEM_T12  1
    X_T12U13  SU_T12U13  1  SU_T13U13  -1
    X_T12U14  COST  24.2986  DEM_T12  1
    X_T12U14  SU_T12U14  1  SU_T13U14  -1
    X_T12U15  COST  16.1523  DEM_T12  1
    X_T12U15  SU_T12U15  1  SU_T13U15  -1
    X_T12U16  COST  31.3286  DEM_T12  1
    X_T12U16  SU_T12U16  1  SU_T13U16  -1
    X_T12U17  COST  32.0874  DEM_T12  1
    X_T12U17  SU_T12U17  1  SU_T13U17  -1
    X_T12U18  COST  31.2169  DEM_T12  1
    X_T12U18  SU_T12U18  1  SU_T13U18  -1
    X_T12U19  COST  12.6187  DEM_T12  1
    X_T12U19  SU_T12U19  1  SU_T13U19  -1
    X_T12U20  COST  37.9604  DEM_T12  1
    X_T12U20  SU_T12U20  1  SU_T13U20  -1
    X_T12U21  COST  27.8165  DEM_T12  1
    X_T12U21  SU_T12U21  1  SU_T13U21  -1
    X_T12U22  COST  23.628  DEM_T12  1
    X_T12U22  SU_T12U22  1  SU_T13U22  -1
    X_T12U23  COST  26.4677  DEM_T12  1
    X_T12U23  SU_T12U23  1  SU_T13U23  -1
    X_T12U24  COST  30.5371  DEM_T12  1
    X_T12U24  SU_T12U24  1  SU_T13U24  -1
    X_T12U25  COST  14.1647  DEM_T12  1
    X_T12U25  SU_T12U25  1  SU_T13U25  -1
    X_T12U26  COST  13.5009  DEM_T12  1
    X_T12U26  SU_T12U26  1  SU_T13U26  -1
    X_T12U27  COST  28.1831  DEM_T12  1
    X_T12U27  SU_T12U27  1  SU_T13U27  -1
    X_T12U28  COST  13.201  DEM_T12  1
    X_T12U28  SU_T12U28  1  SU_T13U28  -1
    X_T12U29  COST  32.3792  DEM_T12  1
    X_T12U29  SU_T12U29  1  SU_T13U29  -1
    X_T12U30  COST  37.9881  DEM_T12  1
    X_T12U30  SU_T12U30  1  SU_T13U30  -1
    X_T13U1  COST  16.1501  DEM_T13  1
    X_T13U1  SU_T13U1  1  SU_T14U1  -1
    X_T13U2  COST  37.7935  DEM_T13  1
    X_T13U2  SU_T13U2  1  SU_T14U2  -1
    X_T13U3  COST  11.4428  DEM_T13  1
    X_T13U3  SU_T13U3  1  SU_T14U3  -1
    X_T13U4  COST  34.8382  DEM_T13  1
    X_T13U4  SU_T13U4  1  SU_T14U4  -1
    X_T13U5  COST  33.9861  DEM_T13  1
    X_T13U5  SU_T13U5  1  SU_T14U5  -1
    X_T13U6  COST  15.5921  DEM_T13  1
    X_T13U6  SU_T13U6  1  SU_T14U6  -1
    X_T13U7  COST  29.0128  DEM_T13  1
    X_T13U7  SU_T13U7  1  SU_T14U7  -1
    X_T13U8  COST  19.4859  DEM_T13  1
    X_T13U8  SU_T13U8  1  SU_T14U8  -1
    X_T13U9  COST  30.4895  DEM_T13  1
    X_T13U9  SU_T13U9  1  SU_T14U9  -1
    X_T13U10  COST  31.4135  DEM_T13  1
    X_T13U10  SU_T13U10  1  SU_T14U10  -1
    X_T13U11  COST  28.723  DEM_T13  1
    X_T13U11  SU_T13U11  1  SU_T14U11  -1
    X_T13U12  COST  23.1623  DEM_T13  1
    X_T13U12  SU_T13U12  1  SU_T14U12  -1
    X_T13U13  COST  20.6609  DEM_T13  1
    X_T13U13  SU_T13U13  1  SU_T14U13  -1
    X_T13U14  COST  25.9557  DEM_T13  1
    X_T13U14  SU_T13U14  1  SU_T14U14  -1
    X_T13U15  COST  16.8708  DEM_T13  1
    X_T13U15  SU_T13U15  1  SU_T14U15  -1
    X_T13U16  COST  22.9458  DEM_T13  1
    X_T13U16  SU_T13U16  1  SU_T14U16  -1
    X_T13U17  COST  31.9165  DEM_T13  1
    X_T13U17  SU_T13U17  1  SU_T14U17  -1
    X_T13U18  COST  15.0019  DEM_T13  1
    X_T13U18  SU_T13U18  1  SU_T14U18  -1
    X_T13U19  COST  24.8627  DEM_T13  1
    X_T13U19  SU_T13U19  1  SU_T14U19  -1
    X_T13U20  COST  27.1945  DEM_T13  1
    X_T13U20  SU_T13U20  1  SU_T14U20  -1
    X_T13U21  COST  32.5721  DEM_T13  1
    X_T13U21  SU_T13U21  1  SU_T14U21  -1
    X_T13U22  COST  33.3572  DEM_T13  1
    X_T13U22  SU_T13U22  1  SU_T14U22  -1
    X_T13U23  COST  16.1363  DEM_T13  1
    X_T13U23  SU_T13U23  1  SU_T14U23  -1
    X_T13U24  COST  24.8194  DEM_T13  1
    X_T13U24  SU_T13U24  1  SU_T14U24  -1
    X_T13U25  COST  13.0875  DEM_T13  1
    X_T13U25  SU_T13U25  1  SU_T14U25  -1
    X_T13U26  COST  21.3646  DEM_T13  1
    X_T13U26  SU_T13U26  1  SU_T14U26  -1
    X_T13U27  COST  28.1187  DEM_T13  1
    X_T13U27  SU_T13U27  1  SU_T14U27  -1
    X_T13U28  COST  26.1958  DEM_T13  1
    X_T13U28  SU_T13U28  1  SU_T14U28  -1
    X_T13U29  COST  22.2687  DEM_T13  1
    X_T13U29  SU_T13U29  1  SU_T14U29  -1
    X_T13U30  COST  10.3661  DEM_T13  1
    X_T13U30  SU_T13U30  1  SU_T14U30  -1
    X_T14U1  COST  26.9653  DEM_T14  1
    X_T14U1  SU_T14U1  1  SU_T15U1  -1
    X_T14U2  COST  27.9709  DEM_T14  1
    X_T14U2  SU_T14U2  1  SU_T15U2  -1
    X_T14U3  COST  38.7722  DEM_T14  1
    X_T14U3  SU_T14U3  1  SU_T15U3  -1
    X_T14U4  COST  16.8205  DEM_T14  1
    X_T14U4  SU_T14U4  1  SU_T15U4  -1
    X_T14U5  COST  18.6379  DEM_T14  1
    X_T14U5  SU_T14U5  1  SU_T15U5  -1
    X_T14U6  COST  37.3556  DEM_T14  1
    X_T14U6  SU_T14U6  1  SU_T15U6  -1
    X_T14U7  COST  13.0238  DEM_T14  1
    X_T14U7  SU_T14U7  1  SU_T15U7  -1
    X_T14U8  COST  31.7829  DEM_T14  1
    X_T14U8  SU_T14U8  1  SU_T15U8  -1
    X_T14U9  COST  13.0664  DEM_T14  1
    X_T14U9  SU_T14U9  1  SU_T15U9  -1
    X_T14U10  COST  33.7025  DEM_T14  1
    X_T14U10  SU_T14U10  1  SU_T15U10  -1
    X_T14U11  COST  29.541  DEM_T14  1
    X_T14U11  SU_T14U11  1  SU_T15U11  -1
    X_T14U12  COST  21.2331  DEM_T14  1
    X_T14U12  SU_T14U12  1  SU_T15U12  -1
    X_T14U13  COST  12.3196  DEM_T14  1
    X_T14U13  SU_T14U13  1  SU_T15U13  -1
    X_T14U14  COST  35.2132  DEM_T14  1
    X_T14U14  SU_T14U14  1  SU_T15U14  -1
    X_T14U15  COST  13.6843  DEM_T14  1
    X_T14U15  SU_T14U15  1  SU_T15U15  -1
    X_T14U16  COST  14.9656  DEM_T14  1
    X_T14U16  SU_T14U16  1  SU_T15U16  -1
    X_T14U17  COST  35.1247  DEM_T14  1
    X_T14U17  SU_T14U17  1  SU_T15U17  -1
    X_T14U18  COST  19.3433  DEM_T14  1
    X_T14U18  SU_T14U18  1  SU_T15U18  -1
    X_T14U19  COST  28.2368  DEM_T14  1
    X_T14U19  SU_T14U19  1  SU_T15U19  -1
    X_T14U20  COST  32.3275  DEM_T14  1
    X_T14U20  SU_T14U20  1  SU_T15U20  -1
    X_T14U21  COST  33.6337  DEM_T14  1
    X_T14U21  SU_T14U21  1  SU_T15U21  -1
    X_T14U22  COST  13.428  DEM_T14  1
    X_T14U22  SU_T14U22  1  SU_T15U22  -1
    X_T14U23  COST  35.9055  DEM_T14  1
    X_T14U23  SU_T14U23  1  SU_T15U23  -1
    X_T14U24  COST  23.971  DEM_T14  1
    X_T14U24  SU_T14U24  1  SU_T15U24  -1
    X_T14U25  COST  37.5536  DEM_T14  1
    X_T14U25  SU_T14U25  1  SU_T15U25  -1
    X_T14U26  COST  10.9854  DEM_T14  1
    X_T14U26  SU_T14U26  1  SU_T15U26  -1
    X_T14U27  COST  17.4468  DEM_T14  1
    X_T14U27  SU_T14U27  1  SU_T15U27  -1
    X_T14U28  COST  14.9654  DEM_T14  1
    X_T14U28  SU_T14U28  1  SU_T15U28  -1
    X_T14U29  COST  19.3442  DEM_T14  1
    X_T14U29  SU_T14U29  1  SU_T15U29  -1
    X_T14U30  COST  18.3276  DEM_T14  1
    X_T14U30  SU_T14U30  1  SU_T15U30  -1
    X_T15U1  COST  16.3804  DEM_T15  1
    X_T15U1  SU_T15U1  1  SU_T16U1  -1
    X_T15U2  COST  39.2662  DEM_T15  1
    X_T15U2  SU_T15U2  1  SU_T16U2  -1
    X_T15U3  COST  26.7192  DEM_T15  1
    X_T15U3  SU_T15U3  1  SU_T16U3  -1
    X_T15U4  COST  26.0521  DEM_T15  1
    X_T15U4  SU_T15U4  1  SU_T16U4  -1
    X_T15U5  COST  18.9879  DEM_T15  1
    X_T15U5  SU_T15U5  1  SU_T16U5  -1
    X_T15U6  COST  21.9195  DEM_T15  1
    X_T15U6  SU_T15U6  1  SU_T16U6  -1
    X_T15U7  COST  33.9935  DEM_T15  1
    X_T15U7  SU_T15U7  1  SU_T16U7  -1
    X_T15U8  COST  24.047  DEM_T15  1
    X_T15U8  SU_T15U8  1  SU_T16U8  -1
    X_T15U9  COST  21.3318  DEM_T15  1
    X_T15U9  SU_T15U9  1  SU_T16U9  -1
    X_T15U10  COST  27.6236  DEM_T15  1
    X_T15U10  SU_T15U10  1  SU_T16U10  -1
    X_T15U11  COST  31.4218  DEM_T15  1
    X_T15U11  SU_T15U11  1  SU_T16U11  -1
    X_T15U12  COST  26.0337  DEM_T15  1
    X_T15U12  SU_T15U12  1  SU_T16U12  -1
    X_T15U13  COST  24.9104  DEM_T15  1
    X_T15U13  SU_T15U13  1  SU_T16U13  -1
    X_T15U14  COST  13.0894  DEM_T15  1
    X_T15U14  SU_T15U14  1  SU_T16U14  -1
    X_T15U15  COST  12.2651  DEM_T15  1
    X_T15U15  SU_T15U15  1  SU_T16U15  -1
    X_T15U16  COST  18.1691  DEM_T15  1
    X_T15U16  SU_T15U16  1  SU_T16U16  -1
    X_T15U17  COST  25.7974  DEM_T15  1
    X_T15U17  SU_T15U17  1  SU_T16U17  -1
    X_T15U18  COST  39.3679  DEM_T15  1
    X_T15U18  SU_T15U18  1  SU_T16U18  -1
    X_T15U19  COST  36.0098  DEM_T15  1
    X_T15U19  SU_T15U19  1  SU_T16U19  -1
    X_T15U20  COST  26.5517  DEM_T15  1
    X_T15U20  SU_T15U20  1  SU_T16U20  -1
    X_T15U21  COST  15.8834  DEM_T15  1
    X_T15U21  SU_T15U21  1  SU_T16U21  -1
    X_T15U22  COST  27.8515  DEM_T15  1
    X_T15U22  SU_T15U22  1  SU_T16U22  -1
    X_T15U23  COST  27.0833  DEM_T15  1
    X_T15U23  SU_T15U23  1  SU_T16U23  -1
    X_T15U24  COST  26.7016  DEM_T15  1
    X_T15U24  SU_T15U24  1  SU_T16U24  -1
    X_T15U25  COST  34.1594  DEM_T15  1
    X_T15U25  SU_T15U25  1  SU_T16U25  -1
    X_T15U26  COST  28.0959  DEM_T15  1
    X_T15U26  SU_T15U26  1  SU_T16U26  -1
    X_T15U27  COST  38.8795  DEM_T15  1
    X_T15U27  SU_T15U27  1  SU_T16U27  -1
    X_T15U28  COST  14.2325  DEM_T15  1
    X_T15U28  SU_T15U28  1  SU_T16U28  -1
    X_T15U29  COST  19.7197  DEM_T15  1
    X_T15U29  SU_T15U29  1  SU_T16U29  -1
    X_T15U30  COST  28.9972  DEM_T15  1
    X_T15U30  SU_T15U30  1  SU_T16U30  -1
    X_T16U1  COST  35.4438  DEM_T16  1
    X_T16U1  SU_T16U1  1  SU_T17U1  -1
    X_T16U2  COST  36.2933  DEM_T16  1
    X_T16U2  SU_T16U2  1  SU_T17U2  -1
    X_T16U3  COST  31.1184  DEM_T16  1
    X_T16U3  SU_T16U3  1  SU_T17U3  -1
    X_T16U4  COST  28.7428  DEM_T16  1
    X_T16U4  SU_T16U4  1  SU_T17U4  -1
    X_T16U5  COST  34.7532  DEM_T16  1
    X_T16U5  SU_T16U5  1  SU_T17U5  -1
    X_T16U6  COST  11.0268  DEM_T16  1
    X_T16U6  SU_T16U6  1  SU_T17U6  -1
    X_T16U7  COST  20.3558  DEM_T16  1
    X_T16U7  SU_T16U7  1  SU_T17U7  -1
    X_T16U8  COST  20.8827  DEM_T16  1
    X_T16U8  SU_T16U8  1  SU_T17U8  -1
    X_T16U9  COST  16.5853  DEM_T16  1
    X_T16U9  SU_T16U9  1  SU_T17U9  -1
    X_T16U10  COST  33.3928  DEM_T16  1
    X_T16U10  SU_T16U10  1  SU_T17U10  -1
    X_T16U11  COST  26.9733  DEM_T16  1
    X_T16U11  SU_T16U11  1  SU_T17U11  -1
    X_T16U12  COST  24.132  DEM_T16  1
    X_T16U12  SU_T16U12  1  SU_T17U12  -1
    X_T16U13  COST  24.5434  DEM_T16  1
    X_T16U13  SU_T16U13  1  SU_T17U13  -1
    X_T16U14  COST  32.2506  DEM_T16  1
    X_T16U14  SU_T16U14  1  SU_T17U14  -1
    X_T16U15  COST  22.0765  DEM_T16  1
    X_T16U15  SU_T16U15  1  SU_T17U15  -1
    X_T16U16  COST  29.3516  DEM_T16  1
    X_T16U16  SU_T16U16  1  SU_T17U16  -1
    X_T16U17  COST  13.9683  DEM_T16  1
    X_T16U17  SU_T16U17  1  SU_T17U17  -1
    X_T16U18  COST  30.7367  DEM_T16  1
    X_T16U18  SU_T16U18  1  SU_T17U18  -1
    X_T16U19  COST  34.6775  DEM_T16  1
    X_T16U19  SU_T16U19  1  SU_T17U19  -1
    X_T16U20  COST  34.4516  DEM_T16  1
    X_T16U20  SU_T16U20  1  SU_T17U20  -1
    X_T16U21  COST  12.0153  DEM_T16  1
    X_T16U21  SU_T16U21  1  SU_T17U21  -1
    X_T16U22  COST  24.9239  DEM_T16  1
    X_T16U22  SU_T16U22  1  SU_T17U22  -1
    X_T16U23  COST  13.1974  DEM_T16  1
    X_T16U23  SU_T16U23  1  SU_T17U23  -1
    X_T16U24  COST  17.9105  DEM_T16  1
    X_T16U24  SU_T16U24  1  SU_T17U24  -1
    X_T16U25  COST  31.9655  DEM_T16  1
    X_T16U25  SU_T16U25  1  SU_T17U25  -1
    X_T16U26  COST  28.9929  DEM_T16  1
    X_T16U26  SU_T16U26  1  SU_T17U26  -1
    X_T16U27  COST  27.1988  DEM_T16  1
    X_T16U27  SU_T16U27  1  SU_T17U27  -1
    X_T16U28  COST  22.1314  DEM_T16  1
    X_T16U28  SU_T16U28  1  SU_T17U28  -1
    X_T16U29  COST  22.6611  DEM_T16  1
    X_T16U29  SU_T16U29  1  SU_T17U29  -1
    X_T16U30  COST  38.7588  DEM_T16  1
    X_T16U30  SU_T16U30  1  SU_T17U30  -1
    X_T17U1  COST  12.7101  DEM_T17  1
    X_T17U1  SU_T17U1  1  SU_T18U1  -1
    X_T17U2  COST  12.0475  DEM_T17  1
    X_T17U2  SU_T17U2  1  SU_T18U2  -1
    X_T17U3  COST  23.1158  DEM_T17  1
    X_T17U3  SU_T17U3  1  SU_T18U3  -1
    X_T17U4  COST  31.646  DEM_T17  1
    X_T17U4  SU_T17U4  1  SU_T18U4  -1
    X_T17U5  COST  38.4792  DEM_T17  1
    X_T17U5  SU_T17U5  1  SU_T18U5  -1
    X_T17U6  COST  38.6226  DEM_T17  1
    X_T17U6  SU_T17U6  1  SU_T18U6  -1
    X_T17U7  COST  24.5126  DEM_T17  1
    X_T17U7  SU_T17U7  1  SU_T18U7  -1
    X_T17U8  COST  26.1953  DEM_T17  1
    X_T17U8  SU_T17U8  1  SU_T18U8  -1
    X_T17U9  COST  35.2459  DEM_T17  1
    X_T17U9  SU_T17U9  1  SU_T18U9  -1
    X_T17U10  COST  38.6571  DEM_T17  1
    X_T17U10  SU_T17U10  1  SU_T18U10  -1
    X_T17U11  COST  28.7  DEM_T17  1
    X_T17U11  SU_T17U11  1  SU_T18U11  -1
    X_T17U12  COST  20.3315  DEM_T17  1
    X_T17U12  SU_T17U12  1  SU_T18U12  -1
    X_T17U13  COST  22.3838  DEM_T17  1
    X_T17U13  SU_T17U13  1  SU_T18U13  -1
    X_T17U14  COST  27.9486  DEM_T17  1
    X_T17U14  SU_T17U14  1  SU_T18U14  -1
    X_T17U15  COST  12.278  DEM_T17  1
    X_T17U15  SU_T17U15  1  SU_T18U15  -1
    X_T17U16  COST  10.0702  DEM_T17  1
    X_T17U16  SU_T17U16  1  SU_T18U16  -1
    X_T17U17  COST  10.1576  DEM_T17  1
    X_T17U17  SU_T17U17  1  SU_T18U17  -1
    X_T17U18  COST  19.4379  DEM_T17  1
    X_T17U18  SU_T17U18  1  SU_T18U18  -1
    X_T17U19  COST  38.863  DEM_T17  1
    X_T17U19  SU_T17U19  1  SU_T18U19  -1
    X_T17U20  COST  30.7168  DEM_T17  1
    X_T17U20  SU_T17U20  1  SU_T18U20  -1
    X_T17U21  COST  12.6012  DEM_T17  1
    X_T17U21  SU_T17U21  1  SU_T18U21  -1
    X_T17U22  COST  32.7518  DEM_T17  1
    X_T17U22  SU_T17U22  1  SU_T18U22  -1
    X_T17U23  COST  32.7711  DEM_T17  1
    X_T17U23  SU_T17U23  1  SU_T18U23  -1
    X_T17U24  COST  29.1169  DEM_T17  1
    X_T17U24  SU_T17U24  1  SU_T18U24  -1
    X_T17U25  COST  37.1009  DEM_T17  1
    X_T17U25  SU_T17U25  1  SU_T18U25  -1
    X_T17U26  COST  30.7953  DEM_T17  1
    X_T17U26  SU_T17U26  1  SU_T18U26  -1
    X_T17U27  COST  30.0975  DEM_T17  1
    X_T17U27  SU_T17U27  1  SU_T18U27  -1
    X_T17U28  COST  27.6479  DEM_T17  1
    X_T17U28  SU_T17U28  1  SU_T18U28  -1
    X_T17U29  COST  26.6742  DEM_T17  1
    X_T17U29  SU_T17U29  1  SU_T18U29  -1
    X_T17U30  COST  19.3856  DEM_T17  1
    X_T17U30  SU_T17U30  1  SU_T18U30  -1
    X_T18U1  COST  31.9307  DEM_T18  1
    X_T18U1  SU_T18U1  1  SU_T19U1  -1
    X_T18U2  COST  13.4585  DEM_T18  1
    X_T18U2  SU_T18U2  1  SU_T19U2  -1
    X_T18U3  COST  33.8603  DEM_T18  1
    X_T18U3  SU_T18U3  1  SU_T19U3  -1
    X_T18U4  COST  11.6465  DEM_T18  1
    X_T18U4  SU_T18U4  1  SU_T19U4  -1
    X_T18U5  COST  25.673  DEM_T18  1
    X_T18U5  SU_T18U5  1  SU_T19U5  -1
    X_T18U6  COST  29.505  DEM_T18  1
    X_T18U6  SU_T18U6  1  SU_T19U6  -1
    X_T18U7  COST  26.8203  DEM_T18  1
    X_T18U7  SU_T18U7  1  SU_T19U7  -1
    X_T18U8  COST  36.55  DEM_T18  1
    X_T18U8  SU_T18U8  1  SU_T19U8  -1
    X_T18U9  COST  23.231  DEM_T18  1
    X_T18U9  SU_T18U9  1  SU_T19U9  -1
    X_T18U10  COST  27.1728  DEM_T18  1
    X_T18U10  SU_T18U10  1  SU_T19U10  -1
    X_T18U11  COST  26.152  DEM_T18  1
    X_T18U11  SU_T18U11  1  SU_T19U11  -1
    X_T18U12  COST  32.1357  DEM_T18  1
    X_T18U12  SU_T18U12  1  SU_T19U12  -1
    X_T18U13  COST  22.8045  DEM_T18  1
    X_T18U13  SU_T18U13  1  SU_T19U13  -1
    X_T18U14  COST  22.5252  DEM_T18  1
    X_T18U14  SU_T18U14  1  SU_T19U14  -1
    X_T18U15  COST  39.7102  DEM_T18  1
    X_T18U15  SU_T18U15  1  SU_T19U15  -1
    X_T18U16  COST  15.5642  DEM_T18  1
    X_T18U16  SU_T18U16  1  SU_T19U16  -1
    X_T18U17  COST  37.9777  DEM_T18  1
    X_T18U17  SU_T18U17  1  SU_T19U17  -1
    X_T18U18  COST  10.2846  DEM_T18  1
    X_T18U18  SU_T18U18  1  SU_T19U18  -1
    X_T18U19  COST  12.6563  DEM_T18  1
    X_T18U19  SU_T18U19  1  SU_T19U19  -1
    X_T18U20  COST  24.3934  DEM_T18  1
    X_T18U20  SU_T18U20  1  SU_T19U20  -1
    X_T18U21  COST  18.1506  DEM_T18  1
    X_T18U21  SU_T18U21  1  SU_T19U21  -1
    X_T18U22  COST  12.751  DEM_T18  1
    X_T18U22  SU_T18U22  1  SU_T19U22  -1
    X_T18U23  COST  25.6756  DEM_T18  1
    X_T18U23  SU_T18U23  1  SU_T19U23  -1
    X_T18U24  COST  10.1004  DEM_T18  1
    X_T18U24  SU_T18U24  1  SU_T19U24  -1
    X_T18U25  COST  18.9101  DEM_T18  1
    X_T18U25  SU_T18U25  1  SU_T19U25  -1
    X_T18U26  COST  31.4666  DEM_T18  1
    X_T18U26  SU_T18U26  1  SU_T19U26  -1
    X_T18U27  COST  18.318  DEM_T18  1
    X_T18U27  SU_T18U27  1  SU_T19U27  -1
    X_T18U28  COST  11.353  DEM_T18  1
    X_T18U28  SU_T18U28  1  SU_T19U28  -1
    X_T18U29  COST  21.7489  DEM_T18  1
    X_T18U29  SU_T18U29  1  SU_T19U29  -1
    X_T18U30  COST  38.6925  DEM_T18  1
    X_T18U30  SU_T18U30  1  SU_T19U30  -1
    X_T19U1  COST  17.7695  DEM_T19  1
    X_T19U1  SU_T19U1  1  SU_T20U1  -1
    X_T19U2  COST  39.4699  DEM_T19  1
    X_T19U2  SU_T19U2  1  SU_T20U2  -1
    X_T19U3  COST  28.024  DEM_T19  1
    X_T19U3  SU_T19U3  1  SU_T20U3  -1
    X_T19U4  COST  39.6755  DEM_T19  1
    X_T19U4  SU_T19U4  1  SU_T20U4  -1
    X_T19U5  COST  11.9496  DEM_T19  1
    X_T19U5  SU_T19U5  1  SU_T20U5  -1
    X_T19U6  COST  35.1348  DEM_T19  1
    X_T19U6  SU_T19U6  1  SU_T20U6  -1
    X_T19U7  COST  34.9193  DEM_T19  1
    X_T19U7  SU_T19U7  1  SU_T20U7  -1
    X_T19U8  COST  11.4084  DEM_T19  1
    X_T19U8  SU_T19U8  1  SU_T20U8  -1
    X_T19U9  COST  11.102  DEM_T19  1
    X_T19U9  SU_T19U9  1  SU_T20U9  -1
    X_T19U10  COST  34.7862  DEM_T19  1
    X_T19U10  SU_T19U10  1  SU_T20U10  -1
    X_T19U11  COST  28.8933  DEM_T19  1
    X_T19U11  SU_T19U11  1  SU_T20U11  -1
    X_T19U12  COST  25.5478  DEM_T19  1
    X_T19U12  SU_T19U12  1  SU_T20U12  -1
    X_T19U13  COST  25.7509  DEM_T19  1
    X_T19U13  SU_T19U13  1  SU_T20U13  -1
    X_T19U14  COST  25.4574  DEM_T19  1
    X_T19U14  SU_T19U14  1  SU_T20U14  -1
    X_T19U15  COST  39.8901  DEM_T19  1
    X_T19U15  SU_T19U15  1  SU_T20U15  -1
    X_T19U16  COST  23.9014  DEM_T19  1
    X_T19U16  SU_T19U16  1  SU_T20U16  -1
    X_T19U17  COST  32.4361  DEM_T19  1
    X_T19U17  SU_T19U17  1  SU_T20U17  -1
    X_T19U18  COST  36.8476  DEM_T19  1
    X_T19U18  SU_T19U18  1  SU_T20U18  -1
    X_T19U19  COST  23.723  DEM_T19  1
    X_T19U19  SU_T19U19  1  SU_T20U19  -1
    X_T19U20  COST  18.1888  DEM_T19  1
    X_T19U20  SU_T19U20  1  SU_T20U20  -1
    X_T19U21  COST  11.3313  DEM_T19  1
    X_T19U21  SU_T19U21  1  SU_T20U21  -1
    X_T19U22  COST  11.0627  DEM_T19  1
    X_T19U22  SU_T19U22  1  SU_T20U22  -1
    X_T19U23  COST  37.9477  DEM_T19  1
    X_T19U23  SU_T19U23  1  SU_T20U23  -1
    X_T19U24  COST  18.4417  DEM_T19  1
    X_T19U24  SU_T19U24  1  SU_T20U24  -1
    X_T19U25  COST  10.1525  DEM_T19  1
    X_T19U25  SU_T19U25  1  SU_T20U25  -1
    X_T19U26  COST  11.4635  DEM_T19  1
    X_T19U26  SU_T19U26  1  SU_T20U26  -1
    X_T19U27  COST  38.8637  DEM_T19  1
    X_T19U27  SU_T19U27  1  SU_T20U27  -1
    X_T19U28  COST  36.8344  DEM_T19  1
    X_T19U28  SU_T19U28  1  SU_T20U28  -1
    X_T19U29  COST  11.8455  DEM_T19  1
    X_T19U29  SU_T19U29  1  SU_T20U29  -1
    X_T19U30  COST  25.4824  DEM_T19  1
    X_T19U30  SU_T19U30  1  SU_T20U30  -1
    X_T20U1  COST  27.1396  DEM_T20  1
    X_T20U1  SU_T20U1  1  SU_T21U1  -1
    X_T20U2  COST  26.3134  DEM_T20  1
    X_T20U2  SU_T20U2  1  SU_T21U2  -1
    X_T20U3  COST  32.0173  DEM_T20  1
    X_T20U3  SU_T20U3  1  SU_T21U3  -1
    X_T20U4  COST  36.0448  DEM_T20  1
    X_T20U4  SU_T20U4  1  SU_T21U4  -1
    X_T20U5  COST  14.7202  DEM_T20  1
    X_T20U5  SU_T20U5  1  SU_T21U5  -1
    X_T20U6  COST  20.0203  DEM_T20  1
    X_T20U6  SU_T20U6  1  SU_T21U6  -1
    X_T20U7  COST  37.9027  DEM_T20  1
    X_T20U7  SU_T20U7  1  SU_T21U7  -1
    X_T20U8  COST  30.9697  DEM_T20  1
    X_T20U8  SU_T20U8  1  SU_T21U8  -1
    X_T20U9  COST  36.4491  DEM_T20  1
    X_T20U9  SU_T20U9  1  SU_T21U9  -1
    X_T20U10  COST  23.9641  DEM_T20  1
    X_T20U10  SU_T20U10  1  SU_T21U10  -1
    X_T20U11  COST  10.1544  DEM_T20  1
    X_T20U11  SU_T20U11  1  SU_T21U11  -1
    X_T20U12  COST  16.8588  DEM_T20  1
    X_T20U12  SU_T20U12  1  SU_T21U12  -1
    X_T20U13  COST  10.0336  DEM_T20  1
    X_T20U13  SU_T20U13  1  SU_T21U13  -1
    X_T20U14  COST  32.6991  DEM_T20  1
    X_T20U14  SU_T20U14  1  SU_T21U14  -1
    X_T20U15  COST  15.794  DEM_T20  1
    X_T20U15  SU_T20U15  1  SU_T21U15  -1
    X_T20U16  COST  19.793  DEM_T20  1
    X_T20U16  SU_T20U16  1  SU_T21U16  -1
    X_T20U17  COST  13.4753  DEM_T20  1
    X_T20U17  SU_T20U17  1  SU_T21U17  -1
    X_T20U18  COST  10.2722  DEM_T20  1
    X_T20U18  SU_T20U18  1  SU_T21U18  -1
    X_T20U19  COST  13.8535  DEM_T20  1
    X_T20U19  SU_T20U19  1  SU_T21U19  -1
    X_T20U20  COST  10.5528  DEM_T20  1
    X_T20U20  SU_T20U20  1  SU_T21U20  -1
    X_T20U21  COST  35.2036  DEM_T20  1
    X_T20U21  SU_T20U21  1  SU_T21U21  -1
    X_T20U22  COST  15.3849  DEM_T20  1
    X_T20U22  SU_T20U22  1  SU_T21U22  -1
    X_T20U23  COST  33.6642  DEM_T20  1
    X_T20U23  SU_T20U23  1  SU_T21U23  -1
    X_T20U24  COST  33.1256  DEM_T20  1
    X_T20U24  SU_T20U24  1  SU_T21U24  -1
    X_T20U25  COST  14.9913  DEM_T20  1
    X_T20U25  SU_T20U25  1  SU_T21U25  -1
    X_T20U26  COST  31.2572  DEM_T20  1
    X_T20U26  SU_T20U26  1  SU_T21U26  -1
    X_T20U27  COST  11.7376  DEM_T20  1
    X_T20U27  SU_T20U27  1  SU_T21U27  -1
    X_T20U28  COST  35.5724  DEM_T20  1
    X_T20U28  SU_T20U28  1  SU_T21U28  -1
    X_T20U29  COST  30.2816  DEM_T20  1
    X_T20U29  SU_T20U29  1  SU_T21U29  -1
    X_T20U30  COST  29.4272  DEM_T20  1
    X_T20U30  SU_T20U30  1  SU_T21U30  -1
    X_T21U1  COST  21.5084  DEM_T21  1
    X_T21U1  SU_T21U1  1  SU_T22U1  -1
    X_T21U2  COST  34.6454  DEM_T21  1
    X_T21U2  SU_T21U2  1  SU_T22U2  -1
    X_T21U3  COST  34.5636  DEM_T21  1
    X_T21U3  SU_T21U3  1  SU_T22U3  -1
    X_T21U4  COST  10.0309  DEM_T21  1
    X_T21U4  SU_T21U4  1  SU_T22U4  -1
    X_T21U5  COST  24.0562  DEM_T21  1
    X_T21U5  SU_T21U5  1  SU_T22U5  -1
    X_T21U6  COST  13.0658  DEM_T21  1
    X_T21U6  SU_T21U6  1  SU_T22U6  -1
    X_T21U7  COST  25.8107  DEM_T21  1
    X_T21U7  SU_T21U7  1  SU_T22U7  -1
    X_T21U8  COST  18.9512  DEM_T21  1
    X_T21U8  SU_T21U8  1  SU_T22U8  -1
    X_T21U9  COST  33.1847  DEM_T21  1
    X_T21U9  SU_T21U9  1  SU_T22U9  -1
    X_T21U10  COST  13.9401  DEM_T21  1
    X_T21U10  SU_T21U10  1  SU_T22U10  -1
    X_T21U11  COST  38.8971  DEM_T21  1
    X_T21U11  SU_T21U11  1  SU_T22U11  -1
    X_T21U12  COST  31.9381  DEM_T21  1
    X_T21U12  SU_T21U12  1  SU_T22U12  -1
    X_T21U13  COST  35.7208  DEM_T21  1
    X_T21U13  SU_T21U13  1  SU_T22U13  -1
    X_T21U14  COST  32.8028  DEM_T21  1
    X_T21U14  SU_T21U14  1  SU_T22U14  -1
    X_T21U15  COST  19.3586  DEM_T21  1
    X_T21U15  SU_T21U15  1  SU_T22U15  -1
    X_T21U16  COST  31.7327  DEM_T21  1
    X_T21U16  SU_T21U16  1  SU_T22U16  -1
    X_T21U17  COST  16.0108  DEM_T21  1
    X_T21U17  SU_T21U17  1  SU_T22U17  -1
    X_T21U18  COST  31.4477  DEM_T21  1
    X_T21U18  SU_T21U18  1  SU_T22U18  -1
    X_T21U19  COST  24.146  DEM_T21  1
    X_T21U19  SU_T21U19  1  SU_T22U19  -1
    X_T21U20  COST  14.7774  DEM_T21  1
    X_T21U20  SU_T21U20  1  SU_T22U20  -1
    X_T21U21  COST  12.7349  DEM_T21  1
    X_T21U21  SU_T21U21  1  SU_T22U21  -1
    X_T21U22  COST  23.6108  DEM_T21  1
    X_T21U22  SU_T21U22  1  SU_T22U22  -1
    X_T21U23  COST  10.5359  DEM_T21  1
    X_T21U23  SU_T21U23  1  SU_T22U23  -1
    X_T21U24  COST  18.825  DEM_T21  1
    X_T21U24  SU_T21U24  1  SU_T22U24  -1
    X_T21U25  COST  39.0253  DEM_T21  1
    X_T21U25  SU_T21U25  1  SU_T22U25  -1
    X_T21U26  COST  23.8629  DEM_T21  1
    X_T21U26  SU_T21U26  1  SU_T22U26  -1
    X_T21U27  COST  27.9498  DEM_T21  1
    X_T21U27  SU_T21U27  1  SU_T22U27  -1
    X_T21U28  COST  17.4262  DEM_T21  1
    X_T21U28  SU_T21U28  1  SU_T22U28  -1
    X_T21U29  COST  16.7662  DEM_T21  1
    X_T21U29  SU_T21U29  1  SU_T22U29  -1
    X_T21U30  COST  29.5456  DEM_T21  1
    X_T21U30  SU_T21U30  1  SU_T22U30  -1
    X_T22U1  COST  27.7079  DEM_T22  1
    X_T22U1  SU_T22U1  1  SU_T23U1  -1
    X_T22U2  COST  39.5305  DEM_T22  1
    X_T22U2  SU_T22U2  1  SU_T23U2  -1
    X_T22U3  COST  23.938  DEM_T22  1
    X_T22U3  SU_T22U3  1  SU_T23U3  -1
    X_T22U4  COST  21.8664  DEM_T22  1
    X_T22U4  SU_T22U4  1  SU_T23U4  -1
    X_T22U5  COST  31.6566  DEM_T22  1
    X_T22U5  SU_T22U5  1  SU_T23U5  -1
    X_T22U6  COST  32.7118  DEM_T22  1
    X_T22U6  SU_T22U6  1  SU_T23U6  -1
    X_T22U7  COST  37.2346  DEM_T22  1
    X_T22U7  SU_T22U7  1  SU_T23U7  -1
    X_T22U8  COST  32.4748  DEM_T22  1
    X_T22U8  SU_T22U8  1  SU_T23U8  -1
    X_T22U9  COST  13.0838  DEM_T22  1
    X_T22U9  SU_T22U9  1  SU_T23U9  -1
    X_T22U10  COST  10.551  DEM_T22  1
    X_T22U10  SU_T22U10  1  SU_T23U10  -1
    X_T22U11  COST  16.3105  DEM_T22  1
    X_T22U11  SU_T22U11  1  SU_T23U11  -1
    X_T22U12  COST  33.2741  DEM_T22  1
    X_T22U12  SU_T22U12  1  SU_T23U12  -1
    X_T22U13  COST  12.1725  DEM_T22  1
    X_T22U13  SU_T22U13  1  SU_T23U13  -1
    X_T22U14  COST  36.476  DEM_T22  1
    X_T22U14  SU_T22U14  1  SU_T23U14  -1
    X_T22U15  COST  34.7354  DEM_T22  1
    X_T22U15  SU_T22U15  1  SU_T23U15  -1
    X_T22U16  COST  19.6628  DEM_T22  1
    X_T22U16  SU_T22U16  1  SU_T23U16  -1
    X_T22U17  COST  16.0258  DEM_T22  1
    X_T22U17  SU_T22U17  1  SU_T23U17  -1
    X_T22U18  COST  34.6432  DEM_T22  1
    X_T22U18  SU_T22U18  1  SU_T23U18  -1
    X_T22U19  COST  30.1116  DEM_T22  1
    X_T22U19  SU_T22U19  1  SU_T23U19  -1
    X_T22U20  COST  13.7266  DEM_T22  1
    X_T22U20  SU_T22U20  1  SU_T23U20  -1
    X_T22U21  COST  27.8433  DEM_T22  1
    X_T22U21  SU_T22U21  1  SU_T23U21  -1
    X_T22U22  COST  28.3883  DEM_T22  1
    X_T22U22  SU_T22U22  1  SU_T23U22  -1
    X_T22U23  COST  38.0561  DEM_T22  1
    X_T22U23  SU_T22U23  1  SU_T23U23  -1
    X_T22U24  COST  28.7591  DEM_T22  1
    X_T22U24  SU_T22U24  1  SU_T23U24  -1
    X_T22U25  COST  28.3677  DEM_T22  1
    X_T22U25  SU_T22U25  1  SU_T23U25  -1
    X_T22U26  COST  29.8246  DEM_T22  1
    X_T22U26  SU_T22U26  1  SU_T23U26  -1
    X_T22U27  COST  27.9243  DEM_T22  1
    X_T22U27  SU_T22U27  1  SU_T23U27  -1
    X_T22U28  COST  24.4271  DEM_T22  1
    X_T22U28  SU_T22U28  1  SU_T23U28  -1
    X_T22U29  COST  14.92  DEM_T22  1
    X_T22U29  SU_T22U29  1  SU_T23U29  -1
    X_T22U30  COST  31.7448  DEM_T22  1
    X_T22U30  SU_T22U30  1  SU_T23U30  -1
    X_T23U1  COST  29.5088  DEM_T23  1
    X_T23U1  SU_T23U1  1  SU_T24U1  -1
    X_T23U2  COST  28.4723  DEM_T23  1
    X_T23U2  SU_T23U2  1  SU_T24U2  -1
    X_T23U3  COST  24.1055  DEM_T23  1
    X_T23U3  SU_T23U3  1  SU_T24U3  -1
    X_T23U4  COST  36.155  DEM_T23  1
    X_T23U4  SU_T23U4  1  SU_T24U4  -1
    X_T23U5  COST  11.3098  DEM_T23  1
    X_T23U5  SU_T23U5  1  SU_T24U5  -1
    X_T23U6  COST  10.6258  DEM_T23  1
    X_T23U6  SU_T23U6  1  SU_T24U6  -1
    X_T23U7  COST  19.9694  DEM_T23  1
    X_T23U7  SU_T23U7  1  SU_T24U7  -1
    X_T23U8  COST  24.7983  DEM_T23  1
    X_T23U8  SU_T23U8  1  SU_T24U8  -1
    X_T23U9  COST  22.0978  DEM_T23  1
    X_T23U9  SU_T23U9  1  SU_T24U9  -1
    X_T23U10  COST  22.552  DEM_T23  1
    X_T23U10  SU_T23U10  1  SU_T24U10  -1
    X_T23U11  COST  35.2136  DEM_T23  1
    X_T23U11  SU_T23U11  1  SU_T24U11  -1
    X_T23U12  COST  38.8234  DEM_T23  1
    X_T23U12  SU_T23U12  1  SU_T24U12  -1
    X_T23U13  COST  35.3874  DEM_T23  1
    X_T23U13  SU_T23U13  1  SU_T24U13  -1
    X_T23U14  COST  32.0605  DEM_T23  1
    X_T23U14  SU_T23U14  1  SU_T24U14  -1
    X_T23U15  COST  25.1453  DEM_T23  1
    X_T23U15  SU_T23U15  1  SU_T24U15  -1
    X_T23U16  COST  25.4199  DEM_T23  1
    X_T23U16  SU_T23U16  1  SU_T24U16  -1
    X_T23U17  COST  10.8818  DEM_T23  1
    X_T23U17  SU_T23U17  1  SU_T24U17  -1
    X_T23U18  COST  28.1857  DEM_T23  1
    X_T23U18  SU_T23U18  1  SU_T24U18  -1
    X_T23U19  COST  33.7887  DEM_T23  1
    X_T23U19  SU_T23U19  1  SU_T24U19  -1
    X_T23U20  COST  39.764  DEM_T23  1
    X_T23U20  SU_T23U20  1  SU_T24U20  -1
    X_T23U21  COST  20.7745  DEM_T23  1
    X_T23U21  SU_T23U21  1  SU_T24U21  -1
    X_T23U22  COST  23.9744  DEM_T23  1
    X_T23U22  SU_T23U22  1  SU_T24U22  -1
    X_T23U23  COST  17.0738  DEM_T23  1
    X_T23U23  SU_T23U23  1  SU_T24U23  -1
    X_T23U24  COST  22.1593  DEM_T23  1
    X_T23U24  SU_T23U24  1  SU_T24U24  -1
    X_T23U25  COST  28.9762  DEM_T23  1
    X_T23U25  SU_T23U25  1  SU_T24U25  -1
    X_T23U26  COST  25.3785  DEM_T23  1
    X_T23U26  SU_T23U26  1  SU_T24U26  -1
    X_T23U27  COST  12.074  DEM_T23  1
    X_T23U27  SU_T23U27  1  SU_T24U27  -1
    X_T23U28  COST  12.9218  DEM_T23  1
    X_T23U28  SU_T23U28  1  SU_T24U28  -1
    X_T23U29  COST  27.7876  DEM_T23  1
    X_T23U29  SU_T23U29  1  SU_T24U29  -1
    X_T23U30  COST  29.8786  DEM_T23  1
    X_T23U30  SU_T23U30  1  SU_T24U30  -1
    X_T24U1  COST  29.5637  DEM_T24  1
    X_T24U1  SU_T24U1  1  SU_T25U1  -1
    X_T24U2  COST  21.9714  DEM_T24  1
    X_T24U2  SU_T24U2  1  SU_T25U2  -1
    X_T24U3  COST  10.2709  DEM_T24  1
    X_T24U3  SU_T24U3  1  SU_T25U3  -1
    X_T24U4  COST  27.9614  DEM_T24  1
    X_T24U4  SU_T24U4  1  SU_T25U4  -1
    X_T24U5  COST  17.1108  DEM_T24  1
    X_T24U5  SU_T24U5  1  SU_T25U5  -1
    X_T24U6  COST  36.5113  DEM_T24  1
    X_T24U6  SU_T24U6  1  SU_T25U6  -1
    X_T24U7  COST  19.9267  DEM_T24  1
    X_T24U7  SU_T24U7  1  SU_T25U7  -1
    X_T24U8  COST  30.0817  DEM_T24  1
    X_T24U8  SU_T24U8  1  SU_T25U8  -1
    X_T24U9  COST  23.483  DEM_T24  1
    X_T24U9  SU_T24U9  1  SU_T25U9  -1
    X_T24U10  COST  38.4575  DEM_T24  1
    X_T24U10  SU_T24U10  1  SU_T25U10  -1
    X_T24U11  COST  20.7775  DEM_T24  1
    X_T24U11  SU_T24U11  1  SU_T25U11  -1
    X_T24U12  COST  28.1661  DEM_T24  1
    X_T24U12  SU_T24U12  1  SU_T25U12  -1
    X_T24U13  COST  26.0054  DEM_T24  1
    X_T24U13  SU_T24U13  1  SU_T25U13  -1
    X_T24U14  COST  31.1616  DEM_T24  1
    X_T24U14  SU_T24U14  1  SU_T25U14  -1
    X_T24U15  COST  35.9265  DEM_T24  1
    X_T24U15  SU_T24U15  1  SU_T25U15  -1
    X_T24U16  COST  26.1972  DEM_T24  1
    X_T24U16  SU_T24U16  1  SU_T25U16  -1
    X_T24U17  COST  39.6008  DEM_T24  1
    X_T24U17  SU_T24U17  1  SU_T25U17  -1
    X_T24U18  COST  16.9339  DEM_T24  1
    X_T24U18  SU_T24U18  1  SU_T25U18  -1
    X_T24U19  COST  29.2001  DEM_T24  1
    X_T24U19  SU_T24U19  1  SU_T25U19  -1
    X_T24U20  COST  15.4003  DEM_T24  1
    X_T24U20  SU_T24U20  1  SU_T25U20  -1
    X_T24U21  COST  13.0993  DEM_T24  1
    X_T24U21  SU_T24U21  1  SU_T25U21  -1
    X_T24U22  COST  30.6462  DEM_T24  1
    X_T24U22  SU_T24U22  1  SU_T25U22  -1
    X_T24U23  COST  24.3969  DEM_T24  1
    X_T24U23  SU_T24U23  1  SU_T25U23  -1
    X_T24U24  COST  10.5214  DEM_T24  1
    X_T24U24  SU_T24U24  1  SU_T25U24  -1
    X_T24U25  COST  39.1929  DEM_T24  1
    X_T24U25  SU_T24U25  1  SU_T25U25  -1
    X_T24U26  COST  17.6267  DEM_T24  1
    X_T24U26  SU_T24U26  1  SU_T25U26  -1
    X_T24U27  COST  20.2796  DEM_T24  1
    X_T24U27  SU_T24U27  1  SU_T25U27  -1
    X_T24U28  COST  13.7722  DEM_T24  1
    X_T24U28  SU_T24U28  1  SU_T25U28  -1
    X_T24U29  COST  14.3063  DEM_T24  1
    X_T24U29  SU_T24U29  1  SU_T25U29  -1
    X_T24U30  COST  31.987  DEM_T24  1
    X_T24U30  SU_T24U30  1  SU_T25U30  -1
    X_T25U1  COST  15.6505  DEM_T25  1
    X_T25U1  SU_T25U1  1  SU_T26U1  -1
    X_T25U2  COST  14.6849  DEM_T25  1
    X_T25U2  SU_T25U2  1  SU_T26U2  -1
    X_T25U3  COST  38.9004  DEM_T25  1
    X_T25U3  SU_T25U3  1  SU_T26U3  -1
    X_T25U4  COST  29.849  DEM_T25  1
    X_T25U4  SU_T25U4  1  SU_T26U4  -1
    X_T25U5  COST  21.2289  DEM_T25  1
    X_T25U5  SU_T25U5  1  SU_T26U5  -1
    X_T25U6  COST  17.3244  DEM_T25  1
    X_T25U6  SU_T25U6  1  SU_T26U6  -1
    X_T25U7  COST  35.9383  DEM_T25  1
    X_T25U7  SU_T25U7  1  SU_T26U7  -1
    X_T25U8  COST  13.3933  DEM_T25  1
    X_T25U8  SU_T25U8  1  SU_T26U8  -1
    X_T25U9  COST  37.5603  DEM_T25  1
    X_T25U9  SU_T25U9  1  SU_T26U9  -1
    X_T25U10  COST  38.2263  DEM_T25  1
    X_T25U10  SU_T25U10  1  SU_T26U10  -1
    X_T25U11  COST  30.0091  DEM_T25  1
    X_T25U11  SU_T25U11  1  SU_T26U11  -1
    X_T25U12  COST  20.4572  DEM_T25  1
    X_T25U12  SU_T25U12  1  SU_T26U12  -1
    X_T25U13  COST  28.1486  DEM_T25  1
    X_T25U13  SU_T25U13  1  SU_T26U13  -1
    X_T25U14  COST  35.9932  DEM_T25  1
    X_T25U14  SU_T25U14  1  SU_T26U14  -1
    X_T25U15  COST  32.5728  DEM_T25  1
    X_T25U15  SU_T25U15  1  SU_T26U15  -1
    X_T25U16  COST  18.6606  DEM_T25  1
    X_T25U16  SU_T25U16  1  SU_T26U16  -1
    X_T25U17  COST  29.5153  DEM_T25  1
    X_T25U17  SU_T25U17  1  SU_T26U17  -1
    X_T25U18  COST  37.7702  DEM_T25  1
    X_T25U18  SU_T25U18  1  SU_T26U18  -1
    X_T25U19  COST  37.0413  DEM_T25  1
    X_T25U19  SU_T25U19  1  SU_T26U19  -1
    X_T25U20  COST  19.5159  DEM_T25  1
    X_T25U20  SU_T25U20  1  SU_T26U20  -1
    X_T25U21  COST  21.2702  DEM_T25  1
    X_T25U21  SU_T25U21  1  SU_T26U21  -1
    X_T25U22  COST  29.4722  DEM_T25  1
    X_T25U22  SU_T25U22  1  SU_T26U22  -1
    X_T25U23  COST  28.9063  DEM_T25  1
    X_T25U23  SU_T25U23  1  SU_T26U23  -1
    X_T25U24  COST  26.9032  DEM_T25  1
    X_T25U24  SU_T25U24  1  SU_T26U24  -1
    X_T25U25  COST  26.455  DEM_T25  1
    X_T25U25  SU_T25U25  1  SU_T26U25  -1
    X_T25U26  COST  26.3706  DEM_T25  1
    X_T25U26  SU_T25U26  1  SU_T26U26  -1
    X_T25U27  COST  10.44  DEM_T25  1
    X_T25U27  SU_T25U27  1  SU_T26U27  -1
    X_T25U28  COST  15.0533  DEM_T25  1
    X_T25U28  SU_T25U28  1  SU_T26U28  -1
    X_T25U29  COST  32.7803  DEM_T25  1
    X_T25U29  SU_T25U29  1  SU_T26U29  -1
    X_T25U30  COST  26.2709  DEM_T25  1
    X_T25U30  SU_T25U30  1  SU_T26U30  -1
    X_T26U1  COST  35.415  DEM_T26  1
    X_T26U1  SU_T26U1  1  SU_T27U1  -1
    X_T26U2  COST  34.413  DEM_T26  1
    X_T26U2  SU_T26U2  1  SU_T27U2  -1
    X_T26U3  COST  14.4698  DEM_T26  1
    X_T26U3  SU_T26U3  1  SU_T27U3  -1
    X_T26U4  COST  17.3821  DEM_T26  1
    X_T26U4  SU_T26U4  1  SU_T27U4  -1
    X_T26U5  COST  21.831  DEM_T26  1
    X_T26U5  SU_T26U5  1  SU_T27U5  -1
    X_T26U6  COST  32.4063  DEM_T26  1
    X_T26U6  SU_T26U6  1  SU_T27U6  -1
    X_T26U7  COST  25.637  DEM_T26  1
    X_T26U7  SU_T26U7  1  SU_T27U7  -1
    X_T26U8  COST  22.9259  DEM_T26  1
    X_T26U8  SU_T26U8  1  SU_T27U8  -1
    X_T26U9  COST  12.1384  DEM_T26  1
    X_T26U9  SU_T26U9  1  SU_T27U9  -1
    X_T26U10  COST  29.6408  DEM_T26  1
    X_T26U10  SU_T26U10  1  SU_T27U10  -1
    X_T26U11  COST  15.9146  DEM_T26  1
    X_T26U11  SU_T26U11  1  SU_T27U11  -1
    X_T26U12  COST  15.8367  DEM_T26  1
    X_T26U12  SU_T26U12  1  SU_T27U12  -1
    X_T26U13  COST  28.5206  DEM_T26  1
    X_T26U13  SU_T26U13  1  SU_T27U13  -1
    X_T26U14  COST  30.1029  DEM_T26  1
    X_T26U14  SU_T26U14  1  SU_T27U14  -1
    X_T26U15  COST  25.9678  DEM_T26  1
    X_T26U15  SU_T26U15  1  SU_T27U15  -1
    X_T26U16  COST  12.6888  DEM_T26  1
    X_T26U16  SU_T26U16  1  SU_T27U16  -1
    X_T26U17  COST  21.9972  DEM_T26  1
    X_T26U17  SU_T26U17  1  SU_T27U17  -1
    X_T26U18  COST  34.6952  DEM_T26  1
    X_T26U18  SU_T26U18  1  SU_T27U18  -1
    X_T26U19  COST  13.6967  DEM_T26  1
    X_T26U19  SU_T26U19  1  SU_T27U19  -1
    X_T26U20  COST  33.9934  DEM_T26  1
    X_T26U20  SU_T26U20  1  SU_T27U20  -1
    X_T26U21  COST  18.8583  DEM_T26  1
    X_T26U21  SU_T26U21  1  SU_T27U21  -1
    X_T26U22  COST  15.5569  DEM_T26  1
    X_T26U22  SU_T26U22  1  SU_T27U22  -1
    X_T26U23  COST  22.7358  DEM_T26  1
    X_T26U23  SU_T26U23  1  SU_T27U23  -1
    X_T26U24  COST  34.4725  DEM_T26  1
    X_T26U24  SU_T26U24  1  SU_T27U24  -1
    X_T26U25  COST  25.795  DEM_T26  1
    X_T26U25  SU_T26U25  1  SU_T27U25  -1
    X_T26U26  COST  10.0775  DEM_T26  1
    X_T26U26  SU_T26U26  1  SU_T27U26  -1
    X_T26U27  COST  25.4553  DEM_T26  1
    X_T26U27  SU_T26U27  1  SU_T27U27  -1
    X_T26U28  COST  33.8123  DEM_T26  1
    X_T26U28  SU_T26U28  1  SU_T27U28  -1
    X_T26U29  COST  15.2432  DEM_T26  1
    X_T26U29  SU_T26U29  1  SU_T27U29  -1
    X_T26U30  COST  37.1767  DEM_T26  1
    X_T26U30  SU_T26U30  1  SU_T27U30  -1
    X_T27U1  COST  26.6991  DEM_T27  1
    X_T27U1  SU_T27U1  1  SU_T28U1  -1
    X_T27U2  COST  19.0618  DEM_T27  1
    X_T27U2  SU_T27U2  1  SU_T28U2  -1
    X_T27U3  COST  35.5352  DEM_T27  1
    X_T27U3  SU_T27U3  1  SU_T28U3  -1
    X_T27U4  COST  34.2859  DEM_T27  1
    X_T27U4  SU_T27U4  1  SU_T28U4  -1
    X_T27U5  COST  14.4911  DEM_T27  1
    X_T27U5  SU_T27U5  1  SU_T28U5  -1
    X_T27U6  COST  14.5895  DEM_T27  1
    X_T27U6  SU_T27U6  1  SU_T28U6  -1
    X_T27U7  COST  36.0778  DEM_T27  1
    X_T27U7  SU_T27U7  1  SU_T28U7  -1
    X_T27U8  COST  26.0607  DEM_T27  1
    X_T27U8  SU_T27U8  1  SU_T28U8  -1
    X_T27U9  COST  19.3682  DEM_T27  1
    X_T27U9  SU_T27U9  1  SU_T28U9  -1
    X_T27U10  COST  16.1856  DEM_T27  1
    X_T27U10  SU_T27U10  1  SU_T28U10  -1
    X_T27U11  COST  17.7065  DEM_T27  1
    X_T27U11  SU_T27U11  1  SU_T28U11  -1
    X_T27U12  COST  11.7536  DEM_T27  1
    X_T27U12  SU_T27U12  1  SU_T28U12  -1
    X_T27U13  COST  18.2362  DEM_T27  1
    X_T27U13  SU_T27U13  1  SU_T28U13  -1
    X_T27U14  COST  30.2752  DEM_T27  1
    X_T27U14  SU_T27U14  1  SU_T28U14  -1
    X_T27U15  COST  23.3737  DEM_T27  1
    X_T27U15  SU_T27U15  1  SU_T28U15  -1
    X_T27U16  COST  10.4746  DEM_T27  1
    X_T27U16  SU_T27U16  1  SU_T28U16  -1
    X_T27U17  COST  34.5612  DEM_T27  1
    X_T27U17  SU_T27U17  1  SU_T28U17  -1
    X_T27U18  COST  20.1168  DEM_T27  1
    X_T27U18  SU_T27U18  1  SU_T28U18  -1
    X_T27U19  COST  33.1787  DEM_T27  1
    X_T27U19  SU_T27U19  1  SU_T28U19  -1
    X_T27U20  COST  29.3587  DEM_T27  1
    X_T27U20  SU_T27U20  1  SU_T28U20  -1
    X_T27U21  COST  22.0356  DEM_T27  1
    X_T27U21  SU_T27U21  1  SU_T28U21  -1
    X_T27U22  COST  20.3068  DEM_T27  1
    X_T27U22  SU_T27U22  1  SU_T28U22  -1
    X_T27U23  COST  23.2723  DEM_T27  1
    X_T27U23  SU_T27U23  1  SU_T28U23  -1
    X_T27U24  COST  30.0881  DEM_T27  1
    X_T27U24  SU_T27U24  1  SU_T28U24  -1
    X_T27U25  COST  29.205  DEM_T27  1
    X_T27U25  SU_T27U25  1  SU_T28U25  -1
    X_T27U26  COST  27.7844  DEM_T27  1
    X_T27U26  SU_T27U26  1  SU_T28U26  -1
    X_T27U27  COST  16.9249  DEM_T27  1
    X_T27U27  SU_T27U27  1  SU_T28U27  -1
    X_T27U28  COST  15.7097  DEM_T27  1
    X_T27U28  SU_T27U28  1  SU_T28U28  -1
    X_T27U29  COST  21.3543  DEM_T27  1
    X_T27U29  SU_T27U29  1  SU_T28U29  -1
    X_T27U30  COST  39.8644  DEM_T27  1
    X_T27U30  SU_T27U30  1  SU_T28U30  -1
    X_T28U1  COST  20.0071  DEM_T28  1
    X_T28U1  SU_T28U1  1  SU_T29U1  -1
    X_T28U2  COST  12.663  DEM_T28  1
    X_T28U2  SU_T28U2  1  SU_T29U2  -1
    X_T28U3  COST  29.0488  DEM_T28  1
    X_T28U3  SU_T28U3  1  SU_T29U3  -1
    X_T28U4  COST  15.1143  DEM_T28  1
    X_T28U4  SU_T28U4  1  SU_T29U4  -1
    X_T28U5  COST  22.6807  DEM_T28  1
    X_T28U5  SU_T28U5  1  SU_T29U5  -1
    X_T28U6  COST  10.0371  DEM_T28  1
    X_T28U6  SU_T28U6  1  SU_T29U6  -1
    X_T28U7  COST  39.4371  DEM_T28  1
    X_T28U7  SU_T28U7  1  SU_T29U7  -1
    X_T28U8  COST  21.4758  DEM_T28  1
    X_T28U8  SU_T28U8  1  SU_T29U8  -1
    X_T28U9  COST  39.2249  DEM_T28  1
    X_T28U9  SU_T28U9  1  SU_T29U9  -1
    X_T28U10  COST  32.1154  DEM_T28  1
    X_T28U10  SU_T28U10  1  SU_T29U10  -1
    X_T28U11  COST  17.3097  DEM_T28  1
    X_T28U11  SU_T28U11  1  SU_T29U11  -1
    X_T28U12  COST  12.7879  DEM_T28  1
    X_T28U12  SU_T28U12  1  SU_T29U12  -1
    X_T28U13  COST  33.6371  DEM_T28  1
    X_T28U13  SU_T28U13  1  SU_T29U13  -1
    X_T28U14  COST  28.2546  DEM_T28  1
    X_T28U14  SU_T28U14  1  SU_T29U14  -1
    X_T28U15  COST  14.7791  DEM_T28  1
    X_T28U15  SU_T28U15  1  SU_T29U15  -1
    X_T28U16  COST  13.5295  DEM_T28  1
    X_T28U16  SU_T28U16  1  SU_T29U16  -1
    X_T28U17  COST  20.2502  DEM_T28  1
    X_T28U17  SU_T28U17  1  SU_T29U17  -1
    X_T28U18  COST  20.3897  DEM_T28  1
    X_T28U18  SU_T28U18  1  SU_T29U18  -1
    X_T28U19  COST  25.2917  DEM_T28  1
    X_T28U19  SU_T28U19  1  SU_T29U19  -1
    X_T28U20  COST  18.3911  DEM_T28  1
    X_T28U20  SU_T28U20  1  SU_T29U20  -1
    X_T28U21  COST  36.2001  DEM_T28  1
    X_T28U21  SU_T28U21  1  SU_T29U21  -1
    X_T28U22  COST  33.5883  DEM_T28  1
    X_T28U22  SU_T28U22  1  SU_T29U22  -1
    X_T28U23  COST  26.9973  DEM_T28  1
    X_T28U23  SU_T28U23  1  SU_T29U23  -1
    X_T28U24  COST  25.0346  DEM_T28  1
    X_T28U24  SU_T28U24  1  SU_T29U24  -1
    X_T28U25  COST  26.192  DEM_T28  1
    X_T28U25  SU_T28U25  1  SU_T29U25  -1
    X_T28U26  COST  30.2291  DEM_T28  1
    X_T28U26  SU_T28U26  1  SU_T29U26  -1
    X_T28U27  COST  31.6427  DEM_T28  1
    X_T28U27  SU_T28U27  1  SU_T29U27  -1
    X_T28U28  COST  16.3595  DEM_T28  1
    X_T28U28  SU_T28U28  1  SU_T29U28  -1
    X_T28U29  COST  19.6758  DEM_T28  1
    X_T28U29  SU_T28U29  1  SU_T29U29  -1
    X_T28U30  COST  14.6137  DEM_T28  1
    X_T28U30  SU_T28U30  1  SU_T29U30  -1
    X_T29U1  COST  38.7197  DEM_T29  1
    X_T29U1  SU_T29U1  1  SU_T30U1  -1
    X_T29U2  COST  37.9819  DEM_T29  1
    X_T29U2  SU_T29U2  1  SU_T30U2  -1
    X_T29U3  COST  24.3806  DEM_T29  1
    X_T29U3  SU_T29U3  1  SU_T30U3  -1
    X_T29U4  COST  28.1911  DEM_T29  1
    X_T29U4  SU_T29U4  1  SU_T30U4  -1
    X_T29U5  COST  36.9478  DEM_T29  1
    X_T29U5  SU_T29U5  1  SU_T30U5  -1
    X_T29U6  COST  19.5259  DEM_T29  1
    X_T29U6  SU_T29U6  1  SU_T30U6  -1
    X_T29U7  COST  34.756  DEM_T29  1
    X_T29U7  SU_T29U7  1  SU_T30U7  -1
    X_T29U8  COST  13.6529  DEM_T29  1
    X_T29U8  SU_T29U8  1  SU_T30U8  -1
    X_T29U9  COST  25.1832  DEM_T29  1
    X_T29U9  SU_T29U9  1  SU_T30U9  -1
    X_T29U10  COST  12.399  DEM_T29  1
    X_T29U10  SU_T29U10  1  SU_T30U10  -1
    X_T29U11  COST  13.6611  DEM_T29  1
    X_T29U11  SU_T29U11  1  SU_T30U11  -1
    X_T29U12  COST  38.0935  DEM_T29  1
    X_T29U12  SU_T29U12  1  SU_T30U12  -1
    X_T29U13  COST  18.3326  DEM_T29  1
    X_T29U13  SU_T29U13  1  SU_T30U13  -1
    X_T29U14  COST  10.01  DEM_T29  1
    X_T29U14  SU_T29U14  1  SU_T30U14  -1
    X_T29U15  COST  28.0766  DEM_T29  1
    X_T29U15  SU_T29U15  1  SU_T30U15  -1
    X_T29U16  COST  21.5938  DEM_T29  1
    X_T29U16  SU_T29U16  1  SU_T30U16  -1
    X_T29U17  COST  15.7535  DEM_T29  1
    X_T29U17  SU_T29U17  1  SU_T30U17  -1
    X_T29U18  COST  24.538  DEM_T29  1
    X_T29U18  SU_T29U18  1  SU_T30U18  -1
    X_T29U19  COST  28.5849  DEM_T29  1
    X_T29U19  SU_T29U19  1  SU_T30U19  -1
    X_T29U20  COST  22.9101  DEM_T29  1
    X_T29U20  SU_T29U20  1  SU_T30U20  -1
    X_T29U21  COST  12.2389  DEM_T29  1
    X_T29U21  SU_T29U21  1  SU_T30U21  -1
    X_T29U22  COST  17.9616  DEM_T29  1
    X_T29U22  SU_T29U22  1  SU_T30U22  -1
    X_T29U23  COST  30.7485  DEM_T29  1
    X_T29U23  SU_T29U23  1  SU_T30U23  -1
    X_T29U24  COST  28.9957  DEM_T29  1
    X_T29U24  SU_T29U24  1  SU_T30U24  -1
    X_T29U25  COST  16.9794  DEM_T29  1
    X_T29U25  SU_T29U25  1  SU_T30U25  -1
    X_T29U26  COST  15.2126  DEM_T29  1
    X_T29U26  SU_T29U26  1  SU_T30U26  -1
    X_T29U27  COST  35.4405  DEM_T29  1
    X_T29U27  SU_T29U27  1  SU_T30U27  -1
    X_T29U28  COST  33.7628  DEM_T29  1
    X_T29U28  SU_T29U28  1  SU_T30U28  -1
    X_T29U29  COST  29.6223  DEM_T29  1
    X_T29U29  SU_T29U29  1  SU_T30U29  -1
    X_T29U30  COST  25.7651  DEM_T29  1
    X_T29U30  SU_T29U30  1  SU_T30U30  -1
    X_T30U1  COST  15.3066  DEM_T30  1
    X_T30U1  SU_T30U1  1  SU_T31U1  -1
    X_T30U2  COST  38.9147  DEM_T30  1
    X_T30U2  SU_T30U2  1  SU_T31U2  -1
    X_T30U3  COST  14.0141  DEM_T30  1
    X_T30U3  SU_T30U3  1  SU_T31U3  -1
    X_T30U4  COST  33.7101  DEM_T30  1
    X_T30U4  SU_T30U4  1  SU_T31U4  -1
    X_T30U5  COST  30.4292  DEM_T30  1
    X_T30U5  SU_T30U5  1  SU_T31U5  -1
    X_T30U6  COST  28.5684  DEM_T30  1
    X_T30U6  SU_T30U6  1  SU_T31U6  -1
    X_T30U7  COST  35.0291  DEM_T30  1
    X_T30U7  SU_T30U7  1  SU_T31U7  -1
    X_T30U8  COST  15.9657  DEM_T30  1
    X_T30U8  SU_T30U8  1  SU_T31U8  -1
    X_T30U9  COST  11.279  DEM_T30  1
    X_T30U9  SU_T30U9  1  SU_T31U9  -1
    X_T30U10  COST  17.9755  DEM_T30  1
    X_T30U10  SU_T30U10  1  SU_T31U10  -1
    X_T30U11  COST  24.98  DEM_T30  1
    X_T30U11  SU_T30U11  1  SU_T31U11  -1
    X_T30U12  COST  14.4771  DEM_T30  1
    X_T30U12  SU_T30U12  1  SU_T31U12  -1
    X_T30U13  COST  35.9398  DEM_T30  1
    X_T30U13  SU_T30U13  1  SU_T31U13  -1
    X_T30U14  COST  29.5513  DEM_T30  1
    X_T30U14  SU_T30U14  1  SU_T31U14  -1
    X_T30U15  COST  28.4224  DEM_T30  1
    X_T30U15  SU_T30U15  1  SU_T31U15  -1
    X_T30U16  COST  21.7718  DEM_T30  1
    X_T30U16  SU_T30U16  1  SU_T31U16  -1
    X_T30U17  COST  13.9944  DEM_T30  1
    X_T30U17  SU_T30U17  1  SU_T31U17  -1
    X_T30U18  COST  29.7608  DEM_T30  1
    X_T30U18  SU_T30U18  1  SU_T31U18  -1
    X_T30U19  COST  34.2665  DEM_T30  1
    X_T30U19  SU_T30U19  1  SU_T31U19  -1
    X_T30U20  COST  18.381  DEM_T30  1
    X_T30U20  SU_T30U20  1  SU_T31U20  -1
    X_T30U21  COST  17.5918  DEM_T30  1
    X_T30U21  SU_T30U21  1  SU_T31U21  -1
    X_T30U22  COST  34.754  DEM_T30  1
    X_T30U22  SU_T30U22  1  SU_T31U22  -1
    X_T30U23  COST  21.5905  DEM_T30  1
    X_T30U23  SU_T30U23  1  SU_T31U23  -1
    X_T30U24  COST  16.8089  DEM_T30  1
    X_T30U24  SU_T30U24  1  SU_T31U24  -1
    X_T30U25  COST  23.5186  DEM_T30  1
    X_T30U25  SU_T30U25  1  SU_T31U25  -1
    X_T30U26  COST  13.1708  DEM_T30  1
    X_T30U26  SU_T30U26  1  SU_T31U26  -1
    X_T30U27  COST  23.2982  DEM_T30  1
    X_T30U27  SU_T30U27  1  SU_T31U27  -1
    X_T30U28  COST  11.1407  DEM_T30  1
    X_T30U28  SU_T30U28  1  SU_T31U28  -1
    X_T30U29  COST  29.7711  DEM_T30  1
    X_T30U29  SU_T30U29  1  SU_T31U29  -1
    X_T30U30  COST  13.161  DEM_T30  1
    X_T30U30  SU_T30U30  1  SU_T31U30  -1
    X_T31U1  COST  25.2574  DEM_T31  1
    X_T31U1  SU_T31U1  1  SU_T32U1  -1
    X_T31U2  COST  23.8584  DEM_T31  1
    X_T31U2  SU_T31U2  1  SU_T32U2  -1
    X_T31U3  COST  39.1225  DEM_T31  1
    X_T31U3  SU_T31U3  1  SU_T32U3  -1
    X_T31U4  COST  33.5153  DEM_T31  1
    X_T31U4  SU_T31U4  1  SU_T32U4  -1
    X_T31U5  COST  22.3639  DEM_T31  1
    X_T31U5  SU_T31U5  1  SU_T32U5  -1
    X_T31U6  COST  34.916  DEM_T31  1
    X_T31U6  SU_T31U6  1  SU_T32U6  -1
    X_T31U7  COST  22.7289  DEM_T31  1
    X_T31U7  SU_T31U7  1  SU_T32U7  -1
    X_T31U8  COST  25.4397  DEM_T31  1
    X_T31U8  SU_T31U8  1  SU_T32U8  -1
    X_T31U9  COST  33.4745  DEM_T31  1
    X_T31U9  SU_T31U9  1  SU_T32U9  -1
    X_T31U10  COST  39.2797  DEM_T31  1
    X_T31U10  SU_T31U10  1  SU_T32U10  -1
    X_T31U11  COST  10.3128  DEM_T31  1
    X_T31U11  SU_T31U11  1  SU_T32U11  -1
    X_T31U12  COST  17.8214  DEM_T31  1
    X_T31U12  SU_T31U12  1  SU_T32U12  -1
    X_T31U13  COST  38.7948  DEM_T31  1
    X_T31U13  SU_T31U13  1  SU_T32U13  -1
    X_T31U14  COST  36.8744  DEM_T31  1
    X_T31U14  SU_T31U14  1  SU_T32U14  -1
    X_T31U15  COST  13.757  DEM_T31  1
    X_T31U15  SU_T31U15  1  SU_T32U15  -1
    X_T31U16  COST  13.4187  DEM_T31  1
    X_T31U16  SU_T31U16  1  SU_T32U16  -1
    X_T31U17  COST  37.6089  DEM_T31  1
    X_T31U17  SU_T31U17  1  SU_T32U17  -1
    X_T31U18  COST  28.495  DEM_T31  1
    X_T31U18  SU_T31U18  1  SU_T32U18  -1
    X_T31U19  COST  11.3121  DEM_T31  1
    X_T31U19  SU_T31U19  1  SU_T32U19  -1
    X_T31U20  COST  27.9559  DEM_T31  1
    X_T31U20  SU_T31U20  1  SU_T32U20  -1
    X_T31U21  COST  21.2798  DEM_T31  1
    X_T31U21  SU_T31U21  1  SU_T32U21  -1
    X_T31U22  COST  21.6596  DEM_T31  1
    X_T31U22  SU_T31U22  1  SU_T32U22  -1
    X_T31U23  COST  18.2137  DEM_T31  1
    X_T31U23  SU_T31U23  1  SU_T32U23  -1
    X_T31U24  COST  30.2795  DEM_T31  1
    X_T31U24  SU_T31U24  1  SU_T32U24  -1
    X_T31U25  COST  10.3814  DEM_T31  1
    X_T31U25  SU_T31U25  1  SU_T32U25  -1
    X_T31U26  COST  30.1436  DEM_T31  1
    X_T31U26  SU_T31U26  1  SU_T32U26  -1
    X_T31U27  COST  36.3781  DEM_T31  1
    X_T31U27  SU_T31U27  1  SU_T32U27  -1
    X_T31U28  COST  26.3205  DEM_T31  1
    X_T31U28  SU_T31U28  1  SU_T32U28  -1
    X_T31U29  COST  16.6319  DEM_T31  1
    X_T31U29  SU_T31U29  1  SU_T32U29  -1
    X_T31U30  COST  32.4458  DEM_T31  1
    X_T31U30  SU_T31U30  1  SU_T32U30  -1
    X_T32U1  COST  15.4178  DEM_T32  1
    X_T32U1  SU_T32U1  1  SU_T33U1  -1
    X_T32U2  COST  19.6018  DEM_T32  1
    X_T32U2  SU_T32U2  1  SU_T33U2  -1
    X_T32U3  COST  18.0799  DEM_T32  1
    X_T32U3  SU_T32U3  1  SU_T33U3  -1
    X_T32U4  COST  31.8384  DEM_T32  1
    X_T32U4  SU_T32U4  1  SU_T33U4  -1
    X_T32U5  COST  30.5589  DEM_T32  1
    X_T32U5  SU_T32U5  1  SU_T33U5  -1
    X_T32U6  COST  38.9539  DEM_T32  1
    X_T32U6  SU_T32U6  1  SU_T33U6  -1
    X_T32U7  COST  14.5203  DEM_T32  1
    X_T32U7  SU_T32U7  1  SU_T33U7  -1
    X_T32U8  COST  22.4025  DEM_T32  1
    X_T32U8  SU_T32U8  1  SU_T33U8  -1
    X_T32U9  COST  32.3027  DEM_T32  1
    X_T32U9  SU_T32U9  1  SU_T33U9  -1
    X_T32U10  COST  13.1779  DEM_T32  1
    X_T32U10  SU_T32U10  1  SU_T33U10  -1
    X_T32U11  COST  12.8127  DEM_T32  1
    X_T32U11  SU_T32U11  1  SU_T33U11  -1
    X_T32U12  COST  36.3142  DEM_T32  1
    X_T32U12  SU_T32U12  1  SU_T33U12  -1
    X_T32U13  COST  14.8254  DEM_T32  1
    X_T32U13  SU_T32U13  1  SU_T33U13  -1
    X_T32U14  COST  34.3526  DEM_T32  1
    X_T32U14  SU_T32U14  1  SU_T33U14  -1
    X_T32U15  COST  36.4435  DEM_T32  1
    X_T32U15  SU_T32U15  1  SU_T33U15  -1
    X_T32U16  COST  15.8186  DEM_T32  1
    X_T32U16  SU_T32U16  1  SU_T33U16  -1
    X_T32U17  COST  29.7268  DEM_T32  1
    X_T32U17  SU_T32U17  1  SU_T33U17  -1
    X_T32U18  COST  32.2704  DEM_T32  1
    X_T32U18  SU_T32U18  1  SU_T33U18  -1
    X_T32U19  COST  28.4493  DEM_T32  1
    X_T32U19  SU_T32U19  1  SU_T33U19  -1
    X_T32U20  COST  21.2578  DEM_T32  1
    X_T32U20  SU_T32U20  1  SU_T33U20  -1
    X_T32U21  COST  25.7248  DEM_T32  1
    X_T32U21  SU_T32U21  1  SU_T33U21  -1
    X_T32U22  COST  35.1989  DEM_T32  1
    X_T32U22  SU_T32U22  1  SU_T33U22  -1
    X_T32U23  COST  10.3309  DEM_T32  1
    X_T32U23  SU_T32U23  1  SU_T33U23  -1
    X_T32U24  COST  32.7603  DEM_T32  1
    X_T32U24  SU_T32U24  1  SU_T33U24  -1
    X_T32U25  COST  32.6879  DEM_T32  1
    X_T32U25  SU_T32U25  1  SU_T33U25  -1
    X_T32U26  COST  24.1096  DEM_T32  1
    X_T32U26  SU_T32U26  1  SU_T33U26  -1
    X_T32U27  COST  13.7414  DEM_T32  1
    X_T32U27  SU_T32U27  1  SU_T33U27  -1
    X_T32U28  COST  29.301  DEM_T32  1
    X_T32U28  SU_T32U28  1  SU_T33U28  -1
    X_T32U29  COST  16.5163  DEM_T32  1
    X_T32U29  SU_T32U29  1  SU_T33U29  -1
    X_T32U30  COST  29.8913  DEM_T32  1
    X_T32U30  SU_T32U30  1  SU_T33U30  -1
    X_T33U1  COST  15.3512  DEM_T33  1
    X_T33U1  SU_T33U1  1  SU_T34U1  -1
    X_T33U2  COST  15.0066  DEM_T33  1
    X_T33U2  SU_T33U2  1  SU_T34U2  -1
    X_T33U3  COST  21.6302  DEM_T33  1
    X_T33U3  SU_T33U3  1  SU_T34U3  -1
    X_T33U4  COST  36.2279  DEM_T33  1
    X_T33U4  SU_T33U4  1  SU_T34U4  -1
    X_T33U5  COST  31.7021  DEM_T33  1
    X_T33U5  SU_T33U5  1  SU_T34U5  -1
    X_T33U6  COST  16.7632  DEM_T33  1
    X_T33U6  SU_T33U6  1  SU_T34U6  -1
    X_T33U7  COST  11.5841  DEM_T33  1
    X_T33U7  SU_T33U7  1  SU_T34U7  -1
    X_T33U8  COST  27.9811  DEM_T33  1
    X_T33U8  SU_T33U8  1  SU_T34U8  -1
    X_T33U9  COST  10.688  DEM_T33  1
    X_T33U9  SU_T33U9  1  SU_T34U9  -1
    X_T33U10  COST  29.0947  DEM_T33  1
    X_T33U10  SU_T33U10  1  SU_T34U10  -1
    X_T33U11  COST  30.8625  DEM_T33  1
    X_T33U11  SU_T33U11  1  SU_T34U11  -1
    X_T33U12  COST  39.4591  DEM_T33  1
    X_T33U12  SU_T33U12  1  SU_T34U12  -1
    X_T33U13  COST  34.7539  DEM_T33  1
    X_T33U13  SU_T33U13  1  SU_T34U13  -1
    X_T33U14  COST  21.2039  DEM_T33  1
    X_T33U14  SU_T33U14  1  SU_T34U14  -1
    X_T33U15  COST  32.0652  DEM_T33  1
    X_T33U15  SU_T33U15  1  SU_T34U15  -1
    X_T33U16  COST  21.1427  DEM_T33  1
    X_T33U16  SU_T33U16  1  SU_T34U16  -1
    X_T33U17  COST  34.041  DEM_T33  1
    X_T33U17  SU_T33U17  1  SU_T34U17  -1
    X_T33U18  COST  32.0085  DEM_T33  1
    X_T33U18  SU_T33U18  1  SU_T34U18  -1
    X_T33U19  COST  15.2044  DEM_T33  1
    X_T33U19  SU_T33U19  1  SU_T34U19  -1
    X_T33U20  COST  24.885  DEM_T33  1
    X_T33U20  SU_T33U20  1  SU_T34U20  -1
    X_T33U21  COST  30.5773  DEM_T33  1
    X_T33U21  SU_T33U21  1  SU_T34U21  -1
    X_T33U22  COST  32.4166  DEM_T33  1
    X_T33U22  SU_T33U22  1  SU_T34U22  -1
    X_T33U23  COST  38.5094  DEM_T33  1
    X_T33U23  SU_T33U23  1  SU_T34U23  -1
    X_T33U24  COST  26.9665  DEM_T33  1
    X_T33U24  SU_T33U24  1  SU_T34U24  -1
    X_T33U25  COST  14.9588  DEM_T33  1
    X_T33U25  SU_T33U25  1  SU_T34U25  -1
    X_T33U26  COST  27.5743  DEM_T33  1
    X_T33U26  SU_T33U26  1  SU_T34U26  -1
    X_T33U27  COST  30.9301  DEM_T33  1
    X_T33U27  SU_T33U27  1  SU_T34U27  -1
    X_T33U28  COST  33.4775  DEM_T33  1
    X_T33U28  SU_T33U28  1  SU_T34U28  -1
    X_T33U29  COST  35.5818  DEM_T33  1
    X_T33U29  SU_T33U29  1  SU_T34U29  -1
    X_T33U30  COST  21.3074  DEM_T33  1
    X_T33U30  SU_T33U30  1  SU_T34U30  -1
    X_T34U1  COST  24.4272  DEM_T34  1
    X_T34U1  SU_T34U1  1  SU_T35U1  -1
    X_T34U2  COST  38.1206  DEM_T34  1
    X_T34U2  SU_T34U2  1  SU_T35U2  -1
    X_T34U3  COST  28.9351  DEM_T34  1
    X_T34U3  SU_T34U3  1  SU_T35U3  -1
    X_T34U4  COST  37.1174  DEM_T34  1
    X_T34U4  SU_T34U4  1  SU_T35U4  -1
    X_T34U5  COST  33.4064  DEM_T34  1
    X_T34U5  SU_T34U5  1  SU_T35U5  -1
    X_T34U6  COST  11.7184  DEM_T34  1
    X_T34U6  SU_T34U6  1  SU_T35U6  -1
    X_T34U7  COST  13.9405  DEM_T34  1
    X_T34U7  SU_T34U7  1  SU_T35U7  -1
    X_T34U8  COST  37.6787  DEM_T34  1
    X_T34U8  SU_T34U8  1  SU_T35U8  -1
    X_T34U9  COST  10.4021  DEM_T34  1
    X_T34U9  SU_T34U9  1  SU_T35U9  -1
    X_T34U10  COST  11.3378  DEM_T34  1
    X_T34U10  SU_T34U10  1  SU_T35U10  -1
    X_T34U11  COST  18.2716  DEM_T34  1
    X_T34U11  SU_T34U11  1  SU_T35U11  -1
    X_T34U12  COST  33.6138  DEM_T34  1
    X_T34U12  SU_T34U12  1  SU_T35U12  -1
    X_T34U13  COST  21.1362  DEM_T34  1
    X_T34U13  SU_T34U13  1  SU_T35U13  -1
    X_T34U14  COST  35.3437  DEM_T34  1
    X_T34U14  SU_T34U14  1  SU_T35U14  -1
    X_T34U15  COST  14.6915  DEM_T34  1
    X_T34U15  SU_T34U15  1  SU_T35U15  -1
    X_T34U16  COST  11.395  DEM_T34  1
    X_T34U16  SU_T34U16  1  SU_T35U16  -1
    X_T34U17  COST  26.8598  DEM_T34  1
    X_T34U17  SU_T34U17  1  SU_T35U17  -1
    X_T34U18  COST  19.4557  DEM_T34  1
    X_T34U18  SU_T34U18  1  SU_T35U18  -1
    X_T34U19  COST  12.5927  DEM_T34  1
    X_T34U19  SU_T34U19  1  SU_T35U19  -1
    X_T34U20  COST  31.9735  DEM_T34  1
    X_T34U20  SU_T34U20  1  SU_T35U20  -1
    X_T34U21  COST  13.8396  DEM_T34  1
    X_T34U21  SU_T34U21  1  SU_T35U21  -1
    X_T34U22  COST  21.8034  DEM_T34  1
    X_T34U22  SU_T34U22  1  SU_T35U22  -1
    X_T34U23  COST  33.6314  DEM_T34  1
    X_T34U23  SU_T34U23  1  SU_T35U23  -1
    X_T34U24  COST  24.8344  DEM_T34  1
    X_T34U24  SU_T34U24  1  SU_T35U24  -1
    X_T34U25  COST  14.349  DEM_T34  1
    X_T34U25  SU_T34U25  1  SU_T35U25  -1
    X_T34U26  COST  15.7357  DEM_T34  1
    X_T34U26  SU_T34U26  1  SU_T35U26  -1
    X_T34U27  COST  19.261  DEM_T34  1
    X_T34U27  SU_T34U27  1  SU_T35U27  -1
    X_T34U28  COST  39.0207  DEM_T34  1
    X_T34U28  SU_T34U28  1  SU_T35U28  -1
    X_T34U29  COST  10.6611  DEM_T34  1
    X_T34U29  SU_T34U29  1  SU_T35U29  -1
    X_T34U30  COST  22.5397  DEM_T34  1
    X_T34U30  SU_T34U30  1  SU_T35U30  -1
    X_T35U1  COST  30.5126  DEM_T35  1
    X_T35U1  SU_T35U1  1  SU_T36U1  -1
    X_T35U2  COST  39.4155  DEM_T35  1
    X_T35U2  SU_T35U2  1  SU_T36U2  -1
    X_T35U3  COST  22.1193  DEM_T35  1
    X_T35U3  SU_T35U3  1  SU_T36U3  -1
    X_T35U4  COST  33.751  DEM_T35  1
    X_T35U4  SU_T35U4  1  SU_T36U4  -1
    X_T35U5  COST  28.387  DEM_T35  1
    X_T35U5  SU_T35U5  1  SU_T36U5  -1
    X_T35U6  COST  35.4076  DEM_T35  1
    X_T35U6  SU_T35U6  1  SU_T36U6  -1
    X_T35U7  COST  14.2288  DEM_T35  1
    X_T35U7  SU_T35U7  1  SU_T36U7  -1
    X_T35U8  COST  16.4827  DEM_T35  1
    X_T35U8  SU_T35U8  1  SU_T36U8  -1
    X_T35U9  COST  35.8596  DEM_T35  1
    X_T35U9  SU_T35U9  1  SU_T36U9  -1
    X_T35U10  COST  32.4785  DEM_T35  1
    X_T35U10  SU_T35U10  1  SU_T36U10  -1
    X_T35U11  COST  33.6091  DEM_T35  1
    X_T35U11  SU_T35U11  1  SU_T36U11  -1
    X_T35U12  COST  20.6792  DEM_T35  1
    X_T35U12  SU_T35U12  1  SU_T36U12  -1
    X_T35U13  COST  33.8197  DEM_T35  1
    X_T35U13  SU_T35U13  1  SU_T36U13  -1
    X_T35U14  COST  20.1933  DEM_T35  1
    X_T35U14  SU_T35U14  1  SU_T36U14  -1
    X_T35U15  COST  26.3454  DEM_T35  1
    X_T35U15  SU_T35U15  1  SU_T36U15  -1
    X_T35U16  COST  32.6232  DEM_T35  1
    X_T35U16  SU_T35U16  1  SU_T36U16  -1
    X_T35U17  COST  13.7876  DEM_T35  1
    X_T35U17  SU_T35U17  1  SU_T36U17  -1
    X_T35U18  COST  14.8486  DEM_T35  1
    X_T35U18  SU_T35U18  1  SU_T36U18  -1
    X_T35U19  COST  38.3991  DEM_T35  1
    X_T35U19  SU_T35U19  1  SU_T36U19  -1
    X_T35U20  COST  32.5219  DEM_T35  1
    X_T35U20  SU_T35U20  1  SU_T36U20  -1
    X_T35U21  COST  26.5754  DEM_T35  1
    X_T35U21  SU_T35U21  1  SU_T36U21  -1
    X_T35U22  COST  20.3099  DEM_T35  1
    X_T35U22  SU_T35U22  1  SU_T36U22  -1
    X_T35U23  COST  21.7219  DEM_T35  1
    X_T35U23  SU_T35U23  1  SU_T36U23  -1
    X_T35U24  COST  21.158  DEM_T35  1
    X_T35U24  SU_T35U24  1  SU_T36U24  -1
    X_T35U25  COST  21.9214  DEM_T35  1
    X_T35U25  SU_T35U25  1  SU_T36U25  -1
    X_T35U26  COST  23.2322  DEM_T35  1
    X_T35U26  SU_T35U26  1  SU_T36U26  -1
    X_T35U27  COST  15.6017  DEM_T35  1
    X_T35U27  SU_T35U27  1  SU_T36U27  -1
    X_T35U28  COST  20.7001  DEM_T35  1
    X_T35U28  SU_T35U28  1  SU_T36U28  -1
    X_T35U29  COST  18.2933  DEM_T35  1
    X_T35U29  SU_T35U29  1  SU_T36U29  -1
    X_T35U30  COST  29.2802  DEM_T35  1
    X_T35U30  SU_T35U30  1  SU_T36U30  -1
    X_T36U1  COST  36.9087  DEM_T36  1
    X_T36U1  SU_T36U1  1  SU_T37U1  -1
    X_T36U2  COST  23.4281  DEM_T36  1
    X_T36U2  SU_T36U2  1  SU_T37U2  -1
    X_T36U3  COST  14.981  DEM_T36  1
    X_T36U3  SU_T36U3  1  SU_T37U3  -1
    X_T36U4  COST  20.893  DEM_T36  1
    X_T36U4  SU_T36U4  1  SU_T37U4  -1
    X_T36U5  COST  15.0656  DEM_T36  1
    X_T36U5  SU_T36U5  1  SU_T37U5  -1
    X_T36U6  COST  27.9434  DEM_T36  1
    X_T36U6  SU_T36U6  1  SU_T37U6  -1
    X_T36U7  COST  20.9108  DEM_T36  1
    X_T36U7  SU_T36U7  1  SU_T37U7  -1
    X_T36U8  COST  34.6113  DEM_T36  1
    X_T36U8  SU_T36U8  1  SU_T37U8  -1
    X_T36U9  COST  33.9578  DEM_T36  1
    X_T36U9  SU_T36U9  1  SU_T37U9  -1
    X_T36U10  COST  35.7062  DEM_T36  1
    X_T36U10  SU_T36U10  1  SU_T37U10  -1
    X_T36U11  COST  32.1919  DEM_T36  1
    X_T36U11  SU_T36U11  1  SU_T37U11  -1
    X_T36U12  COST  39.6525  DEM_T36  1
    X_T36U12  SU_T36U12  1  SU_T37U12  -1
    X_T36U13  COST  13.673  DEM_T36  1
    X_T36U13  SU_T36U13  1  SU_T37U13  -1
    X_T36U14  COST  19.6903  DEM_T36  1
    X_T36U14  SU_T36U14  1  SU_T37U14  -1
    X_T36U15  COST  39.3935  DEM_T36  1
    X_T36U15  SU_T36U15  1  SU_T37U15  -1
    X_T36U16  COST  13.8948  DEM_T36  1
    X_T36U16  SU_T36U16  1  SU_T37U16  -1
    X_T36U17  COST  12.7909  DEM_T36  1
    X_T36U17  SU_T36U17  1  SU_T37U17  -1
    X_T36U18  COST  34.6888  DEM_T36  1
    X_T36U18  SU_T36U18  1  SU_T37U18  -1
    X_T36U19  COST  21.3708  DEM_T36  1
    X_T36U19  SU_T36U19  1  SU_T37U19  -1
    X_T36U20  COST  20.1052  DEM_T36  1
    X_T36U20  SU_T36U20  1  SU_T37U20  -1
    X_T36U21  COST  37.5462  DEM_T36  1
    X_T36U21  SU_T36U21  1  SU_T37U21  -1
    X_T36U22  COST  32.7875  DEM_T36  1
    X_T36U22  SU_T36U22  1  SU_T37U22  -1
    X_T36U23  COST  37.0389  DEM_T36  1
    X_T36U23  SU_T36U23  1  SU_T37U23  -1
    X_T36U24  COST  19.4218  DEM_T36  1
    X_T36U24  SU_T36U24  1  SU_T37U24  -1
    X_T36U25  COST  34.5777  DEM_T36  1
    X_T36U25  SU_T36U25  1  SU_T37U25  -1
    X_T36U26  COST  25.763  DEM_T36  1
    X_T36U26  SU_T36U26  1  SU_T37U26  -1
    X_T36U27  COST  13.3883  DEM_T36  1
    X_T36U27  SU_T36U27  1  SU_T37U27  -1
    X_T36U28  COST  31.5723  DEM_T36  1
    X_T36U28  SU_T36U28  1  SU_T37U28  -1
    X_T36U29  COST  37.1608  DEM_T36  1
    X_T36U29  SU_T36U29  1  SU_T37U29  -1
    X_T36U30  COST  15.7378  DEM_T36  1
    X_T36U30  SU_T36U30  1  SU_T37U30  -1
    X_T37U1  COST  23.0652  DEM_T37  1
    X_T37U1  SU_T37U1  1  SU_T38U1  -1
    X_T37U2  COST  32.1421  DEM_T37  1
    X_T37U2  SU_T37U2  1  SU_T38U2  -1
    X_T37U3  COST  35.3121  DEM_T37  1
    X_T37U3  SU_T37U3  1  SU_T38U3  -1
    X_T37U4  COST  10.9335  DEM_T37  1
    X_T37U4  SU_T37U4  1  SU_T38U4  -1
    X_T37U5  COST  13.1903  DEM_T37  1
    X_T37U5  SU_T37U5  1  SU_T38U5  -1
    X_T37U6  COST  10.1145  DEM_T37  1
    X_T37U6  SU_T37U6  1  SU_T38U6  -1
    X_T37U7  COST  15.014  DEM_T37  1
    X_T37U7  SU_T37U7  1  SU_T38U7  -1
    X_T37U8  COST  39.7523  DEM_T37  1
    X_T37U8  SU_T37U8  1  SU_T38U8  -1
    X_T37U9  COST  12.3123  DEM_T37  1
    X_T37U9  SU_T37U9  1  SU_T38U9  -1
    X_T37U10  COST  35.9916  DEM_T37  1
    X_T37U10  SU_T37U10  1  SU_T38U10  -1
    X_T37U11  COST  20.8113  DEM_T37  1
    X_T37U11  SU_T37U11  1  SU_T38U11  -1
    X_T37U12  COST  32.8947  DEM_T37  1
    X_T37U12  SU_T37U12  1  SU_T38U12  -1
    X_T37U13  COST  32.7775  DEM_T37  1
    X_T37U13  SU_T37U13  1  SU_T38U13  -1
    X_T37U14  COST  16.9829  DEM_T37  1
    X_T37U14  SU_T37U14  1  SU_T38U14  -1
    X_T37U15  COST  11.7728  DEM_T37  1
    X_T37U15  SU_T37U15  1  SU_T38U15  -1
    X_T37U16  COST  29.5231  DEM_T37  1
    X_T37U16  SU_T37U16  1  SU_T38U16  -1
    X_T37U17  COST  10.0057  DEM_T37  1
    X_T37U17  SU_T37U17  1  SU_T38U17  -1
    X_T37U18  COST  21.6928  DEM_T37  1
    X_T37U18  SU_T37U18  1  SU_T38U18  -1
    X_T37U19  COST  16.8019  DEM_T37  1
    X_T37U19  SU_T37U19  1  SU_T38U19  -1
    X_T37U20  COST  13.8655  DEM_T37  1
    X_T37U20  SU_T37U20  1  SU_T38U20  -1
    X_T37U21  COST  34.0706  DEM_T37  1
    X_T37U21  SU_T37U21  1  SU_T38U21  -1
    X_T37U22  COST  10.54  DEM_T37  1
    X_T37U22  SU_T37U22  1  SU_T38U22  -1
    X_T37U23  COST  10.8153  DEM_T37  1
    X_T37U23  SU_T37U23  1  SU_T38U23  -1
    X_T37U24  COST  13.8236  DEM_T37  1
    X_T37U24  SU_T37U24  1  SU_T38U24  -1
    X_T37U25  COST  39.1833  DEM_T37  1
    X_T37U25  SU_T37U25  1  SU_T38U25  -1
    X_T37U26  COST  30.9795  DEM_T37  1
    X_T37U26  SU_T37U26  1  SU_T38U26  -1
    X_T37U27  COST  39.454  DEM_T37  1
    X_T37U27  SU_T37U27  1  SU_T38U27  -1
    X_T37U28  COST  26.7755  DEM_T37  1
    X_T37U28  SU_T37U28  1  SU_T38U28  -1
    X_T37U29  COST  25.9803  DEM_T37  1
    X_T37U29  SU_T37U29  1  SU_T38U29  -1
    X_T37U30  COST  23.4953  DEM_T37  1
    X_T37U30  SU_T37U30  1  SU_T38U30  -1
    X_T38U1  COST  13.6074  DEM_T38  1
    X_T38U1  SU_T38U1  1  SU_T39U1  -1
    X_T38U2  COST  17.8995  DEM_T38  1
    X_T38U2  SU_T38U2  1  SU_T39U2  -1
    X_T38U3  COST  27.0151  DEM_T38  1
    X_T38U3  SU_T38U3  1  SU_T39U3  -1
    X_T38U4  COST  34.736  DEM_T38  1
    X_T38U4  SU_T38U4  1  SU_T39U4  -1
    X_T38U5  COST  16.7905  DEM_T38  1
    X_T38U5  SU_T38U5  1  SU_T39U5  -1
    X_T38U6  COST  27.9642  DEM_T38  1
    X_T38U6  SU_T38U6  1  SU_T39U6  -1
    X_T38U7  COST  36.3172  DEM_T38  1
    X_T38U7  SU_T38U7  1  SU_T39U7  -1
    X_T38U8  COST  19.9122  DEM_T38  1
    X_T38U8  SU_T38U8  1  SU_T39U8  -1
    X_T38U9  COST  39.6709  DEM_T38  1
    X_T38U9  SU_T38U9  1  SU_T39U9  -1
    X_T38U10  COST  25.9395  DEM_T38  1
    X_T38U10  SU_T38U10  1  SU_T39U10  -1
    X_T38U11  COST  18.5587  DEM_T38  1
    X_T38U11  SU_T38U11  1  SU_T39U11  -1
    X_T38U12  COST  18.0333  DEM_T38  1
    X_T38U12  SU_T38U12  1  SU_T39U12  -1
    X_T38U13  COST  27.2005  DEM_T38  1
    X_T38U13  SU_T38U13  1  SU_T39U13  -1
    X_T38U14  COST  17.5692  DEM_T38  1
    X_T38U14  SU_T38U14  1  SU_T39U14  -1
    X_T38U15  COST  24.6512  DEM_T38  1
    X_T38U15  SU_T38U15  1  SU_T39U15  -1
    X_T38U16  COST  25.7572  DEM_T38  1
    X_T38U16  SU_T38U16  1  SU_T39U16  -1
    X_T38U17  COST  36.0565  DEM_T38  1
    X_T38U17  SU_T38U17  1  SU_T39U17  -1
    X_T38U18  COST  38.6747  DEM_T38  1
    X_T38U18  SU_T38U18  1  SU_T39U18  -1
    X_T38U19  COST  30.8335  DEM_T38  1
    X_T38U19  SU_T38U19  1  SU_T39U19  -1
    X_T38U20  COST  37.3203  DEM_T38  1
    X_T38U20  SU_T38U20  1  SU_T39U20  -1
    X_T38U21  COST  14.1257  DEM_T38  1
    X_T38U21  SU_T38U21  1  SU_T39U21  -1
    X_T38U22  COST  14.9447  DEM_T38  1
    X_T38U22  SU_T38U22  1  SU_T39U22  -1
    X_T38U23  COST  38.4432  DEM_T38  1
    X_T38U23  SU_T38U23  1  SU_T39U23  -1
    X_T38U24  COST  33.6641  DEM_T38  1
    X_T38U24  SU_T38U24  1  SU_T39U24  -1
    X_T38U25  COST  30.2928  DEM_T38  1
    X_T38U25  SU_T38U25  1  SU_T39U25  -1
    X_T38U26  COST  17.0255  DEM_T38  1
    X_T38U26  SU_T38U26  1  SU_T39U26  -1
    X_T38U27  COST  39.123  DEM_T38  1
    X_T38U27  SU_T38U27  1  SU_T39U27  -1
    X_T38U28  COST  18.1471  DEM_T38  1
    X_T38U28  SU_T38U28  1  SU_T39U28  -1
    X_T38U29  COST  39.5152  DEM_T38  1
    X_T38U29  SU_T38U29  1  SU_T39U29  -1
    X_T38U30  COST  22.2092  DEM_T38  1
    X_T38U30  SU_T38U30  1  SU_T39U30  -1
    X_T39U1  COST  10.0876  DEM_T39  1
    X_T39U1  SU_T39U1  1  SU_T40U1  -1
    X_T39U2  COST  28.1222  DEM_T39  1
    X_T39U2  SU_T39U2  1  SU_T40U2  -1
    X_T39U3  COST  17.1657  DEM_T39  1
    X_T39U3  SU_T39U3  1  SU_T40U3  -1
    X_T39U4  COST  23.514  DEM_T39  1
    X_T39U4  SU_T39U4  1  SU_T40U4  -1
    X_T39U5  COST  28.6756  DEM_T39  1
    X_T39U5  SU_T39U5  1  SU_T40U5  -1
    X_T39U6  COST  23.424  DEM_T39  1
    X_T39U6  SU_T39U6  1  SU_T40U6  -1
    X_T39U7  COST  27.726  DEM_T39  1
    X_T39U7  SU_T39U7  1  SU_T40U7  -1
    X_T39U8  COST  35.6241  DEM_T39  1
    X_T39U8  SU_T39U8  1  SU_T40U8  -1
    X_T39U9  COST  34.9995  DEM_T39  1
    X_T39U9  SU_T39U9  1  SU_T40U9  -1
    X_T39U10  COST  18.5472  DEM_T39  1
    X_T39U10  SU_T39U10  1  SU_T40U10  -1
    X_T39U11  COST  23.1562  DEM_T39  1
    X_T39U11  SU_T39U11  1  SU_T40U11  -1
    X_T39U12  COST  21.9039  DEM_T39  1
    X_T39U12  SU_T39U12  1  SU_T40U12  -1
    X_T39U13  COST  18.3347  DEM_T39  1
    X_T39U13  SU_T39U13  1  SU_T40U13  -1
    X_T39U14  COST  18.5369  DEM_T39  1
    X_T39U14  SU_T39U14  1  SU_T40U14  -1
    X_T39U15  COST  25.948  DEM_T39  1
    X_T39U15  SU_T39U15  1  SU_T40U15  -1
    X_T39U16  COST  27.2434  DEM_T39  1
    X_T39U16  SU_T39U16  1  SU_T40U16  -1
    X_T39U17  COST  30.2626  DEM_T39  1
    X_T39U17  SU_T39U17  1  SU_T40U17  -1
    X_T39U18  COST  23.5179  DEM_T39  1
    X_T39U18  SU_T39U18  1  SU_T40U18  -1
    X_T39U19  COST  14.9561  DEM_T39  1
    X_T39U19  SU_T39U19  1  SU_T40U19  -1
    X_T39U20  COST  31.8958  DEM_T39  1
    X_T39U20  SU_T39U20  1  SU_T40U20  -1
    X_T39U21  COST  30.1283  DEM_T39  1
    X_T39U21  SU_T39U21  1  SU_T40U21  -1
    X_T39U22  COST  30.2382  DEM_T39  1
    X_T39U22  SU_T39U22  1  SU_T40U22  -1
    X_T39U23  COST  31.5529  DEM_T39  1
    X_T39U23  SU_T39U23  1  SU_T40U23  -1
    X_T39U24  COST  31.6418  DEM_T39  1
    X_T39U24  SU_T39U24  1  SU_T40U24  -1
    X_T39U25  COST  10.0631  DEM_T39  1
    X_T39U25  SU_T39U25  1  SU_T40U25  -1
    X_T39U26  COST  34.8876  DEM_T39  1
    X_T39U26  SU_T39U26  1  SU_T40U26  -1
    X_T39U27  COST  36.1479  DEM_T39  1
    X_T39U27  SU_T39U27  1  SU_T40U27  -1
    X_T39U28  COST  29.9588  DEM_T39  1
    X_T39U28  SU_T39U28  1  SU_T40U28  -1
    X_T39U29  COST  29.8799  DEM_T39  1
    X_T39U29  SU_T39U29  1  SU_T40U29  -1
    X_T39U30  COST  27.8896  DEM_T39  1
    X_T39U30  SU_T39U30  1  SU_T40U30  -1
    X_T40U1  COST  37.0096  DEM_T40  1
    X_T40U1  SU_T40U1  1  SU_T41U1  -1
    X_T40U2  COST  19.6324  DEM_T40  1
    X_T40U2  SU_T40U2  1  SU_T41U2  -1
    X_T40U3  COST  22.3803  DEM_T40  1
    X_T40U3  SU_T40U3  1  SU_T41U3  -1
    X_T40U4  COST  29.3935  DEM_T40  1
    X_T40U4  SU_T40U4  1  SU_T41U4  -1
    X_T40U5  COST  27.9608  DEM_T40  1
    X_T40U5  SU_T40U5  1  SU_T41U5  -1
    X_T40U6  COST  14.1661  DEM_T40  1
    X_T40U6  SU_T40U6  1  SU_T41U6  -1
    X_T40U7  COST  14.6296  DEM_T40  1
    X_T40U7  SU_T40U7  1  SU_T41U7  -1
    X_T40U8  COST  29.1363  DEM_T40  1
    X_T40U8  SU_T40U8  1  SU_T41U8  -1
    X_T40U9  COST  25.8997  DEM_T40  1
    X_T40U9  SU_T40U9  1  SU_T41U9  -1
    X_T40U10  COST  39.7379  DEM_T40  1
    X_T40U10  SU_T40U10  1  SU_T41U10  -1
    X_T40U11  COST  30.8465  DEM_T40  1
    X_T40U11  SU_T40U11  1  SU_T41U11  -1
    X_T40U12  COST  23.4656  DEM_T40  1
    X_T40U12  SU_T40U12  1  SU_T41U12  -1
    X_T40U13  COST  21.9811  DEM_T40  1
    X_T40U13  SU_T40U13  1  SU_T41U13  -1
    X_T40U14  COST  34.2407  DEM_T40  1
    X_T40U14  SU_T40U14  1  SU_T41U14  -1
    X_T40U15  COST  23.9982  DEM_T40  1
    X_T40U15  SU_T40U15  1  SU_T41U15  -1
    X_T40U16  COST  12.0215  DEM_T40  1
    X_T40U16  SU_T40U16  1  SU_T41U16  -1
    X_T40U17  COST  35.5552  DEM_T40  1
    X_T40U17  SU_T40U17  1  SU_T41U17  -1
    X_T40U18  COST  12.3284  DEM_T40  1
    X_T40U18  SU_T40U18  1  SU_T41U18  -1
    X_T40U19  COST  35.8523  DEM_T40  1
    X_T40U19  SU_T40U19  1  SU_T41U19  -1
    X_T40U20  COST  16.7884  DEM_T40  1
    X_T40U20  SU_T40U20  1  SU_T41U20  -1
    X_T40U21  COST  23.5037  DEM_T40  1
    X_T40U21  SU_T40U21  1  SU_T41U21  -1
    X_T40U22  COST  32.7805  DEM_T40  1
    X_T40U22  SU_T40U22  1  SU_T41U22  -1
    X_T40U23  COST  36.6896  DEM_T40  1
    X_T40U23  SU_T40U23  1  SU_T41U23  -1
    X_T40U24  COST  21.1016  DEM_T40  1
    X_T40U24  SU_T40U24  1  SU_T41U24  -1
    X_T40U25  COST  21.7892  DEM_T40  1
    X_T40U25  SU_T40U25  1  SU_T41U25  -1
    X_T40U26  COST  25.3504  DEM_T40  1
    X_T40U26  SU_T40U26  1  SU_T41U26  -1
    X_T40U27  COST  29.3722  DEM_T40  1
    X_T40U27  SU_T40U27  1  SU_T41U27  -1
    X_T40U28  COST  32.8572  DEM_T40  1
    X_T40U28  SU_T40U28  1  SU_T41U28  -1
    X_T40U29  COST  20.1931  DEM_T40  1
    X_T40U29  SU_T40U29  1  SU_T41U29  -1
    X_T40U30  COST  21.3673  DEM_T40  1
    X_T40U30  SU_T40U30  1  SU_T41U30  -1
    X_T41U1  COST  21.5762  DEM_T41  1
    X_T41U1  SU_T41U1  1  SU_T42U1  -1
    X_T41U2  COST  27.8797  DEM_T41  1
    X_T41U2  SU_T41U2  1  SU_T42U2  -1
    X_T41U3  COST  35.4142  DEM_T41  1
    X_T41U3  SU_T41U3  1  SU_T42U3  -1
    X_T41U4  COST  35.2517  DEM_T41  1
    X_T41U4  SU_T41U4  1  SU_T42U4  -1
    X_T41U5  COST  26.7907  DEM_T41  1
    X_T41U5  SU_T41U5  1  SU_T42U5  -1
    X_T41U6  COST  15.0208  DEM_T41  1
    X_T41U6  SU_T41U6  1  SU_T42U6  -1
    X_T41U7  COST  16.8546  DEM_T41  1
    X_T41U7  SU_T41U7  1  SU_T42U7  -1
    X_T41U8  COST  25.9574  DEM_T41  1
    X_T41U8  SU_T41U8  1  SU_T42U8  -1
    X_T41U9  COST  12.9791  DEM_T41  1
    X_T41U9  SU_T41U9  1  SU_T42U9  -1
    X_T41U10  COST  37.7691  DEM_T41  1
    X_T41U10  SU_T41U10  1  SU_T42U10  -1
    X_T41U11  COST  21.863  DEM_T41  1
    X_T41U11  SU_T41U11  1  SU_T42U11  -1
    X_T41U12  COST  14.4119  DEM_T41  1
    X_T41U12  SU_T41U12  1  SU_T42U12  -1
    X_T41U13  COST  13.9014  DEM_T41  1
    X_T41U13  SU_T41U13  1  SU_T42U13  -1
    X_T41U14  COST  21.1119  DEM_T41  1
    X_T41U14  SU_T41U14  1  SU_T42U14  -1
    X_T41U15  COST  24.2202  DEM_T41  1
    X_T41U15  SU_T41U15  1  SU_T42U15  -1
    X_T41U16  COST  39.8457  DEM_T41  1
    X_T41U16  SU_T41U16  1  SU_T42U16  -1
    X_T41U17  COST  12.6461  DEM_T41  1
    X_T41U17  SU_T41U17  1  SU_T42U17  -1
    X_T41U18  COST  14.5475  DEM_T41  1
    X_T41U18  SU_T41U18  1  SU_T42U18  -1
    X_T41U19  COST  39.1223  DEM_T41  1
    X_T41U19  SU_T41U19  1  SU_T42U19  -1
    X_T41U20  COST  39.4033  DEM_T41  1
    X_T41U20  SU_T41U20  1  SU_T42U20  -1
    X_T41U21  COST  25.9677  DEM_T41  1
    X_T41U21  SU_T41U21  1  SU_T42U21  -1
    X_T41U22  COST  17.4072  DEM_T41  1
    X_T41U22  SU_T41U22  1  SU_T42U22  -1
    X_T41U23  COST  20.6856  DEM_T41  1
    X_T41U23  SU_T41U23  1  SU_T42U23  -1
    X_T41U24  COST  31.2704  DEM_T41  1
    X_T41U24  SU_T41U24  1  SU_T42U24  -1
    X_T41U25  COST  25.2234  DEM_T41  1
    X_T41U25  SU_T41U25  1  SU_T42U25  -1
    X_T41U26  COST  17.0511  DEM_T41  1
    X_T41U26  SU_T41U26  1  SU_T42U26  -1
    X_T41U27  COST  26.3448  DEM_T41  1
    X_T41U27  SU_T41U27  1  SU_T42U27  -1
    X_T41U28  COST  27.4895  DEM_T41  1
    X_T41U28  SU_T41U28  1  SU_T42U28  -1
    X_T41U29  COST  14.5156  DEM_T41  1
    X_T41U29  SU_T41U29  1  SU_T42U29  -1
    X_T41U30  COST  16.2193  DEM_T41  1
    X_T41U30  SU_T41U30  1  SU_T42U30  -1
    X_T42U1  COST  32.0373  DEM_T42  1
    X_T42U1  SU_T42U1  1  SU_T43U1  -1
    X_T42U2  COST  19.7747  DEM_T42  1
    X_T42U2  SU_T42U2  1  SU_T43U2  -1
    X_T42U3  COST  23.8434  DEM_T42  1
    X_T42U3  SU_T42U3  1  SU_T43U3  -1
    X_T42U4  COST  14.4395  DEM_T42  1
    X_T42U4  SU_T42U4  1  SU_T43U4  -1
    X_T42U5  COST  31.3265  DEM_T42  1
    X_T42U5  SU_T42U5  1  SU_T43U5  -1
    X_T42U6  COST  13.9712  DEM_T42  1
    X_T42U6  SU_T42U6  1  SU_T43U6  -1
    X_T42U7  COST  27.9736  DEM_T42  1
    X_T42U7  SU_T42U7  1  SU_T43U7  -1
    X_T42U8  COST  23.754  DEM_T42  1
    X_T42U8  SU_T42U8  1  SU_T43U8  -1
    X_T42U9  COST  32.3758  DEM_T42  1
    X_T42U9  SU_T42U9  1  SU_T43U9  -1
    X_T42U10  COST  11.7322  DEM_T42  1
    X_T42U10  SU_T42U10  1  SU_T43U10  -1
    X_T42U11  COST  24.0035  DEM_T42  1
    X_T42U11  SU_T42U11  1  SU_T43U11  -1
    X_T42U12  COST  39.0882  DEM_T42  1
    X_T42U12  SU_T42U12  1  SU_T43U12  -1
    X_T42U13  COST  25.3871  DEM_T42  1
    X_T42U13  SU_T42U13  1  SU_T43U13  -1
    X_T42U14  COST  32.6386  DEM_T42  1
    X_T42U14  SU_T42U14  1  SU_T43U14  -1
    X_T42U15  COST  19.0734  DEM_T42  1
    X_T42U15  SU_T42U15  1  SU_T43U15  -1
    X_T42U16  COST  25.6733  DEM_T42  1
    X_T42U16  SU_T42U16  1  SU_T43U16  -1
    X_T42U17  COST  23.2367  DEM_T42  1
    X_T42U17  SU_T42U17  1  SU_T43U17  -1
    X_T42U18  COST  37.562  DEM_T42  1
    X_T42U18  SU_T42U18  1  SU_T43U18  -1
    X_T42U19  COST  31.7715  DEM_T42  1
    X_T42U19  SU_T42U19  1  SU_T43U19  -1
    X_T42U20  COST  23.6794  DEM_T42  1
    X_T42U20  SU_T42U20  1  SU_T43U20  -1
    X_T42U21  COST  28.0635  DEM_T42  1
    X_T42U21  SU_T42U21  1  SU_T43U21  -1
    X_T42U22  COST  34.1977  DEM_T42  1
    X_T42U22  SU_T42U22  1  SU_T43U22  -1
    X_T42U23  COST  39.8837  DEM_T42  1
    X_T42U23  SU_T42U23  1  SU_T43U23  -1
    X_T42U24  COST  10.095  DEM_T42  1
    X_T42U24  SU_T42U24  1  SU_T43U24  -1
    X_T42U25  COST  18.953  DEM_T42  1
    X_T42U25  SU_T42U25  1  SU_T43U25  -1
    X_T42U26  COST  19.357  DEM_T42  1
    X_T42U26  SU_T42U26  1  SU_T43U26  -1
    X_T42U27  COST  10.9237  DEM_T42  1
    X_T42U27  SU_T42U27  1  SU_T43U27  -1
    X_T42U28  COST  16.6224  DEM_T42  1
    X_T42U28  SU_T42U28  1  SU_T43U28  -1
    X_T42U29  COST  32.8779  DEM_T42  1
    X_T42U29  SU_T42U29  1  SU_T43U29  -1
    X_T42U30  COST  10.9165  DEM_T42  1
    X_T42U30  SU_T42U30  1  SU_T43U30  -1
    X_T43U1  COST  25.8168  DEM_T43  1
    X_T43U1  SU_T43U1  1  SU_T44U1  -1
    X_T43U2  COST  29.3341  DEM_T43  1
    X_T43U2  SU_T43U2  1  SU_T44U2  -1
    X_T43U3  COST  20.0022  DEM_T43  1
    X_T43U3  SU_T43U3  1  SU_T44U3  -1
    X_T43U4  COST  25.8573  DEM_T43  1
    X_T43U4  SU_T43U4  1  SU_T44U4  -1
    X_T43U5  COST  39.7164  DEM_T43  1
    X_T43U5  SU_T43U5  1  SU_T44U5  -1
    X_T43U6  COST  39.8395  DEM_T43  1
    X_T43U6  SU_T43U6  1  SU_T44U6  -1
    X_T43U7  COST  10.0695  DEM_T43  1
    X_T43U7  SU_T43U7  1  SU_T44U7  -1
    X_T43U8  COST  20.2535  DEM_T43  1
    X_T43U8  SU_T43U8  1  SU_T44U8  -1
    X_T43U9  COST  12.0709  DEM_T43  1
    X_T43U9  SU_T43U9  1  SU_T44U9  -1
    X_T43U10  COST  38.1127  DEM_T43  1
    X_T43U10  SU_T43U10  1  SU_T44U10  -1
    X_T43U11  COST  34.2755  DEM_T43  1
    X_T43U11  SU_T43U11  1  SU_T44U11  -1
    X_T43U12  COST  31.001  DEM_T43  1
    X_T43U12  SU_T43U12  1  SU_T44U12  -1
    X_T43U13  COST  21.973  DEM_T43  1
    X_T43U13  SU_T43U13  1  SU_T44U13  -1
    X_T43U14  COST  18.41  DEM_T43  1
    X_T43U14  SU_T43U14  1  SU_T44U14  -1
    X_T43U15  COST  10.735  DEM_T43  1
    X_T43U15  SU_T43U15  1  SU_T44U15  -1
    X_T43U16  COST  26.4739  DEM_T43  1
    X_T43U16  SU_T43U16  1  SU_T44U16  -1
    X_T43U17  COST  27.3112  DEM_T43  1
    X_T43U17  SU_T43U17  1  SU_T44U17  -1
    X_T43U18  COST  10.1827  DEM_T43  1
    X_T43U18  SU_T43U18  1  SU_T44U18  -1
    X_T43U19  COST  36.0683  DEM_T43  1
    X_T43U19  SU_T43U19  1  SU_T44U19  -1
    X_T43U20  COST  13.3879  DEM_T43  1
    X_T43U20  SU_T43U20  1  SU_T44U20  -1
    X_T43U21  COST  17.2669  DEM_T43  1
    X_T43U21  SU_T43U21  1  SU_T44U21  -1
    X_T43U22  COST  14.3559  DEM_T43  1
    X_T43U22  SU_T43U22  1  SU_T44U22  -1
    X_T43U23  COST  30.0056  DEM_T43  1
    X_T43U23  SU_T43U23  1  SU_T44U23  -1
    X_T43U24  COST  35.902  DEM_T43  1
    X_T43U24  SU_T43U24  1  SU_T44U24  -1
    X_T43U25  COST  18.7755  DEM_T43  1
    X_T43U25  SU_T43U25  1  SU_T44U25  -1
    X_T43U26  COST  17.985  DEM_T43  1
    X_T43U26  SU_T43U26  1  SU_T44U26  -1
    X_T43U27  COST  27.4977  DEM_T43  1
    X_T43U27  SU_T43U27  1  SU_T44U27  -1
    X_T43U28  COST  26.4694  DEM_T43  1
    X_T43U28  SU_T43U28  1  SU_T44U28  -1
    X_T43U29  COST  11.0101  DEM_T43  1
    X_T43U29  SU_T43U29  1  SU_T44U29  -1
    X_T43U30  COST  22.4836  DEM_T43  1
    X_T43U30  SU_T43U30  1  SU_T44U30  -1
    X_T44U1  COST  15.6353  DEM_T44  1
    X_T44U1  SU_T44U1  1  SU_T45U1  -1
    X_T44U2  COST  36.008  DEM_T44  1
    X_T44U2  SU_T44U2  1  SU_T45U2  -1
    X_T44U3  COST  34.643  DEM_T44  1
    X_T44U3  SU_T44U3  1  SU_T45U3  -1
    X_T44U4  COST  29.1127  DEM_T44  1
    X_T44U4  SU_T44U4  1  SU_T45U4  -1
    X_T44U5  COST  23.8952  DEM_T44  1
    X_T44U5  SU_T44U5  1  SU_T45U5  -1
    X_T44U6  COST  19.0958  DEM_T44  1
    X_T44U6  SU_T44U6  1  SU_T45U6  -1
    X_T44U7  COST  26.8987  DEM_T44  1
    X_T44U7  SU_T44U7  1  SU_T45U7  -1
    X_T44U8  COST  37.5038  DEM_T44  1
    X_T44U8  SU_T44U8  1  SU_T45U8  -1
    X_T44U9  COST  22.0434  DEM_T44  1
    X_T44U9  SU_T44U9  1  SU_T45U9  -1
    X_T44U10  COST  36.4598  DEM_T44  1
    X_T44U10  SU_T44U10  1  SU_T45U10  -1
    X_T44U11  COST  31.6516  DEM_T44  1
    X_T44U11  SU_T44U11  1  SU_T45U11  -1
    X_T44U12  COST  22.0734  DEM_T44  1
    X_T44U12  SU_T44U12  1  SU_T45U12  -1
    X_T44U13  COST  15.6712  DEM_T44  1
    X_T44U13  SU_T44U13  1  SU_T45U13  -1
    X_T44U14  COST  31.4512  DEM_T44  1
    X_T44U14  SU_T44U14  1  SU_T45U14  -1
    X_T44U15  COST  36.8718  DEM_T44  1
    X_T44U15  SU_T44U15  1  SU_T45U15  -1
    X_T44U16  COST  24.009  DEM_T44  1
    X_T44U16  SU_T44U16  1  SU_T45U16  -1
    X_T44U17  COST  38.2135  DEM_T44  1
    X_T44U17  SU_T44U17  1  SU_T45U17  -1
    X_T44U18  COST  37.9266  DEM_T44  1
    X_T44U18  SU_T44U18  1  SU_T45U18  -1
    X_T44U19  COST  13.8979  DEM_T44  1
    X_T44U19  SU_T44U19  1  SU_T45U19  -1
    X_T44U20  COST  35.9964  DEM_T44  1
    X_T44U20  SU_T44U20  1  SU_T45U20  -1
    X_T44U21  COST  37.216  DEM_T44  1
    X_T44U21  SU_T44U21  1  SU_T45U21  -1
    X_T44U22  COST  22.6715  DEM_T44  1
    X_T44U22  SU_T44U22  1  SU_T45U22  -1
    X_T44U23  COST  38.0896  DEM_T44  1
    X_T44U23  SU_T44U23  1  SU_T45U23  -1
    X_T44U24  COST  13.4807  DEM_T44  1
    X_T44U24  SU_T44U24  1  SU_T45U24  -1
    X_T44U25  COST  26.9389  DEM_T44  1
    X_T44U25  SU_T44U25  1  SU_T45U25  -1
    X_T44U26  COST  35.3275  DEM_T44  1
    X_T44U26  SU_T44U26  1  SU_T45U26  -1
    X_T44U27  COST  14.1735  DEM_T44  1
    X_T44U27  SU_T44U27  1  SU_T45U27  -1
    X_T44U28  COST  36.2653  DEM_T44  1
    X_T44U28  SU_T44U28  1  SU_T45U28  -1
    X_T44U29  COST  18.3532  DEM_T44  1
    X_T44U29  SU_T44U29  1  SU_T45U29  -1
    X_T44U30  COST  30.2832  DEM_T44  1
    X_T44U30  SU_T44U30  1  SU_T45U30  -1
    X_T45U1  COST  18.069  DEM_T45  1
    X_T45U1  SU_T45U1  1  SU_T46U1  -1
    X_T45U2  COST  29.0302  DEM_T45  1
    X_T45U2  SU_T45U2  1  SU_T46U2  -1
    X_T45U3  COST  13.1442  DEM_T45  1
    X_T45U3  SU_T45U3  1  SU_T46U3  -1
    X_T45U4  COST  21.5536  DEM_T45  1
    X_T45U4  SU_T45U4  1  SU_T46U4  -1
    X_T45U5  COST  24.279  DEM_T45  1
    X_T45U5  SU_T45U5  1  SU_T46U5  -1
    X_T45U6  COST  29.0327  DEM_T45  1
    X_T45U6  SU_T45U6  1  SU_T46U6  -1
    X_T45U7  COST  10.0864  DEM_T45  1
    X_T45U7  SU_T45U7  1  SU_T46U7  -1
    X_T45U8  COST  15.5807  DEM_T45  1
    X_T45U8  SU_T45U8  1  SU_T46U8  -1
    X_T45U9  COST  22.4739  DEM_T45  1
    X_T45U9  SU_T45U9  1  SU_T46U9  -1
    X_T45U10  COST  21.1348  DEM_T45  1
    X_T45U10  SU_T45U10  1  SU_T46U10  -1
    X_T45U11  COST  31.9149  DEM_T45  1
    X_T45U11  SU_T45U11  1  SU_T46U11  -1
    X_T45U12  COST  33.8872  DEM_T45  1
    X_T45U12  SU_T45U12  1  SU_T46U12  -1
    X_T45U13  COST  11.0782  DEM_T45  1
    X_T45U13  SU_T45U13  1  SU_T46U13  -1
    X_T45U14  COST  37.9242  DEM_T45  1
    X_T45U14  SU_T45U14  1  SU_T46U14  -1
    X_T45U15  COST  32.1129  DEM_T45  1
    X_T45U15  SU_T45U15  1  SU_T46U15  -1
    X_T45U16  COST  11.566  DEM_T45  1
    X_T45U16  SU_T45U16  1  SU_T46U16  -1
    X_T45U17  COST  24.0446  DEM_T45  1
    X_T45U17  SU_T45U17  1  SU_T46U17  -1
    X_T45U18  COST  12.5602  DEM_T45  1
    X_T45U18  SU_T45U18  1  SU_T46U18  -1
    X_T45U19  COST  30.006  DEM_T45  1
    X_T45U19  SU_T45U19  1  SU_T46U19  -1
    X_T45U20  COST  33.4605  DEM_T45  1
    X_T45U20  SU_T45U20  1  SU_T46U20  -1
    X_T45U21  COST  12.996  DEM_T45  1
    X_T45U21  SU_T45U21  1  SU_T46U21  -1
    X_T45U22  COST  17.2567  DEM_T45  1
    X_T45U22  SU_T45U22  1  SU_T46U22  -1
    X_T45U23  COST  35.148  DEM_T45  1
    X_T45U23  SU_T45U23  1  SU_T46U23  -1
    X_T45U24  COST  38.4654  DEM_T45  1
    X_T45U24  SU_T45U24  1  SU_T46U24  -1
    X_T45U25  COST  32.086  DEM_T45  1
    X_T45U25  SU_T45U25  1  SU_T46U25  -1
    X_T45U26  COST  37.182  DEM_T45  1
    X_T45U26  SU_T45U26  1  SU_T46U26  -1
    X_T45U27  COST  31.7457  DEM_T45  1
    X_T45U27  SU_T45U27  1  SU_T46U27  -1
    X_T45U28  COST  11.2497  DEM_T45  1
    X_T45U28  SU_T45U28  1  SU_T46U28  -1
    X_T45U29  COST  32.8693  DEM_T45  1
    X_T45U29  SU_T45U29  1  SU_T46U29  -1
    X_T45U30  COST  18.0176  DEM_T45  1
    X_T45U30  SU_T45U30  1  SU_T46U30  -1
    X_T46U1  COST  13.9455  DEM_T46  1
    X_T46U1  SU_T46U1  1  SU_T47U1  -1
    X_T46U2  COST  27.2607  DEM_T46  1
    X_T46U2  SU_T46U2  1  SU_T47U2  -1
    X_T46U3  COST  21.4774  DEM_T46  1
    X_T46U3  SU_T46U3  1  SU_T47U3  -1
    X_T46U4  COST  15.4522  DEM_T46  1
    X_T46U4  SU_T46U4  1  SU_T47U4  -1
    X_T46U5  COST  19.963  DEM_T46  1
    X_T46U5  SU_T46U5  1  SU_T47U5  -1
    X_T46U6  COST  32.1708  DEM_T46  1
    X_T46U6  SU_T46U6  1  SU_T47U6  -1
    X_T46U7  COST  29.2558  DEM_T46  1
    X_T46U7  SU_T46U7  1  SU_T47U7  -1
    X_T46U8  COST  27.0428  DEM_T46  1
    X_T46U8  SU_T46U8  1  SU_T47U8  -1
    X_T46U9  COST  26.4515  DEM_T46  1
    X_T46U9  SU_T46U9  1  SU_T47U9  -1
    X_T46U10  COST  30.2674  DEM_T46  1
    X_T46U10  SU_T46U10  1  SU_T47U10  -1
    X_T46U11  COST  34.8929  DEM_T46  1
    X_T46U11  SU_T46U11  1  SU_T47U11  -1
    X_T46U12  COST  18.7343  DEM_T46  1
    X_T46U12  SU_T46U12  1  SU_T47U12  -1
    X_T46U13  COST  14.5698  DEM_T46  1
    X_T46U13  SU_T46U13  1  SU_T47U13  -1
    X_T46U14  COST  31.3041  DEM_T46  1
    X_T46U14  SU_T46U14  1  SU_T47U14  -1
    X_T46U15  COST  28.0988  DEM_T46  1
    X_T46U15  SU_T46U15  1  SU_T47U15  -1
    X_T46U16  COST  11.7915  DEM_T46  1
    X_T46U16  SU_T46U16  1  SU_T47U16  -1
    X_T46U17  COST  27.4663  DEM_T46  1
    X_T46U17  SU_T46U17  1  SU_T47U17  -1
    X_T46U18  COST  17.1748  DEM_T46  1
    X_T46U18  SU_T46U18  1  SU_T47U18  -1
    X_T46U19  COST  29.5287  DEM_T46  1
    X_T46U19  SU_T46U19  1  SU_T47U19  -1
    X_T46U20  COST  26.8388  DEM_T46  1
    X_T46U20  SU_T46U20  1  SU_T47U20  -1
    X_T46U21  COST  16.1494  DEM_T46  1
    X_T46U21  SU_T46U21  1  SU_T47U21  -1
    X_T46U22  COST  28.592  DEM_T46  1
    X_T46U22  SU_T46U22  1  SU_T47U22  -1
    X_T46U23  COST  35.4158  DEM_T46  1
    X_T46U23  SU_T46U23  1  SU_T47U23  -1
    X_T46U24  COST  18.2871  DEM_T46  1
    X_T46U24  SU_T46U24  1  SU_T47U24  -1
    X_T46U25  COST  25.818  DEM_T46  1
    X_T46U25  SU_T46U25  1  SU_T47U25  -1
    X_T46U26  COST  14.9164  DEM_T46  1
    X_T46U26  SU_T46U26  1  SU_T47U26  -1
    X_T46U27  COST  34.2958  DEM_T46  1
    X_T46U27  SU_T46U27  1  SU_T47U27  -1
    X_T46U28  COST  20.1202  DEM_T46  1
    X_T46U28  SU_T46U28  1  SU_T47U28  -1
    X_T46U29  COST  26.1644  DEM_T46  1
    X_T46U29  SU_T46U29  1  SU_T47U29  -1
    X_T46U30  COST  30.7  DEM_T46  1
    X_T46U30  SU_T46U30  1  SU_T47U30  -1
    X_T47U1  COST  37.9182  DEM_T47  1
    X_T47U1  SU_T47U1  1  SU_T48U1  -1
    X_T47U2  COST  16.9075  DEM_T47  1
    X_T47U2  SU_T47U2  1  SU_T48U2  -1
    X_T47U3  COST  22.4693  DEM_T47  1
    X_T47U3  SU_T47U3  1  SU_T48U3  -1
    X_T47U4  COST  32.8326  DEM_T47  1
    X_T47U4  SU_T47U4  1  SU_T48U4  -1
    X_T47U5  COST  38.4721  DEM_T47  1
    X_T47U5  SU_T47U5  1  SU_T48U5  -1
    X_T47U6  COST  28.6273  DEM_T47  1
    X_T47U6  SU_T47U6  1  SU_T48U6  -1
    X_T47U7  COST  32.8256  DEM_T47  1
    X_T47U7  SU_T47U7  1  SU_T48U7  -1
    X_T47U8  COST  15.4092  DEM_T47  1
    X_T47U8  SU_T47U8  1  SU_T48U8  -1
    X_T47U9  COST  26.8262  DEM_T47  1
    X_T47U9  SU_T47U9  1  SU_T48U9  -1
    X_T47U10  COST  24.44  DEM_T47  1
    X_T47U10  SU_T47U10  1  SU_T48U10  -1
    X_T47U11  COST  30.2305  DEM_T47  1
    X_T47U11  SU_T47U11  1  SU_T48U11  -1
    X_T47U12  COST  39.8494  DEM_T47  1
    X_T47U12  SU_T47U12  1  SU_T48U12  -1
    X_T47U13  COST  21.7557  DEM_T47  1
    X_T47U13  SU_T47U13  1  SU_T48U13  -1
    X_T47U14  COST  13.2668  DEM_T47  1
    X_T47U14  SU_T47U14  1  SU_T48U14  -1
    X_T47U15  COST  24.9471  DEM_T47  1
    X_T47U15  SU_T47U15  1  SU_T48U15  -1
    X_T47U16  COST  38.5906  DEM_T47  1
    X_T47U16  SU_T47U16  1  SU_T48U16  -1
    X_T47U17  COST  16.5735  DEM_T47  1
    X_T47U17  SU_T47U17  1  SU_T48U17  -1
    X_T47U18  COST  37.5816  DEM_T47  1
    X_T47U18  SU_T47U18  1  SU_T48U18  -1
    X_T47U19  COST  16.4187  DEM_T47  1
    X_T47U19  SU_T47U19  1  SU_T48U19  -1
    X_T47U20  COST  10.4257  DEM_T47  1
    X_T47U20  SU_T47U20  1  SU_T48U20  -1
    X_T47U21  COST  31.9637  DEM_T47  1
    X_T47U21  SU_T47U21  1  SU_T48U21  -1
    X_T47U22  COST  30.9493  DEM_T47  1
    X_T47U22  SU_T47U22  1  SU_T48U22  -1
    X_T47U23  COST  38.5869  DEM_T47  1
    X_T47U23  SU_T47U23  1  SU_T48U23  -1
    X_T47U24  COST  21.7838  DEM_T47  1
    X_T47U24  SU_T47U24  1  SU_T48U24  -1
    X_T47U25  COST  33.1927  DEM_T47  1
    X_T47U25  SU_T47U25  1  SU_T48U25  -1
    X_T47U26  COST  16.9612  DEM_T47  1
    X_T47U26  SU_T47U26  1  SU_T48U26  -1
    X_T47U27  COST  33.4405  DEM_T47  1
    X_T47U27  SU_T47U27  1  SU_T48U27  -1
    X_T47U28  COST  32.9074  DEM_T47  1
    X_T47U28  SU_T47U28  1  SU_T48U28  -1
    X_T47U29  COST  28.0919  DEM_T47  1
    X_T47U29  SU_T47U29  1  SU_T48U29  -1
    X_T47U30  COST  33.5326  DEM_T47  1
    X_T47U30  SU_T47U30  1  SU_T48U30  -1
    X_T48U1  COST  26.5597  DEM_T48  1
    X_T48U1  SU_T48U1  1  SU_T49U1  -1
    X_T48U2  COST  11.3817  DEM_T48  1
    X_T48U2  SU_T48U2  1  SU_T49U2  -1
    X_T48U3  COST  15.3366  DEM_T48  1
    X_T48U3  SU_T48U3  1  SU_T49U3  -1
    X_T48U4  COST  34.2483  DEM_T48  1
    X_T48U4  SU_T48U4  1  SU_T49U4  -1
    X_T48U5  COST  17.3742  DEM_T48  1
    X_T48U5  SU_T48U5  1  SU_T49U5  -1
    X_T48U6  COST  36.8393  DEM_T48  1
    X_T48U6  SU_T48U6  1  SU_T49U6  -1
    X_T48U7  COST  37.0415  DEM_T48  1
    X_T48U7  SU_T48U7  1  SU_T49U7  -1
    X_T48U8  COST  39.7026  DEM_T48  1
    X_T48U8  SU_T48U8  1  SU_T49U8  -1
    X_T48U9  COST  24.8403  DEM_T48  1
    X_T48U9  SU_T48U9  1  SU_T49U9  -1
    X_T48U10  COST  24.4465  DEM_T48  1
    X_T48U10  SU_T48U10  1  SU_T49U10  -1
    X_T48U11  COST  12.7217  DEM_T48  1
    X_T48U11  SU_T48U11  1  SU_T49U11  -1
    X_T48U12  COST  11.7311  DEM_T48  1
    X_T48U12  SU_T48U12  1  SU_T49U12  -1
    X_T48U13  COST  18.2664  DEM_T48  1
    X_T48U13  SU_T48U13  1  SU_T49U13  -1
    X_T48U14  COST  39.7733  DEM_T48  1
    X_T48U14  SU_T48U14  1  SU_T49U14  -1
    X_T48U15  COST  27.2152  DEM_T48  1
    X_T48U15  SU_T48U15  1  SU_T49U15  -1
    X_T48U16  COST  35.4181  DEM_T48  1
    X_T48U16  SU_T48U16  1  SU_T49U16  -1
    X_T48U17  COST  36.3207  DEM_T48  1
    X_T48U17  SU_T48U17  1  SU_T49U17  -1
    X_T48U18  COST  10.8256  DEM_T48  1
    X_T48U18  SU_T48U18  1  SU_T49U18  -1
    X_T48U19  COST  32.5532  DEM_T48  1
    X_T48U19  SU_T48U19  1  SU_T49U19  -1
    X_T48U20  COST  38.6896  DEM_T48  1
    X_T48U20  SU_T48U20  1  SU_T49U20  -1
    X_T48U21  COST  30.3865  DEM_T48  1
    X_T48U21  SU_T48U21  1  SU_T49U21  -1
    X_T48U22  COST  22.9414  DEM_T48  1
    X_T48U22  SU_T48U22  1  SU_T49U22  -1
    X_T48U23  COST  26.8997  DEM_T48  1
    X_T48U23  SU_T48U23  1  SU_T49U23  -1
    X_T48U24  COST  19.7902  DEM_T48  1
    X_T48U24  SU_T48U24  1  SU_T49U24  -1
    X_T48U25  COST  14.3144  DEM_T48  1
    X_T48U25  SU_T48U25  1  SU_T49U25  -1
    X_T48U26  COST  37.1127  DEM_T48  1
    X_T48U26  SU_T48U26  1  SU_T49U26  -1
    X_T48U27  COST  22.0283  DEM_T48  1
    X_T48U27  SU_T48U27  1  SU_T49U27  -1
    X_T48U28  COST  34.6948  DEM_T48  1
    X_T48U28  SU_T48U28  1  SU_T49U28  -1
    X_T48U29  COST  26.3352  DEM_T48  1
    X_T48U29  SU_T48U29  1  SU_T49U29  -1
    X_T48U30  COST  17.6593  DEM_T48  1
    X_T48U30  SU_T48U30  1  SU_T49U30  -1
    X_T49U1  COST  27.8141  DEM_T49  1
    X_T49U1  SU_T49U1  1  SU_T50U1  -1
    X_T49U2  COST  29.0813  DEM_T49  1
    X_T49U2  SU_T49U2  1  SU_T50U2  -1
    X_T49U3  COST  18.8573  DEM_T49  1
    X_T49U3  SU_T49U3  1  SU_T50U3  -1
    X_T49U4  COST  23.8001  DEM_T49  1
    X_T49U4  SU_T49U4  1  SU_T50U4  -1
    X_T49U5  COST  34.8024  DEM_T49  1
    X_T49U5  SU_T49U5  1  SU_T50U5  -1
    X_T49U6  COST  31.8025  DEM_T49  1
    X_T49U6  SU_T49U6  1  SU_T50U6  -1
    X_T49U7  COST  20.5781  DEM_T49  1
    X_T49U7  SU_T49U7  1  SU_T50U7  -1
    X_T49U8  COST  25.4698  DEM_T49  1
    X_T49U8  SU_T49U8  1  SU_T50U8  -1
    X_T49U9  COST  11.3621  DEM_T49  1
    X_T49U9  SU_T49U9  1  SU_T50U9  -1
    X_T49U10  COST  37.9303  DEM_T49  1
    X_T49U10  SU_T49U10  1  SU_T50U10  -1
    X_T49U11  COST  26.401  DEM_T49  1
    X_T49U11  SU_T49U11  1  SU_T50U11  -1
    X_T49U12  COST  27.7129  DEM_T49  1
    X_T49U12  SU_T49U12  1  SU_T50U12  -1
    X_T49U13  COST  20.8653  DEM_T49  1
    X_T49U13  SU_T49U13  1  SU_T50U13  -1
    X_T49U14  COST  16.0168  DEM_T49  1
    X_T49U14  SU_T49U14  1  SU_T50U14  -1
    X_T49U15  COST  10.3027  DEM_T49  1
    X_T49U15  SU_T49U15  1  SU_T50U15  -1
    X_T49U16  COST  36.482  DEM_T49  1
    X_T49U16  SU_T49U16  1  SU_T50U16  -1
    X_T49U17  COST  15.7336  DEM_T49  1
    X_T49U17  SU_T49U17  1  SU_T50U17  -1
    X_T49U18  COST  31.9517  DEM_T49  1
    X_T49U18  SU_T49U18  1  SU_T50U18  -1
    X_T49U19  COST  22.4783  DEM_T49  1
    X_T49U19  SU_T49U19  1  SU_T50U19  -1
    X_T49U20  COST  28.2889  DEM_T49  1
    X_T49U20  SU_T49U20  1  SU_T50U20  -1
    X_T49U21  COST  34.5408  DEM_T49  1
    X_T49U21  SU_T49U21  1  SU_T50U21  -1
    X_T49U22  COST  18.1432  DEM_T49  1
    X_T49U22  SU_T49U22  1  SU_T50U22  -1
    X_T49U23  COST  20.1089  DEM_T49  1
    X_T49U23  SU_T49U23  1  SU_T50U23  -1
    X_T49U24  COST  22.1725  DEM_T49  1
    X_T49U24  SU_T49U24  1  SU_T50U24  -1
    X_T49U25  COST  32.8745  DEM_T49  1
    X_T49U25  SU_T49U25  1  SU_T50U25  -1
    X_T49U26  COST  14.488  DEM_T49  1
    X_T49U26  SU_T49U26  1  SU_T50U26  -1
    X_T49U27  COST  22.4341  DEM_T49  1
    X_T49U27  SU_T49U27  1  SU_T50U27  -1
    X_T49U28  COST  10.6201  DEM_T49  1
    X_T49U28  SU_T49U28  1  SU_T50U28  -1
    X_T49U29  COST  25.5279  DEM_T49  1
    X_T49U29  SU_T49U29  1  SU_T50U29  -1
    X_T49U30  COST  28.853  DEM_T49  1
    X_T49U30  SU_T49U30  1  SU_T50U30  -1
    X_T50U1  COST  20.8513  DEM_T50  1
    X_T50U1  SU_T50U1  1  SU_T51U1  -1
    X_T50U2  COST  28.9648  DEM_T50  1
    X_T50U2  SU_T50U2  1  SU_T51U2  -1
    X_T50U3  COST  26.8028  DEM_T50  1
    X_T50U3  SU_T50U3  1  SU_T51U3  -1
    X_T50U4  COST  31.2547  DEM_T50  1
    X_T50U4  SU_T50U4  1  SU_T51U4  -1
    X_T50U5  COST  39.1726  DEM_T50  1
    X_T50U5  SU_T50U5  1  SU_T51U5  -1
    X_T50U6  COST  14.7707  DEM_T50  1
    X_T50U6  SU_T50U6  1  SU_T51U6  -1
    X_T50U7  COST  12.947  DEM_T50  1
    X_T50U7  SU_T50U7  1  SU_T51U7  -1
    X_T50U8  COST  13.6609  DEM_T50  1
    X_T50U8  SU_T50U8  1  SU_T51U8  -1
    X_T50U9  COST  35.5141  DEM_T50  1
    X_T50U9  SU_T50U9  1  SU_T51U9  -1
    X_T50U10  COST  10.9257  DEM_T50  1
    X_T50U10  SU_T50U10  1  SU_T51U10  -1
    X_T50U11  COST  14.2651  DEM_T50  1
    X_T50U11  SU_T50U11  1  SU_T51U11  -1
    X_T50U12  COST  29.9544  DEM_T50  1
    X_T50U12  SU_T50U12  1  SU_T51U12  -1
    X_T50U13  COST  13.5662  DEM_T50  1
    X_T50U13  SU_T50U13  1  SU_T51U13  -1
    X_T50U14  COST  30.1317  DEM_T50  1
    X_T50U14  SU_T50U14  1  SU_T51U14  -1
    X_T50U15  COST  26.4793  DEM_T50  1
    X_T50U15  SU_T50U15  1  SU_T51U15  -1
    X_T50U16  COST  24.475  DEM_T50  1
    X_T50U16  SU_T50U16  1  SU_T51U16  -1
    X_T50U17  COST  21.6171  DEM_T50  1
    X_T50U17  SU_T50U17  1  SU_T51U17  -1
    X_T50U18  COST  10.4819  DEM_T50  1
    X_T50U18  SU_T50U18  1  SU_T51U18  -1
    X_T50U19  COST  13.7315  DEM_T50  1
    X_T50U19  SU_T50U19  1  SU_T51U19  -1
    X_T50U20  COST  28.4774  DEM_T50  1
    X_T50U20  SU_T50U20  1  SU_T51U20  -1
    X_T50U21  COST  12.9254  DEM_T50  1
    X_T50U21  SU_T50U21  1  SU_T51U21  -1
    X_T50U22  COST  25.0326  DEM_T50  1
    X_T50U22  SU_T50U22  1  SU_T51U22  -1
    X_T50U23  COST  26.0287  DEM_T50  1
    X_T50U23  SU_T50U23  1  SU_T51U23  -1
    X_T50U24  COST  22.8879  DEM_T50  1
    X_T50U24  SU_T50U24  1  SU_T51U24  -1
    X_T50U25  COST  24.4679  DEM_T50  1
    X_T50U25  SU_T50U25  1  SU_T51U25  -1
    X_T50U26  COST  38.8454  DEM_T50  1
    X_T50U26  SU_T50U26  1  SU_T51U26  -1
    X_T50U27  COST  38.574  DEM_T50  1
    X_T50U27  SU_T50U27  1  SU_T51U27  -1
    X_T50U28  COST  36.3802  DEM_T50  1
    X_T50U28  SU_T50U28  1  SU_T51U28  -1
    X_T50U29  COST  30.3146  DEM_T50  1
    X_T50U29  SU_T50U29  1  SU_T51U29  -1
    X_T50U30  COST  19.4965  DEM_T50  1
    X_T50U30  SU_T50U30  1  SU_T51U30  -1
    X_T51U1  COST  25.0455  DEM_T51  1
    X_T51U1  SU_T51U1  1  SU_T52U1  -1
    X_T51U2  COST  19.3859  DEM_T51  1
    X_T51U2  SU_T51U2  1  SU_T52U2  -1
    X_T51U3  COST  35.5204  DEM_T51  1
    X_T51U3  SU_T51U3  1  SU_T52U3  -1
    X_T51U4  COST  28.8398  DEM_T51  1
    X_T51U4  SU_T51U4  1  SU_T52U4  -1
    X_T51U5  COST  14.8845  DEM_T51  1
    X_T51U5  SU_T51U5  1  SU_T52U5  -1
    X_T51U6  COST  10.5939  DEM_T51  1
    X_T51U6  SU_T51U6  1  SU_T52U6  -1
    X_T51U7  COST  15.7428  DEM_T51  1
    X_T51U7  SU_T51U7  1  SU_T52U7  -1
    X_T51U8  COST  38.0498  DEM_T51  1
    X_T51U8  SU_T51U8  1  SU_T52U8  -1
    X_T51U9  COST  36.3395  DEM_T51  1
    X_T51U9  SU_T51U9  1  SU_T52U9  -1
    X_T51U10  COST  17.4139  DEM_T51  1
    X_T51U10  SU_T51U10  1  SU_T52U10  -1
    X_T51U11  COST  12.5176  DEM_T51  1
    X_T51U11  SU_T51U11  1  SU_T52U11  -1
    X_T51U12  COST  30.3262  DEM_T51  1
    X_T51U12  SU_T51U12  1  SU_T52U12  -1
    X_T51U13  COST  16.162  DEM_T51  1
    X_T51U13  SU_T51U13  1  SU_T52U13  -1
    X_T51U14  COST  39.4615  DEM_T51  1
    X_T51U14  SU_T51U14  1  SU_T52U14  -1
    X_T51U15  COST  32.0046  DEM_T51  1
    X_T51U15  SU_T51U15  1  SU_T52U15  -1
    X_T51U16  COST  33.4299  DEM_T51  1
    X_T51U16  SU_T51U16  1  SU_T52U16  -1
    X_T51U17  COST  28.0331  DEM_T51  1
    X_T51U17  SU_T51U17  1  SU_T52U17  -1
    X_T51U18  COST  19.7576  DEM_T51  1
    X_T51U18  SU_T51U18  1  SU_T52U18  -1
    X_T51U19  COST  37.4419  DEM_T51  1
    X_T51U19  SU_T51U19  1  SU_T52U19  -1
    X_T51U20  COST  23.5035  DEM_T51  1
    X_T51U20  SU_T51U20  1  SU_T52U20  -1
    X_T51U21  COST  13.0936  DEM_T51  1
    X_T51U21  SU_T51U21  1  SU_T52U21  -1
    X_T51U22  COST  39.3687  DEM_T51  1
    X_T51U22  SU_T51U22  1  SU_T52U22  -1
    X_T51U23  COST  15.6945  DEM_T51  1
    X_T51U23  SU_T51U23  1  SU_T52U23  -1
    X_T51U24  COST  16.1332  DEM_T51  1
    X_T51U24  SU_T51U24  1  SU_T52U24  -1
    X_T51U25  COST  12.2213  DEM_T51  1
    X_T51U25  SU_T51U25  1  SU_T52U25  -1
    X_T51U26  COST  25.5037  DEM_T51  1
    X_T51U26  SU_T51U26  1  SU_T52U26  -1
    X_T51U27  COST  28.921  DEM_T51  1
    X_T51U27  SU_T51U27  1  SU_T52U27  -1
    X_T51U28  COST  30.6934  DEM_T51  1
    X_T51U28  SU_T51U28  1  SU_T52U28  -1
    X_T51U29  COST  27.8608  DEM_T51  1
    X_T51U29  SU_T51U29  1  SU_T52U29  -1
    X_T51U30  COST  37.7657  DEM_T51  1
    X_T51U30  SU_T51U30  1  SU_T52U30  -1
    X_T52U1  COST  22.9112  DEM_T52  1
    X_T52U1  SU_T52U1  1  SU_T53U1  -1
    X_T52U2  COST  23.7407  DEM_T52  1
    X_T52U2  SU_T52U2  1  SU_T53U2  -1
    X_T52U3  COST  26.6014  DEM_T52  1
    X_T52U3  SU_T52U3  1  SU_T53U3  -1
    X_T52U4  COST  31.1138  DEM_T52  1
    X_T52U4  SU_T52U4  1  SU_T53U4  -1
    X_T52U5  COST  26.9098  DEM_T52  1
    X_T52U5  SU_T52U5  1  SU_T53U5  -1
    X_T52U6  COST  30.1617  DEM_T52  1
    X_T52U6  SU_T52U6  1  SU_T53U6  -1
    X_T52U7  COST  25.7727  DEM_T52  1
    X_T52U7  SU_T52U7  1  SU_T53U7  -1
    X_T52U8  COST  10.0606  DEM_T52  1
    X_T52U8  SU_T52U8  1  SU_T53U8  -1
    X_T52U9  COST  13.512  DEM_T52  1
    X_T52U9  SU_T52U9  1  SU_T53U9  -1
    X_T52U10  COST  28.3677  DEM_T52  1
    X_T52U10  SU_T52U10  1  SU_T53U10  -1
    X_T52U11  COST  38.1717  DEM_T52  1
    X_T52U11  SU_T52U11  1  SU_T53U11  -1
    X_T52U12  COST  33.169  DEM_T52  1
    X_T52U12  SU_T52U12  1  SU_T53U12  -1
    X_T52U13  COST  21.2066  DEM_T52  1
    X_T52U13  SU_T52U13  1  SU_T53U13  -1
    X_T52U14  COST  28.8246  DEM_T52  1
    X_T52U14  SU_T52U14  1  SU_T53U14  -1
    X_T52U15  COST  38.088  DEM_T52  1
    X_T52U15  SU_T52U15  1  SU_T53U15  -1
    X_T52U16  COST  38.1895  DEM_T52  1
    X_T52U16  SU_T52U16  1  SU_T53U16  -1
    X_T52U17  COST  31.7718  DEM_T52  1
    X_T52U17  SU_T52U17  1  SU_T53U17  -1
    X_T52U18  COST  32.1822  DEM_T52  1
    X_T52U18  SU_T52U18  1  SU_T53U18  -1
    X_T52U19  COST  29.9498  DEM_T52  1
    X_T52U19  SU_T52U19  1  SU_T53U19  -1
    X_T52U20  COST  32.2847  DEM_T52  1
    X_T52U20  SU_T52U20  1  SU_T53U20  -1
    X_T52U21  COST  36.7017  DEM_T52  1
    X_T52U21  SU_T52U21  1  SU_T53U21  -1
    X_T52U22  COST  34.2157  DEM_T52  1
    X_T52U22  SU_T52U22  1  SU_T53U22  -1
    X_T52U23  COST  34.5176  DEM_T52  1
    X_T52U23  SU_T52U23  1  SU_T53U23  -1
    X_T52U24  COST  23.1515  DEM_T52  1
    X_T52U24  SU_T52U24  1  SU_T53U24  -1
    X_T52U25  COST  16.8752  DEM_T52  1
    X_T52U25  SU_T52U25  1  SU_T53U25  -1
    X_T52U26  COST  30.1203  DEM_T52  1
    X_T52U26  SU_T52U26  1  SU_T53U26  -1
    X_T52U27  COST  16.1207  DEM_T52  1
    X_T52U27  SU_T52U27  1  SU_T53U27  -1
    X_T52U28  COST  34.5511  DEM_T52  1
    X_T52U28  SU_T52U28  1  SU_T53U28  -1
    X_T52U29  COST  37.3456  DEM_T52  1
    X_T52U29  SU_T52U29  1  SU_T53U29  -1
    X_T52U30  COST  20.6791  DEM_T52  1
    X_T52U30  SU_T52U30  1  SU_T53U30  -1
    X_T53U1  COST  12.3144  DEM_T53  1
    X_T53U1  SU_T53U1  1  SU_T54U1  -1
    X_T53U2  COST  20.6458  DEM_T53  1
    X_T53U2  SU_T53U2  1  SU_T54U2  -1
    X_T53U3  COST  16.4603  DEM_T53  1
    X_T53U3  SU_T53U3  1  SU_T54U3  -1
    X_T53U4  COST  27.8441  DEM_T53  1
    X_T53U4  SU_T53U4  1  SU_T54U4  -1
    X_T53U5  COST  19.991  DEM_T53  1
    X_T53U5  SU_T53U5  1  SU_T54U5  -1
    X_T53U6  COST  21.4985  DEM_T53  1
    X_T53U6  SU_T53U6  1  SU_T54U6  -1
    X_T53U7  COST  18.4991  DEM_T53  1
    X_T53U7  SU_T53U7  1  SU_T54U7  -1
    X_T53U8  COST  21.9234  DEM_T53  1
    X_T53U8  SU_T53U8  1  SU_T54U8  -1
    X_T53U9  COST  17.6007  DEM_T53  1
    X_T53U9  SU_T53U9  1  SU_T54U9  -1
    X_T53U10  COST  18.7449  DEM_T53  1
    X_T53U10  SU_T53U10  1  SU_T54U10  -1
    X_T53U11  COST  22.8249  DEM_T53  1
    X_T53U11  SU_T53U11  1  SU_T54U11  -1
    X_T53U12  COST  33.9916  DEM_T53  1
    X_T53U12  SU_T53U12  1  SU_T54U12  -1
    X_T53U13  COST  35.9558  DEM_T53  1
    X_T53U13  SU_T53U13  1  SU_T54U13  -1
    X_T53U14  COST  35.7947  DEM_T53  1
    X_T53U14  SU_T53U14  1  SU_T54U14  -1
    X_T53U15  COST  33.6212  DEM_T53  1
    X_T53U15  SU_T53U15  1  SU_T54U15  -1
    X_T53U16  COST  36.2117  DEM_T53  1
    X_T53U16  SU_T53U16  1  SU_T54U16  -1
    X_T53U17  COST  35.0093  DEM_T53  1
    X_T53U17  SU_T53U17  1  SU_T54U17  -1
    X_T53U18  COST  26.0508  DEM_T53  1
    X_T53U18  SU_T53U18  1  SU_T54U18  -1
    X_T53U19  COST  33.5196  DEM_T53  1
    X_T53U19  SU_T53U19  1  SU_T54U19  -1
    X_T53U20  COST  25.0024  DEM_T53  1
    X_T53U20  SU_T53U20  1  SU_T54U20  -1
    X_T53U21  COST  27.9654  DEM_T53  1
    X_T53U21  SU_T53U21  1  SU_T54U21  -1
    X_T53U22  COST  27.707  DEM_T53  1
    X_T53U22  SU_T53U22  1  SU_T54U22  -1
    X_T53U23  COST  24.0858  DEM_T53  1
    X_T53U23  SU_T53U23  1  SU_T54U23  -1
    X_T53U24  COST  16.3009  DEM_T53  1
    X_T53U24  SU_T53U24  1  SU_T54U24  -1
    X_T53U25  COST  31.3888  DEM_T53  1
    X_T53U25  SU_T53U25  1  SU_T54U25  -1
    X_T53U26  COST  22.2633  DEM_T53  1
    X_T53U26  SU_T53U26  1  SU_T54U26  -1
    X_T53U27  COST  13.3564  DEM_T53  1
    X_T53U27  SU_T53U27  1  SU_T54U27  -1
    X_T53U28  COST  33.5957  DEM_T53  1
    X_T53U28  SU_T53U28  1  SU_T54U28  -1
    X_T53U29  COST  32.4033  DEM_T53  1
    X_T53U29  SU_T53U29  1  SU_T54U29  -1
    X_T53U30  COST  34.7946  DEM_T53  1
    X_T53U30  SU_T53U30  1  SU_T54U30  -1
    X_T54U1  COST  34.1753  DEM_T54  1
    X_T54U1  SU_T54U1  1  SU_T55U1  -1
    X_T54U2  COST  37.7368  DEM_T54  1
    X_T54U2  SU_T54U2  1  SU_T55U2  -1
    X_T54U3  COST  26.6014  DEM_T54  1
    X_T54U3  SU_T54U3  1  SU_T55U3  -1
    X_T54U4  COST  32.2759  DEM_T54  1
    X_T54U4  SU_T54U4  1  SU_T55U4  -1
    X_T54U5  COST  36.1791  DEM_T54  1
    X_T54U5  SU_T54U5  1  SU_T55U5  -1
    X_T54U6  COST  16.4818  DEM_T54  1
    X_T54U6  SU_T54U6  1  SU_T55U6  -1
    X_T54U7  COST  33.5907  DEM_T54  1
    X_T54U7  SU_T54U7  1  SU_T55U7  -1
    X_T54U8  COST  21.2056  DEM_T54  1
    X_T54U8  SU_T54U8  1  SU_T55U8  -1
    X_T54U9  COST  16.9535  DEM_T54  1
    X_T54U9  SU_T54U9  1  SU_T55U9  -1
    X_T54U10  COST  37.1068  DEM_T54  1
    X_T54U10  SU_T54U10  1  SU_T55U10  -1
    X_T54U11  COST  34.8661  DEM_T54  1
    X_T54U11  SU_T54U11  1  SU_T55U11  -1
    X_T54U12  COST  25.648  DEM_T54  1
    X_T54U12  SU_T54U12  1  SU_T55U12  -1
    X_T54U13  COST  36.5313  DEM_T54  1
    X_T54U13  SU_T54U13  1  SU_T55U13  -1
    X_T54U14  COST  23.8553  DEM_T54  1
    X_T54U14  SU_T54U14  1  SU_T55U14  -1
    X_T54U15  COST  10.3975  DEM_T54  1
    X_T54U15  SU_T54U15  1  SU_T55U15  -1
    X_T54U16  COST  23.7757  DEM_T54  1
    X_T54U16  SU_T54U16  1  SU_T55U16  -1
    X_T54U17  COST  31.6579  DEM_T54  1
    X_T54U17  SU_T54U17  1  SU_T55U17  -1
    X_T54U18  COST  24.6813  DEM_T54  1
    X_T54U18  SU_T54U18  1  SU_T55U18  -1
    X_T54U19  COST  32.2188  DEM_T54  1
    X_T54U19  SU_T54U19  1  SU_T55U19  -1
    X_T54U20  COST  25.9567  DEM_T54  1
    X_T54U20  SU_T54U20  1  SU_T55U20  -1
    X_T54U21  COST  18.9036  DEM_T54  1
    X_T54U21  SU_T54U21  1  SU_T55U21  -1
    X_T54U22  COST  20.3569  DEM_T54  1
    X_T54U22  SU_T54U22  1  SU_T55U22  -1
    X_T54U23  COST  31.9724  DEM_T54  1
    X_T54U23  SU_T54U23  1  SU_T55U23  -1
    X_T54U24  COST  13.6449  DEM_T54  1
    X_T54U24  SU_T54U24  1  SU_T55U24  -1
    X_T54U25  COST  27.4643  DEM_T54  1
    X_T54U25  SU_T54U25  1  SU_T55U25  -1
    X_T54U26  COST  16.3568  DEM_T54  1
    X_T54U26  SU_T54U26  1  SU_T55U26  -1
    X_T54U27  COST  15.0079  DEM_T54  1
    X_T54U27  SU_T54U27  1  SU_T55U27  -1
    X_T54U28  COST  18.028  DEM_T54  1
    X_T54U28  SU_T54U28  1  SU_T55U28  -1
    X_T54U29  COST  32.4817  DEM_T54  1
    X_T54U29  SU_T54U29  1  SU_T55U29  -1
    X_T54U30  COST  39.5874  DEM_T54  1
    X_T54U30  SU_T54U30  1  SU_T55U30  -1
    X_T55U1  COST  32.616  DEM_T55  1
    X_T55U1  SU_T55U1  1  SU_T56U1  -1
    X_T55U2  COST  30.3694  DEM_T55  1
    X_T55U2  SU_T55U2  1  SU_T56U2  -1
    X_T55U3  COST  32.6078  DEM_T55  1
    X_T55U3  SU_T55U3  1  SU_T56U3  -1
    X_T55U4  COST  19.8266  DEM_T55  1
    X_T55U4  SU_T55U4  1  SU_T56U4  -1
    X_T55U5  COST  27.2623  DEM_T55  1
    X_T55U5  SU_T55U5  1  SU_T56U5  -1
    X_T55U6  COST  38.3534  DEM_T55  1
    X_T55U6  SU_T55U6  1  SU_T56U6  -1
    X_T55U7  COST  24.8711  DEM_T55  1
    X_T55U7  SU_T55U7  1  SU_T56U7  -1
    X_T55U8  COST  23.1729  DEM_T55  1
    X_T55U8  SU_T55U8  1  SU_T56U8  -1
    X_T55U9  COST  25.3685  DEM_T55  1
    X_T55U9  SU_T55U9  1  SU_T56U9  -1
    X_T55U10  COST  32.944  DEM_T55  1
    X_T55U10  SU_T55U10  1  SU_T56U10  -1
    X_T55U11  COST  33.1896  DEM_T55  1
    X_T55U11  SU_T55U11  1  SU_T56U11  -1
    X_T55U12  COST  33.2947  DEM_T55  1
    X_T55U12  SU_T55U12  1  SU_T56U12  -1
    X_T55U13  COST  35.7193  DEM_T55  1
    X_T55U13  SU_T55U13  1  SU_T56U13  -1
    X_T55U14  COST  22.2436  DEM_T55  1
    X_T55U14  SU_T55U14  1  SU_T56U14  -1
    X_T55U15  COST  16.657  DEM_T55  1
    X_T55U15  SU_T55U15  1  SU_T56U15  -1
    X_T55U16  COST  36.4469  DEM_T55  1
    X_T55U16  SU_T55U16  1  SU_T56U16  -1
    X_T55U17  COST  30.9183  DEM_T55  1
    X_T55U17  SU_T55U17  1  SU_T56U17  -1
    X_T55U18  COST  23.9517  DEM_T55  1
    X_T55U18  SU_T55U18  1  SU_T56U18  -1
    X_T55U19  COST  16.1031  DEM_T55  1
    X_T55U19  SU_T55U19  1  SU_T56U19  -1
    X_T55U20  COST  18.5653  DEM_T55  1
    X_T55U20  SU_T55U20  1  SU_T56U20  -1
    X_T55U21  COST  25.3169  DEM_T55  1
    X_T55U21  SU_T55U21  1  SU_T56U21  -1
    X_T55U22  COST  22.1371  DEM_T55  1
    X_T55U22  SU_T55U22  1  SU_T56U22  -1
    X_T55U23  COST  10.401  DEM_T55  1
    X_T55U23  SU_T55U23  1  SU_T56U23  -1
    X_T55U24  COST  29.4332  DEM_T55  1
    X_T55U24  SU_T55U24  1  SU_T56U24  -1
    X_T55U25  COST  18.4265  DEM_T55  1
    X_T55U25  SU_T55U25  1  SU_T56U25  -1
    X_T55U26  COST  11.2596  DEM_T55  1
    X_T55U26  SU_T55U26  1  SU_T56U26  -1
    X_T55U27  COST  15.4517  DEM_T55  1
    X_T55U27  SU_T55U27  1  SU_T56U27  -1
    X_T55U28  COST  35.4378  DEM_T55  1
    X_T55U28  SU_T55U28  1  SU_T56U28  -1
    X_T55U29  COST  39.4512  DEM_T55  1
    X_T55U29  SU_T55U29  1  SU_T56U29  -1
    X_T55U30  COST  25.401  DEM_T55  1
    X_T55U30  SU_T55U30  1  SU_T56U30  -1
    X_T56U1  COST  16.9465  DEM_T56  1
    X_T56U1  SU_T56U1  1  SU_T57U1  -1
    X_T56U2  COST  11.2851  DEM_T56  1
    X_T56U2  SU_T56U2  1  SU_T57U2  -1
    X_T56U3  COST  12.1001  DEM_T56  1
    X_T56U3  SU_T56U3  1  SU_T57U3  -1
    X_T56U4  COST  28.2523  DEM_T56  1
    X_T56U4  SU_T56U4  1  SU_T57U4  -1
    X_T56U5  COST  21.2344  DEM_T56  1
    X_T56U5  SU_T56U5  1  SU_T57U5  -1
    X_T56U6  COST  11.3596  DEM_T56  1
    X_T56U6  SU_T56U6  1  SU_T57U6  -1
    X_T56U7  COST  37.8787  DEM_T56  1
    X_T56U7  SU_T56U7  1  SU_T57U7  -1
    X_T56U8  COST  34.941  DEM_T56  1
    X_T56U8  SU_T56U8  1  SU_T57U8  -1
    X_T56U9  COST  21.1972  DEM_T56  1
    X_T56U9  SU_T56U9  1  SU_T57U9  -1
    X_T56U10  COST  12.8611  DEM_T56  1
    X_T56U10  SU_T56U10  1  SU_T57U10  -1
    X_T56U11  COST  11.4597  DEM_T56  1
    X_T56U11  SU_T56U11  1  SU_T57U11  -1
    X_T56U12  COST  22.7821  DEM_T56  1
    X_T56U12  SU_T56U12  1  SU_T57U12  -1
    X_T56U13  COST  25.6322  DEM_T56  1
    X_T56U13  SU_T56U13  1  SU_T57U13  -1
    X_T56U14  COST  30.3242  DEM_T56  1
    X_T56U14  SU_T56U14  1  SU_T57U14  -1
    X_T56U15  COST  10.4388  DEM_T56  1
    X_T56U15  SU_T56U15  1  SU_T57U15  -1
    X_T56U16  COST  31.3971  DEM_T56  1
    X_T56U16  SU_T56U16  1  SU_T57U16  -1
    X_T56U17  COST  29.8745  DEM_T56  1
    X_T56U17  SU_T56U17  1  SU_T57U17  -1
    X_T56U18  COST  21.7227  DEM_T56  1
    X_T56U18  SU_T56U18  1  SU_T57U18  -1
    X_T56U19  COST  17.7469  DEM_T56  1
    X_T56U19  SU_T56U19  1  SU_T57U19  -1
    X_T56U20  COST  22.9949  DEM_T56  1
    X_T56U20  SU_T56U20  1  SU_T57U20  -1
    X_T56U21  COST  35.5775  DEM_T56  1
    X_T56U21  SU_T56U21  1  SU_T57U21  -1
    X_T56U22  COST  32.748  DEM_T56  1
    X_T56U22  SU_T56U22  1  SU_T57U22  -1
    X_T56U23  COST  22.4491  DEM_T56  1
    X_T56U23  SU_T56U23  1  SU_T57U23  -1
    X_T56U24  COST  21.5864  DEM_T56  1
    X_T56U24  SU_T56U24  1  SU_T57U24  -1
    X_T56U25  COST  15.5612  DEM_T56  1
    X_T56U25  SU_T56U25  1  SU_T57U25  -1
    X_T56U26  COST  35.8454  DEM_T56  1
    X_T56U26  SU_T56U26  1  SU_T57U26  -1
    X_T56U27  COST  31.7303  DEM_T56  1
    X_T56U27  SU_T56U27  1  SU_T57U27  -1
    X_T56U28  COST  26.7378  DEM_T56  1
    X_T56U28  SU_T56U28  1  SU_T57U28  -1
    X_T56U29  COST  14.0095  DEM_T56  1
    X_T56U29  SU_T56U29  1  SU_T57U29  -1
    X_T56U30  COST  23.5233  DEM_T56  1
    X_T56U30  SU_T56U30  1  SU_T57U30  -1
    X_T57U1  COST  22.9326  DEM_T57  1
    X_T57U1  SU_T57U1  1  SU_T58U1  -1
    X_T57U2  COST  25.9975  DEM_T57  1
    X_T57U2  SU_T57U2  1  SU_T58U2  -1
    X_T57U3  COST  32.447  DEM_T57  1
    X_T57U3  SU_T57U3  1  SU_T58U3  -1
    X_T57U4  COST  25.8617  DEM_T57  1
    X_T57U4  SU_T57U4  1  SU_T58U4  -1
    X_T57U5  COST  23.8934  DEM_T57  1
    X_T57U5  SU_T57U5  1  SU_T58U5  -1
    X_T57U6  COST  29.6413  DEM_T57  1
    X_T57U6  SU_T57U6  1  SU_T58U6  -1
    X_T57U7  COST  11.8942  DEM_T57  1
    X_T57U7  SU_T57U7  1  SU_T58U7  -1
    X_T57U8  COST  34.6494  DEM_T57  1
    X_T57U8  SU_T57U8  1  SU_T58U8  -1
    X_T57U9  COST  39.4992  DEM_T57  1
    X_T57U9  SU_T57U9  1  SU_T58U9  -1
    X_T57U10  COST  33.2099  DEM_T57  1
    X_T57U10  SU_T57U10  1  SU_T58U10  -1
    X_T57U11  COST  14.5182  DEM_T57  1
    X_T57U11  SU_T57U11  1  SU_T58U11  -1
    X_T57U12  COST  23.9197  DEM_T57  1
    X_T57U12  SU_T57U12  1  SU_T58U12  -1
    X_T57U13  COST  22.4572  DEM_T57  1
    X_T57U13  SU_T57U13  1  SU_T58U13  -1
    X_T57U14  COST  34.7298  DEM_T57  1
    X_T57U14  SU_T57U14  1  SU_T58U14  -1
    X_T57U15  COST  35.7436  DEM_T57  1
    X_T57U15  SU_T57U15  1  SU_T58U15  -1
    X_T57U16  COST  22.8695  DEM_T57  1
    X_T57U16  SU_T57U16  1  SU_T58U16  -1
    X_T57U17  COST  25.426  DEM_T57  1
    X_T57U17  SU_T57U17  1  SU_T58U17  -1
    X_T57U18  COST  23.0926  DEM_T57  1
    X_T57U18  SU_T57U18  1  SU_T58U18  -1
    X_T57U19  COST  12.8298  DEM_T57  1
    X_T57U19  SU_T57U19  1  SU_T58U19  -1
    X_T57U20  COST  34.3814  DEM_T57  1
    X_T57U20  SU_T57U20  1  SU_T58U20  -1
    X_T57U21  COST  39.0179  DEM_T57  1
    X_T57U21  SU_T57U21  1  SU_T58U21  -1
    X_T57U22  COST  37.0928  DEM_T57  1
    X_T57U22  SU_T57U22  1  SU_T58U22  -1
    X_T57U23  COST  34.0404  DEM_T57  1
    X_T57U23  SU_T57U23  1  SU_T58U23  -1
    X_T57U24  COST  10.1716  DEM_T57  1
    X_T57U24  SU_T57U24  1  SU_T58U24  -1
    X_T57U25  COST  27.1349  DEM_T57  1
    X_T57U25  SU_T57U25  1  SU_T58U25  -1
    X_T57U26  COST  19.5431  DEM_T57  1
    X_T57U26  SU_T57U26  1  SU_T58U26  -1
    X_T57U27  COST  36.7513  DEM_T57  1
    X_T57U27  SU_T57U27  1  SU_T58U27  -1
    X_T57U28  COST  22.1804  DEM_T57  1
    X_T57U28  SU_T57U28  1  SU_T58U28  -1
    X_T57U29  COST  12.4067  DEM_T57  1
    X_T57U29  SU_T57U29  1  SU_T58U29  -1
    X_T57U30  COST  10.4723  DEM_T57  1
    X_T57U30  SU_T57U30  1  SU_T58U30  -1
    X_T58U1  COST  37.4981  DEM_T58  1
    X_T58U1  SU_T58U1  1  SU_T59U1  -1
    X_T58U2  COST  19.2687  DEM_T58  1
    X_T58U2  SU_T58U2  1  SU_T59U2  -1
    X_T58U3  COST  25.3491  DEM_T58  1
    X_T58U3  SU_T58U3  1  SU_T59U3  -1
    X_T58U4  COST  38.1524  DEM_T58  1
    X_T58U4  SU_T58U4  1  SU_T59U4  -1
    X_T58U5  COST  22.07  DEM_T58  1
    X_T58U5  SU_T58U5  1  SU_T59U5  -1
    X_T58U6  COST  12.0798  DEM_T58  1
    X_T58U6  SU_T58U6  1  SU_T59U6  -1
    X_T58U7  COST  31.9901  DEM_T58  1
    X_T58U7  SU_T58U7  1  SU_T59U7  -1
    X_T58U8  COST  14.1531  DEM_T58  1
    X_T58U8  SU_T58U8  1  SU_T59U8  -1
    X_T58U9  COST  27.0845  DEM_T58  1
    X_T58U9  SU_T58U9  1  SU_T59U9  -1
    X_T58U10  COST  21.3738  DEM_T58  1
    X_T58U10  SU_T58U10  1  SU_T59U10  -1
    X_T58U11  COST  28.5558  DEM_T58  1
    X_T58U11  SU_T58U11  1  SU_T59U11  -1
    X_T58U12  COST  24.0786  DEM_T58  1
    X_T58U12  SU_T58U12  1  SU_T59U12  -1
    X_T58U13  COST  24.8244  DEM_T58  1
    X_T58U13  SU_T58U13  1  SU_T59U13  -1
    X_T58U14  COST  23.835  DEM_T58  1
    X_T58U14  SU_T58U14  1  SU_T59U14  -1
    X_T58U15  COST  25.1201  DEM_T58  1
    X_T58U15  SU_T58U15  1  SU_T59U15  -1
    X_T58U16  COST  34.985  DEM_T58  1
    X_T58U16  SU_T58U16  1  SU_T59U16  -1
    X_T58U17  COST  35.9092  DEM_T58  1
    X_T58U17  SU_T58U17  1  SU_T59U17  -1
    X_T58U18  COST  37.7514  DEM_T58  1
    X_T58U18  SU_T58U18  1  SU_T59U18  -1
    X_T58U19  COST  11.6317  DEM_T58  1
    X_T58U19  SU_T58U19  1  SU_T59U19  -1
    X_T58U20  COST  39.2274  DEM_T58  1
    X_T58U20  SU_T58U20  1  SU_T59U20  -1
    X_T58U21  COST  26.6406  DEM_T58  1
    X_T58U21  SU_T58U21  1  SU_T59U21  -1
    X_T58U22  COST  34.3078  DEM_T58  1
    X_T58U22  SU_T58U22  1  SU_T59U22  -1
    X_T58U23  COST  16.125  DEM_T58  1
    X_T58U23  SU_T58U23  1  SU_T59U23  -1
    X_T58U24  COST  27.3918  DEM_T58  1
    X_T58U24  SU_T58U24  1  SU_T59U24  -1
    X_T58U25  COST  38.4623  DEM_T58  1
    X_T58U25  SU_T58U25  1  SU_T59U25  -1
    X_T58U26  COST  30.5619  DEM_T58  1
    X_T58U26  SU_T58U26  1  SU_T59U26  -1
    X_T58U27  COST  15.143  DEM_T58  1
    X_T58U27  SU_T58U27  1  SU_T59U27  -1
    X_T58U28  COST  23.6462  DEM_T58  1
    X_T58U28  SU_T58U28  1  SU_T59U28  -1
    X_T58U29  COST  37.3064  DEM_T58  1
    X_T58U29  SU_T58U29  1  SU_T59U29  -1
    X_T58U30  COST  38.6061  DEM_T58  1
    X_T58U30  SU_T58U30  1  SU_T59U30  -1
    X_T59U1  COST  27.535  DEM_T59  1
    X_T59U1  SU_T59U1  1  SU_T60U1  -1
    X_T59U2  COST  29.2773  DEM_T59  1
    X_T59U2  SU_T59U2  1  SU_T60U2  -1
    X_T59U3  COST  32.2169  DEM_T59  1
    X_T59U3  SU_T59U3  1  SU_T60U3  -1
    X_T59U4  COST  27.8225  DEM_T59  1
    X_T59U4  SU_T59U4  1  SU_T60U4  -1
    X_T59U5  COST  11.9958  DEM_T59  1
    X_T59U5  SU_T59U5  1  SU_T60U5  -1
    X_T59U6  COST  37.4702  DEM_T59  1
    X_T59U6  SU_T59U6  1  SU_T60U6  -1
    X_T59U7  COST  17.3886  DEM_T59  1
    X_T59U7  SU_T59U7  1  SU_T60U7  -1
    X_T59U8  COST  27.9033  DEM_T59  1
    X_T59U8  SU_T59U8  1  SU_T60U8  -1
    X_T59U9  COST  39.2856  DEM_T59  1
    X_T59U9  SU_T59U9  1  SU_T60U9  -1
    X_T59U10  COST  21.2632  DEM_T59  1
    X_T59U10  SU_T59U10  1  SU_T60U10  -1
    X_T59U11  COST  36.5375  DEM_T59  1
    X_T59U11  SU_T59U11  1  SU_T60U11  -1
    X_T59U12  COST  16.0166  DEM_T59  1
    X_T59U12  SU_T59U12  1  SU_T60U12  -1
    X_T59U13  COST  30.7364  DEM_T59  1
    X_T59U13  SU_T59U13  1  SU_T60U13  -1
    X_T59U14  COST  28.5697  DEM_T59  1
    X_T59U14  SU_T59U14  1  SU_T60U14  -1
    X_T59U15  COST  33.2773  DEM_T59  1
    X_T59U15  SU_T59U15  1  SU_T60U15  -1
    X_T59U16  COST  20.4252  DEM_T59  1
    X_T59U16  SU_T59U16  1  SU_T60U16  -1
    X_T59U17  COST  21.8788  DEM_T59  1
    X_T59U17  SU_T59U17  1  SU_T60U17  -1
    X_T59U18  COST  36.7568  DEM_T59  1
    X_T59U18  SU_T59U18  1  SU_T60U18  -1
    X_T59U19  COST  26.5563  DEM_T59  1
    X_T59U19  SU_T59U19  1  SU_T60U19  -1
    X_T59U20  COST  22.4865  DEM_T59  1
    X_T59U20  SU_T59U20  1  SU_T60U20  -1
    X_T59U21  COST  24.2485  DEM_T59  1
    X_T59U21  SU_T59U21  1  SU_T60U21  -1
    X_T59U22  COST  38.2715  DEM_T59  1
    X_T59U22  SU_T59U22  1  SU_T60U22  -1
    X_T59U23  COST  23.1537  DEM_T59  1
    X_T59U23  SU_T59U23  1  SU_T60U23  -1
    X_T59U24  COST  39.5591  DEM_T59  1
    X_T59U24  SU_T59U24  1  SU_T60U24  -1
    X_T59U25  COST  13.4329  DEM_T59  1
    X_T59U25  SU_T59U25  1  SU_T60U25  -1
    X_T59U26  COST  14.6671  DEM_T59  1
    X_T59U26  SU_T59U26  1  SU_T60U26  -1
    X_T59U27  COST  28.9174  DEM_T59  1
    X_T59U27  SU_T59U27  1  SU_T60U27  -1
    X_T59U28  COST  10.6156  DEM_T59  1
    X_T59U28  SU_T59U28  1  SU_T60U28  -1
    X_T59U29  COST  20.9679  DEM_T59  1
    X_T59U29  SU_T59U29  1  SU_T60U29  -1
    X_T59U30  COST  19.0744  DEM_T59  1
    X_T59U30  SU_T59U30  1  SU_T60U30  -1
    X_T60U1  COST  15.1035  DEM_T60  1
    X_T60U1  SU_T60U1  1  SU_T61U1  -1
    X_T60U2  COST  33.3041  DEM_T60  1
    X_T60U2  SU_T60U2  1  SU_T61U2  -1
    X_T60U3  COST  39.6019  DEM_T60  1
    X_T60U3  SU_T60U3  1  SU_T61U3  -1
    X_T60U4  COST  12.9575  DEM_T60  1
    X_T60U4  SU_T60U4  1  SU_T61U4  -1
    X_T60U5  COST  31.2003  DEM_T60  1
    X_T60U5  SU_T60U5  1  SU_T61U5  -1
    X_T60U6  COST  14.6794  DEM_T60  1
    X_T60U6  SU_T60U6  1  SU_T61U6  -1
    X_T60U7  COST  33.4167  DEM_T60  1
    X_T60U7  SU_T60U7  1  SU_T61U7  -1
    X_T60U8  COST  19.3507  DEM_T60  1
    X_T60U8  SU_T60U8  1  SU_T61U8  -1
    X_T60U9  COST  15.2273  DEM_T60  1
    X_T60U9  SU_T60U9  1  SU_T61U9  -1
    X_T60U10  COST  23.2524  DEM_T60  1
    X_T60U10  SU_T60U10  1  SU_T61U10  -1
    X_T60U11  COST  21.8712  DEM_T60  1
    X_T60U11  SU_T60U11  1  SU_T61U11  -1
    X_T60U12  COST  18.4576  DEM_T60  1
    X_T60U12  SU_T60U12  1  SU_T61U12  -1
    X_T60U13  COST  15.7218  DEM_T60  1
    X_T60U13  SU_T60U13  1  SU_T61U13  -1
    X_T60U14  COST  26.4171  DEM_T60  1
    X_T60U14  SU_T60U14  1  SU_T61U14  -1
    X_T60U15  COST  29.9261  DEM_T60  1
    X_T60U15  SU_T60U15  1  SU_T61U15  -1
    X_T60U16  COST  11.3488  DEM_T60  1
    X_T60U16  SU_T60U16  1  SU_T61U16  -1
    X_T60U17  COST  26.8767  DEM_T60  1
    X_T60U17  SU_T60U17  1  SU_T61U17  -1
    X_T60U18  COST  38.2126  DEM_T60  1
    X_T60U18  SU_T60U18  1  SU_T61U18  -1
    X_T60U19  COST  25.6828  DEM_T60  1
    X_T60U19  SU_T60U19  1  SU_T61U19  -1
    X_T60U20  COST  29.6817  DEM_T60  1
    X_T60U20  SU_T60U20  1  SU_T61U20  -1
    X_T60U21  COST  30.6112  DEM_T60  1
    X_T60U21  SU_T60U21  1  SU_T61U21  -1
    X_T60U22  COST  13.5104  DEM_T60  1
    X_T60U22  SU_T60U22  1  SU_T61U22  -1
    X_T60U23  COST  13.697  DEM_T60  1
    X_T60U23  SU_T60U23  1  SU_T61U23  -1
    X_T60U24  COST  22.4844  DEM_T60  1
    X_T60U24  SU_T60U24  1  SU_T61U24  -1
    X_T60U25  COST  37.0989  DEM_T60  1
    X_T60U25  SU_T60U25  1  SU_T61U25  -1
    X_T60U26  COST  34.5357  DEM_T60  1
    X_T60U26  SU_T60U26  1  SU_T61U26  -1
    X_T60U27  COST  32.0872  DEM_T60  1
    X_T60U27  SU_T60U27  1  SU_T61U27  -1
    X_T60U28  COST  36.0882  DEM_T60  1
    X_T60U28  SU_T60U28  1  SU_T61U28  -1
    X_T60U29  COST  39.1071  DEM_T60  1
    X_T60U29  SU_T60U29  1  SU_T61U29  -1
    X_T60U30  COST  32.2481  DEM_T60  1
    X_T60U30  SU_T60U30  1  SU_T61U30  -1
    X_T61U1  COST  13.9496  DEM_T61  1
    X_T61U1  SU_T61U1  1  SU_T62U1  -1
    X_T61U2  COST  14.9591  DEM_T61  1
    X_T61U2  SU_T61U2  1  SU_T62U2  -1
    X_T61U3  COST  24.723  DEM_T61  1
    X_T61U3  SU_T61U3  1  SU_T62U3  -1
    X_T61U4  COST  37.0957  DEM_T61  1
    X_T61U4  SU_T61U4  1  SU_T62U4  -1
    X_T61U5  COST  27.2984  DEM_T61  1
    X_T61U5  SU_T61U5  1  SU_T62U5  -1
    X_T61U6  COST  21.1351  DEM_T61  1
    X_T61U6  SU_T61U6  1  SU_T62U6  -1
    X_T61U7  COST  17.584  DEM_T61  1
    X_T61U7  SU_T61U7  1  SU_T62U7  -1
    X_T61U8  COST  36.8196  DEM_T61  1
    X_T61U8  SU_T61U8  1  SU_T62U8  -1
    X_T61U9  COST  31.8839  DEM_T61  1
    X_T61U9  SU_T61U9  1  SU_T62U9  -1
    X_T61U10  COST  20.1295  DEM_T61  1
    X_T61U10  SU_T61U10  1  SU_T62U10  -1
    X_T61U11  COST  10.7571  DEM_T61  1
    X_T61U11  SU_T61U11  1  SU_T62U11  -1
    X_T61U12  COST  25.6022  DEM_T61  1
    X_T61U12  SU_T61U12  1  SU_T62U12  -1
    X_T61U13  COST  27.668  DEM_T61  1
    X_T61U13  SU_T61U13  1  SU_T62U13  -1
    X_T61U14  COST  28.7043  DEM_T61  1
    X_T61U14  SU_T61U14  1  SU_T62U14  -1
    X_T61U15  COST  11.6054  DEM_T61  1
    X_T61U15  SU_T61U15  1  SU_T62U15  -1
    X_T61U16  COST  16.9617  DEM_T61  1
    X_T61U16  SU_T61U16  1  SU_T62U16  -1
    X_T61U17  COST  26.6301  DEM_T61  1
    X_T61U17  SU_T61U17  1  SU_T62U17  -1
    X_T61U18  COST  18.8185  DEM_T61  1
    X_T61U18  SU_T61U18  1  SU_T62U18  -1
    X_T61U19  COST  38.4551  DEM_T61  1
    X_T61U19  SU_T61U19  1  SU_T62U19  -1
    X_T61U20  COST  28.2982  DEM_T61  1
    X_T61U20  SU_T61U20  1  SU_T62U20  -1
    X_T61U21  COST  33.5744  DEM_T61  1
    X_T61U21  SU_T61U21  1  SU_T62U21  -1
    X_T61U22  COST  10.1931  DEM_T61  1
    X_T61U22  SU_T61U22  1  SU_T62U22  -1
    X_T61U23  COST  31.0747  DEM_T61  1
    X_T61U23  SU_T61U23  1  SU_T62U23  -1
    X_T61U24  COST  32.8127  DEM_T61  1
    X_T61U24  SU_T61U24  1  SU_T62U24  -1
    X_T61U25  COST  31.1225  DEM_T61  1
    X_T61U25  SU_T61U25  1  SU_T62U25  -1
    X_T61U26  COST  21.2742  DEM_T61  1
    X_T61U26  SU_T61U26  1  SU_T62U26  -1
    X_T61U27  COST  24.2706  DEM_T61  1
    X_T61U27  SU_T61U27  1  SU_T62U27  -1
    X_T61U28  COST  32.8868  DEM_T61  1
    X_T61U28  SU_T61U28  1  SU_T62U28  -1
    X_T61U29  COST  29.398  DEM_T61  1
    X_T61U29  SU_T61U29  1  SU_T62U29  -1
    X_T61U30  COST  30.101  DEM_T61  1
    X_T61U30  SU_T61U30  1  SU_T62U30  -1
    X_T62U1  COST  33.2066  DEM_T62  1
    X_T62U1  SU_T62U1  1  SU_T63U1  -1
    X_T62U2  COST  28.7897  DEM_T62  1
    X_T62U2  SU_T62U2  1  SU_T63U2  -1
    X_T62U3  COST  35.5895  DEM_T62  1
    X_T62U3  SU_T62U3  1  SU_T63U3  -1
    X_T62U4  COST  39.8919  DEM_T62  1
    X_T62U4  SU_T62U4  1  SU_T63U4  -1
    X_T62U5  COST  32.612  DEM_T62  1
    X_T62U5  SU_T62U5  1  SU_T63U5  -1
    X_T62U6  COST  20.0802  DEM_T62  1
    X_T62U6  SU_T62U6  1  SU_T63U6  -1
    X_T62U7  COST  33.2014  DEM_T62  1
    X_T62U7  SU_T62U7  1  SU_T63U7  -1
    X_T62U8  COST  15.6742  DEM_T62  1
    X_T62U8  SU_T62U8  1  SU_T63U8  -1
    X_T62U9  COST  30.8687  DEM_T62  1
    X_T62U9  SU_T62U9  1  SU_T63U9  -1
    X_T62U10  COST  15.9952  DEM_T62  1
    X_T62U10  SU_T62U10  1  SU_T63U10  -1
    X_T62U11  COST  27.0539  DEM_T62  1
    X_T62U11  SU_T62U11  1  SU_T63U11  -1
    X_T62U12  COST  16.3234  DEM_T62  1
    X_T62U12  SU_T62U12  1  SU_T63U12  -1
    X_T62U13  COST  35.6948  DEM_T62  1
    X_T62U13  SU_T62U13  1  SU_T63U13  -1
    X_T62U14  COST  37.8207  DEM_T62  1
    X_T62U14  SU_T62U14  1  SU_T63U14  -1
    X_T62U15  COST  19.5415  DEM_T62  1
    X_T62U15  SU_T62U15  1  SU_T63U15  -1
    X_T62U16  COST  22.9334  DEM_T62  1
    X_T62U16  SU_T62U16  1  SU_T63U16  -1
    X_T62U17  COST  18.484  DEM_T62  1
    X_T62U17  SU_T62U17  1  SU_T63U17  -1
    X_T62U18  COST  18.7755  DEM_T62  1
    X_T62U18  SU_T62U18  1  SU_T63U18  -1
    X_T62U19  COST  18.8133  DEM_T62  1
    X_T62U19  SU_T62U19  1  SU_T63U19  -1
    X_T62U20  COST  29.1128  DEM_T62  1
    X_T62U20  SU_T62U20  1  SU_T63U20  -1
    X_T62U21  COST  29.6015  DEM_T62  1
    X_T62U21  SU_T62U21  1  SU_T63U21  -1
    X_T62U22  COST  18.8696  DEM_T62  1
    X_T62U22  SU_T62U22  1  SU_T63U22  -1
    X_T62U23  COST  27.9888  DEM_T62  1
    X_T62U23  SU_T62U23  1  SU_T63U23  -1
    X_T62U24  COST  20.5124  DEM_T62  1
    X_T62U24  SU_T62U24  1  SU_T63U24  -1
    X_T62U25  COST  20.1931  DEM_T62  1
    X_T62U25  SU_T62U25  1  SU_T63U25  -1
    X_T62U26  COST  30.3434  DEM_T62  1
    X_T62U26  SU_T62U26  1  SU_T63U26  -1
    X_T62U27  COST  20.4066  DEM_T62  1
    X_T62U27  SU_T62U27  1  SU_T63U27  -1
    X_T62U28  COST  33.8344  DEM_T62  1
    X_T62U28  SU_T62U28  1  SU_T63U28  -1
    X_T62U29  COST  14.2677  DEM_T62  1
    X_T62U29  SU_T62U29  1  SU_T63U29  -1
    X_T62U30  COST  35.486  DEM_T62  1
    X_T62U30  SU_T62U30  1  SU_T63U30  -1
    X_T63U1  COST  39.7509  DEM_T63  1
    X_T63U1  SU_T63U1  1  SU_T64U1  -1
    X_T63U2  COST  39.5454  DEM_T63  1
    X_T63U2  SU_T63U2  1  SU_T64U2  -1
    X_T63U3  COST  23.5844  DEM_T63  1
    X_T63U3  SU_T63U3  1  SU_T64U3  -1
    X_T63U4  COST  14.9465  DEM_T63  1
    X_T63U4  SU_T63U4  1  SU_T64U4  -1
    X_T63U5  COST  31.304  DEM_T63  1
    X_T63U5  SU_T63U5  1  SU_T64U5  -1
    X_T63U6  COST  20.2428  DEM_T63  1
    X_T63U6  SU_T63U6  1  SU_T64U6  -1
    X_T63U7  COST  37.397  DEM_T63  1
    X_T63U7  SU_T63U7  1  SU_T64U7  -1
    X_T63U8  COST  10.1508  DEM_T63  1
    X_T63U8  SU_T63U8  1  SU_T64U8  -1
    X_T63U9  COST  37.143  DEM_T63  1
    X_T63U9  SU_T63U9  1  SU_T64U9  -1
    X_T63U10  COST  18.1912  DEM_T63  1
    X_T63U10  SU_T63U10  1  SU_T64U10  -1
    X_T63U11  COST  18.828  DEM_T63  1
    X_T63U11  SU_T63U11  1  SU_T64U11  -1
    X_T63U12  COST  38.246  DEM_T63  1
    X_T63U12  SU_T63U12  1  SU_T64U12  -1
    X_T63U13  COST  23.8717  DEM_T63  1
    X_T63U13  SU_T63U13  1  SU_T64U13  -1
    X_T63U14  COST  17.4837  DEM_T63  1
    X_T63U14  SU_T63U14  1  SU_T64U14  -1
    X_T63U15  COST  35.684  DEM_T63  1
    X_T63U15  SU_T63U15  1  SU_T64U15  -1
    X_T63U16  COST  32.7239  DEM_T63  1
    X_T63U16  SU_T63U16  1  SU_T64U16  -1
    X_T63U17  COST  18.9657  DEM_T63  1
    X_T63U17  SU_T63U17  1  SU_T64U17  -1
    X_T63U18  COST  23.2017  DEM_T63  1
    X_T63U18  SU_T63U18  1  SU_T64U18  -1
    X_T63U19  COST  38.2066  DEM_T63  1
    X_T63U19  SU_T63U19  1  SU_T64U19  -1
    X_T63U20  COST  35.8941  DEM_T63  1
    X_T63U20  SU_T63U20  1  SU_T64U20  -1
    X_T63U21  COST  15.2003  DEM_T63  1
    X_T63U21  SU_T63U21  1  SU_T64U21  -1
    X_T63U22  COST  13.5077  DEM_T63  1
    X_T63U22  SU_T63U22  1  SU_T64U22  -1
    X_T63U23  COST  38.497  DEM_T63  1
    X_T63U23  SU_T63U23  1  SU_T64U23  -1
    X_T63U24  COST  32.0165  DEM_T63  1
    X_T63U24  SU_T63U24  1  SU_T64U24  -1
    X_T63U25  COST  27.5082  DEM_T63  1
    X_T63U25  SU_T63U25  1  SU_T64U25  -1
    X_T63U26  COST  20.6539  DEM_T63  1
    X_T63U26  SU_T63U26  1  SU_T64U26  -1
    X_T63U27  COST  16.5373  DEM_T63  1
    X_T63U27  SU_T63U27  1  SU_T64U27  -1
    X_T63U28  COST  27.4425  DEM_T63  1
    X_T63U28  SU_T63U28  1  SU_T64U28  -1
    X_T63U29  COST  36.1906  DEM_T63  1
    X_T63U29  SU_T63U29  1  SU_T64U29  -1
    X_T63U30  COST  30.9907  DEM_T63  1
    X_T63U30  SU_T63U30  1  SU_T64U30  -1
    X_T64U1  COST  26.8174  DEM_T64  1
    X_T64U1  SU_T64U1  1  SU_T65U1  -1
    X_T64U2  COST  12.482  DEM_T64  1
    X_T64U2  SU_T64U2  1  SU_T65U2  -1
    X_T64U3  COST  33.3997  DEM_T64  1
    X_T64U3  SU_T64U3  1  SU_T65U3  -1
    X_T64U4  COST  12.2698  DEM_T64  1
    X_T64U4  SU_T64U4  1  SU_T65U4  -1
    X_T64U5  COST  12.765  DEM_T64  1
    X_T64U5  SU_T64U5  1  SU_T65U5  -1
    X_T64U6  COST  16.7883  DEM_T64  1
    X_T64U6  SU_T64U6  1  SU_T65U6  -1
    X_T64U7  COST  33.505  DEM_T64  1
    X_T64U7  SU_T64U7  1  SU_T65U7  -1
    X_T64U8  COST  28.5083  DEM_T64  1
    X_T64U8  SU_T64U8  1  SU_T65U8  -1
    X_T64U9  COST  16.6919  DEM_T64  1
    X_T64U9  SU_T64U9  1  SU_T65U9  -1
    X_T64U10  COST  33.6848  DEM_T64  1
    X_T64U10  SU_T64U10  1  SU_T65U10  -1
    X_T64U11  COST  26.8377  DEM_T64  1
    X_T64U11  SU_T64U11  1  SU_T65U11  -1
    X_T64U12  COST  22.7064  DEM_T64  1
    X_T64U12  SU_T64U12  1  SU_T65U12  -1
    X_T64U13  COST  10.9534  DEM_T64  1
    X_T64U13  SU_T64U13  1  SU_T65U13  -1
    X_T64U14  COST  17.2021  DEM_T64  1
    X_T64U14  SU_T64U14  1  SU_T65U14  -1
    X_T64U15  COST  13.471  DEM_T64  1
    X_T64U15  SU_T64U15  1  SU_T65U15  -1
    X_T64U16  COST  25.7076  DEM_T64  1
    X_T64U16  SU_T64U16  1  SU_T65U16  -1
    X_T64U17  COST  39.683  DEM_T64  1
    X_T64U17  SU_T64U17  1  SU_T65U17  -1
    X_T64U18  COST  14.1366  DEM_T64  1
    X_T64U18  SU_T64U18  1  SU_T65U18  -1
    X_T64U19  COST  36.9323  DEM_T64  1
    X_T64U19  SU_T64U19  1  SU_T65U19  -1
    X_T64U20  COST  12.2932  DEM_T64  1
    X_T64U20  SU_T64U20  1  SU_T65U20  -1
    X_T64U21  COST  33.8179  DEM_T64  1
    X_T64U21  SU_T64U21  1  SU_T65U21  -1
    X_T64U22  COST  11.5536  DEM_T64  1
    X_T64U22  SU_T64U22  1  SU_T65U22  -1
    X_T64U23  COST  14.6811  DEM_T64  1
    X_T64U23  SU_T64U23  1  SU_T65U23  -1
    X_T64U24  COST  20.75  DEM_T64  1
    X_T64U24  SU_T64U24  1  SU_T65U24  -1
    X_T64U25  COST  26.9706  DEM_T64  1
    X_T64U25  SU_T64U25  1  SU_T65U25  -1
    X_T64U26  COST  14.188  DEM_T64  1
    X_T64U26  SU_T64U26  1  SU_T65U26  -1
    X_T64U27  COST  32.8565  DEM_T64  1
    X_T64U27  SU_T64U27  1  SU_T65U27  -1
    X_T64U28  COST  18.2727  DEM_T64  1
    X_T64U28  SU_T64U28  1  SU_T65U28  -1
    X_T64U29  COST  10.5027  DEM_T64  1
    X_T64U29  SU_T64U29  1  SU_T65U29  -1
    X_T64U30  COST  12.297  DEM_T64  1
    X_T64U30  SU_T64U30  1  SU_T65U30  -1
    X_T65U1  COST  28.0505  DEM_T65  1
    X_T65U1  SU_T65U1  1  SU_T66U1  -1
    X_T65U2  COST  19.3541  DEM_T65  1
    X_T65U2  SU_T65U2  1  SU_T66U2  -1
    X_T65U3  COST  29.6248  DEM_T65  1
    X_T65U3  SU_T65U3  1  SU_T66U3  -1
    X_T65U4  COST  19.9633  DEM_T65  1
    X_T65U4  SU_T65U4  1  SU_T66U4  -1
    X_T65U5  COST  35.3459  DEM_T65  1
    X_T65U5  SU_T65U5  1  SU_T66U5  -1
    X_T65U6  COST  17.1743  DEM_T65  1
    X_T65U6  SU_T65U6  1  SU_T66U6  -1
    X_T65U7  COST  33.2072  DEM_T65  1
    X_T65U7  SU_T65U7  1  SU_T66U7  -1
    X_T65U8  COST  30.8001  DEM_T65  1
    X_T65U8  SU_T65U8  1  SU_T66U8  -1
    X_T65U9  COST  16.9444  DEM_T65  1
    X_T65U9  SU_T65U9  1  SU_T66U9  -1
    X_T65U10  COST  38.2055  DEM_T65  1
    X_T65U10  SU_T65U10  1  SU_T66U10  -1
    X_T65U11  COST  19.5896  DEM_T65  1
    X_T65U11  SU_T65U11  1  SU_T66U11  -1
    X_T65U12  COST  36.9778  DEM_T65  1
    X_T65U12  SU_T65U12  1  SU_T66U12  -1
    X_T65U13  COST  23.3235  DEM_T65  1
    X_T65U13  SU_T65U13  1  SU_T66U13  -1
    X_T65U14  COST  25.9498  DEM_T65  1
    X_T65U14  SU_T65U14  1  SU_T66U14  -1
    X_T65U15  COST  18.343  DEM_T65  1
    X_T65U15  SU_T65U15  1  SU_T66U15  -1
    X_T65U16  COST  18.6402  DEM_T65  1
    X_T65U16  SU_T65U16  1  SU_T66U16  -1
    X_T65U17  COST  10.8747  DEM_T65  1
    X_T65U17  SU_T65U17  1  SU_T66U17  -1
    X_T65U18  COST  14.6885  DEM_T65  1
    X_T65U18  SU_T65U18  1  SU_T66U18  -1
    X_T65U19  COST  25.5483  DEM_T65  1
    X_T65U19  SU_T65U19  1  SU_T66U19  -1
    X_T65U20  COST  12.8719  DEM_T65  1
    X_T65U20  SU_T65U20  1  SU_T66U20  -1
    X_T65U21  COST  39.0602  DEM_T65  1
    X_T65U21  SU_T65U21  1  SU_T66U21  -1
    X_T65U22  COST  19.3915  DEM_T65  1
    X_T65U22  SU_T65U22  1  SU_T66U22  -1
    X_T65U23  COST  11.5064  DEM_T65  1
    X_T65U23  SU_T65U23  1  SU_T66U23  -1
    X_T65U24  COST  21.3885  DEM_T65  1
    X_T65U24  SU_T65U24  1  SU_T66U24  -1
    X_T65U25  COST  18.571  DEM_T65  1
    X_T65U25  SU_T65U25  1  SU_T66U25  -1
    X_T65U26  COST  19.4448  DEM_T65  1
    X_T65U26  SU_T65U26  1  SU_T66U26  -1
    X_T65U27  COST  33.4289  DEM_T65  1
    X_T65U27  SU_T65U27  1  SU_T66U27  -1
    X_T65U28  COST  23.3171  DEM_T65  1
    X_T65U28  SU_T65U28  1  SU_T66U28  -1
    X_T65U29  COST  29.7416  DEM_T65  1
    X_T65U29  SU_T65U29  1  SU_T66U29  -1
    X_T65U30  COST  38.2952  DEM_T65  1
    X_T65U30  SU_T65U30  1  SU_T66U30  -1
    X_T66U1  COST  13.2284  DEM_T66  1
    X_T66U1  SU_T66U1  1  SU_T67U1  -1
    X_T66U2  COST  25.0143  DEM_T66  1
    X_T66U2  SU_T66U2  1  SU_T67U2  -1
    X_T66U3  COST  17.4851  DEM_T66  1
    X_T66U3  SU_T66U3  1  SU_T67U3  -1
    X_T66U4  COST  18.2315  DEM_T66  1
    X_T66U4  SU_T66U4  1  SU_T67U4  -1
    X_T66U5  COST  16.4561  DEM_T66  1
    X_T66U5  SU_T66U5  1  SU_T67U5  -1
    X_T66U6  COST  26.7822  DEM_T66  1
    X_T66U6  SU_T66U6  1  SU_T67U6  -1
    X_T66U7  COST  31.3854  DEM_T66  1
    X_T66U7  SU_T66U7  1  SU_T67U7  -1
    X_T66U8  COST  19.7304  DEM_T66  1
    X_T66U8  SU_T66U8  1  SU_T67U8  -1
    X_T66U9  COST  16.3266  DEM_T66  1
    X_T66U9  SU_T66U9  1  SU_T67U9  -1
    X_T66U10  COST  34.6128  DEM_T66  1
    X_T66U10  SU_T66U10  1  SU_T67U10  -1
    X_T66U11  COST  13.9721  DEM_T66  1
    X_T66U11  SU_T66U11  1  SU_T67U11  -1
    X_T66U12  COST  28.5803  DEM_T66  1
    X_T66U12  SU_T66U12  1  SU_T67U12  -1
    X_T66U13  COST  33.4057  DEM_T66  1
    X_T66U13  SU_T66U13  1  SU_T67U13  -1
    X_T66U14  COST  15.734  DEM_T66  1
    X_T66U14  SU_T66U14  1  SU_T67U14  -1
    X_T66U15  COST  22.9295  DEM_T66  1
    X_T66U15  SU_T66U15  1  SU_T67U15  -1
    X_T66U16  COST  15.9429  DEM_T66  1
    X_T66U16  SU_T66U16  1  SU_T67U16  -1
    X_T66U17  COST  36.6136  DEM_T66  1
    X_T66U17  SU_T66U17  1  SU_T67U17  -1
    X_T66U18  COST  24.9069  DEM_T66  1
    X_T66U18  SU_T66U18  1  SU_T67U18  -1
    X_T66U19  COST  33.2887  DEM_T66  1
    X_T66U19  SU_T66U19  1  SU_T67U19  -1
    X_T66U20  COST  26.9626  DEM_T66  1
    X_T66U20  SU_T66U20  1  SU_T67U20  -1
    X_T66U21  COST  33.9163  DEM_T66  1
    X_T66U21  SU_T66U21  1  SU_T67U21  -1
    X_T66U22  COST  30.7122  DEM_T66  1
    X_T66U22  SU_T66U22  1  SU_T67U22  -1
    X_T66U23  COST  34.1489  DEM_T66  1
    X_T66U23  SU_T66U23  1  SU_T67U23  -1
    X_T66U24  COST  14.7887  DEM_T66  1
    X_T66U24  SU_T66U24  1  SU_T67U24  -1
    X_T66U25  COST  12.3042  DEM_T66  1
    X_T66U25  SU_T66U25  1  SU_T67U25  -1
    X_T66U26  COST  34.9045  DEM_T66  1
    X_T66U26  SU_T66U26  1  SU_T67U26  -1
    X_T66U27  COST  19.1381  DEM_T66  1
    X_T66U27  SU_T66U27  1  SU_T67U27  -1
    X_T66U28  COST  18.3968  DEM_T66  1
    X_T66U28  SU_T66U28  1  SU_T67U28  -1
    X_T66U29  COST  11.0779  DEM_T66  1
    X_T66U29  SU_T66U29  1  SU_T67U29  -1
    X_T66U30  COST  16.4109  DEM_T66  1
    X_T66U30  SU_T66U30  1  SU_T67U30  -1
    X_T67U1  COST  10.2906  DEM_T67  1
    X_T67U1  SU_T67U1  1  SU_T68U1  -1
    X_T67U2  COST  31.9347  DEM_T67  1
    X_T67U2  SU_T67U2  1  SU_T68U2  -1
    X_T67U3  COST  33.4485  DEM_T67  1
    X_T67U3  SU_T67U3  1  SU_T68U3  -1
    X_T67U4  COST  17.4362  DEM_T67  1
    X_T67U4  SU_T67U4  1  SU_T68U4  -1
    X_T67U5  COST  20.9234  DEM_T67  1
    X_T67U5  SU_T67U5  1  SU_T68U5  -1
    X_T67U6  COST  10.1877  DEM_T67  1
    X_T67U6  SU_T67U6  1  SU_T68U6  -1
    X_T67U7  COST  26.061  DEM_T67  1
    X_T67U7  SU_T67U7  1  SU_T68U7  -1
    X_T67U8  COST  32.5436  DEM_T67  1
    X_T67U8  SU_T67U8  1  SU_T68U8  -1
    X_T67U9  COST  25.3955  DEM_T67  1
    X_T67U9  SU_T67U9  1  SU_T68U9  -1
    X_T67U10  COST  12.7959  DEM_T67  1
    X_T67U10  SU_T67U10  1  SU_T68U10  -1
    X_T67U11  COST  14.9001  DEM_T67  1
    X_T67U11  SU_T67U11  1  SU_T68U11  -1
    X_T67U12  COST  19.5266  DEM_T67  1
    X_T67U12  SU_T67U12  1  SU_T68U12  -1
    X_T67U13  COST  12.6277  DEM_T67  1
    X_T67U13  SU_T67U13  1  SU_T68U13  -1
    X_T67U14  COST  15.7975  DEM_T67  1
    X_T67U14  SU_T67U14  1  SU_T68U14  -1
    X_T67U15  COST  28.7937  DEM_T67  1
    X_T67U15  SU_T67U15  1  SU_T68U15  -1
    X_T67U16  COST  18.3924  DEM_T67  1
    X_T67U16  SU_T67U16  1  SU_T68U16  -1
    X_T67U17  COST  29.8839  DEM_T67  1
    X_T67U17  SU_T67U17  1  SU_T68U17  -1
    X_T67U18  COST  32.7726  DEM_T67  1
    X_T67U18  SU_T67U18  1  SU_T68U18  -1
    X_T67U19  COST  24.5317  DEM_T67  1
    X_T67U19  SU_T67U19  1  SU_T68U19  -1
    X_T67U20  COST  26.5829  DEM_T67  1
    X_T67U20  SU_T67U20  1  SU_T68U20  -1
    X_T67U21  COST  16.2577  DEM_T67  1
    X_T67U21  SU_T67U21  1  SU_T68U21  -1
    X_T67U22  COST  37.3241  DEM_T67  1
    X_T67U22  SU_T67U22  1  SU_T68U22  -1
    X_T67U23  COST  32.0172  DEM_T67  1
    X_T67U23  SU_T67U23  1  SU_T68U23  -1
    X_T67U24  COST  22.2315  DEM_T67  1
    X_T67U24  SU_T67U24  1  SU_T68U24  -1
    X_T67U25  COST  15.1388  DEM_T67  1
    X_T67U25  SU_T67U25  1  SU_T68U25  -1
    X_T67U26  COST  27.5452  DEM_T67  1
    X_T67U26  SU_T67U26  1  SU_T68U26  -1
    X_T67U27  COST  34.0855  DEM_T67  1
    X_T67U27  SU_T67U27  1  SU_T68U27  -1
    X_T67U28  COST  39.281  DEM_T67  1
    X_T67U28  SU_T67U28  1  SU_T68U28  -1
    X_T67U29  COST  20.1193  DEM_T67  1
    X_T67U29  SU_T67U29  1  SU_T68U29  -1
    X_T67U30  COST  13.6633  DEM_T67  1
    X_T67U30  SU_T67U30  1  SU_T68U30  -1
    X_T68U1  COST  29.4432  DEM_T68  1
    X_T68U1  SU_T68U1  1  SU_T69U1  -1
    X_T68U2  COST  33.7156  DEM_T68  1
    X_T68U2  SU_T68U2  1  SU_T69U2  -1
    X_T68U3  COST  26.3675  DEM_T68  1
    X_T68U3  SU_T68U3  1  SU_T69U3  -1
    X_T68U4  COST  11.3588  DEM_T68  1
    X_T68U4  SU_T68U4  1  SU_T69U4  -1
    X_T68U5  COST  26.0546  DEM_T68  1
    X_T68U5  SU_T68U5  1  SU_T69U5  -1
    X_T68U6  COST  11.0482  DEM_T68  1
    X_T68U6  SU_T68U6  1  SU_T69U6  -1
    X_T68U7  COST  10.9006  DEM_T68  1
    X_T68U7  SU_T68U7  1  SU_T69U7  -1
    X_T68U8  COST  25.1386  DEM_T68  1
    X_T68U8  SU_T68U8  1  SU_T69U8  -1
    X_T68U9  COST  15.0719  DEM_T68  1
    X_T68U9  SU_T68U9  1  SU_T69U9  -1
    X_T68U10  COST  32.8503  DEM_T68  1
    X_T68U10  SU_T68U10  1  SU_T69U10  -1
    X_T68U11  COST  29.1371  DEM_T68  1
    X_T68U11  SU_T68U11  1  SU_T69U11  -1
    X_T68U12  COST  33.0402  DEM_T68  1
    X_T68U12  SU_T68U12  1  SU_T69U12  -1
    X_T68U13  COST  23.3933  DEM_T68  1
    X_T68U13  SU_T68U13  1  SU_T69U13  -1
    X_T68U14  COST  29.961  DEM_T68  1
    X_T68U14  SU_T68U14  1  SU_T69U14  -1
    X_T68U15  COST  29.3458  DEM_T68  1
    X_T68U15  SU_T68U15  1  SU_T69U15  -1
    X_T68U16  COST  22.8887  DEM_T68  1
    X_T68U16  SU_T68U16  1  SU_T69U16  -1
    X_T68U17  COST  13.8752  DEM_T68  1
    X_T68U17  SU_T68U17  1  SU_T69U17  -1
    X_T68U18  COST  28.0958  DEM_T68  1
    X_T68U18  SU_T68U18  1  SU_T69U18  -1
    X_T68U19  COST  17.6075  DEM_T68  1
    X_T68U19  SU_T68U19  1  SU_T69U19  -1
    X_T68U20  COST  24.767  DEM_T68  1
    X_T68U20  SU_T68U20  1  SU_T69U20  -1
    X_T68U21  COST  29.5628  DEM_T68  1
    X_T68U21  SU_T68U21  1  SU_T69U21  -1
    X_T68U22  COST  33.7439  DEM_T68  1
    X_T68U22  SU_T68U22  1  SU_T69U22  -1
    X_T68U23  COST  25.3492  DEM_T68  1
    X_T68U23  SU_T68U23  1  SU_T69U23  -1
    X_T68U24  COST  18.6349  DEM_T68  1
    X_T68U24  SU_T68U24  1  SU_T69U24  -1
    X_T68U25  COST  38.9147  DEM_T68  1
    X_T68U25  SU_T68U25  1  SU_T69U25  -1
    X_T68U26  COST  14.5533  DEM_T68  1
    X_T68U26  SU_T68U26  1  SU_T69U26  -1
    X_T68U27  COST  38.3178  DEM_T68  1
    X_T68U27  SU_T68U27  1  SU_T69U27  -1
    X_T68U28  COST  10.1621  DEM_T68  1
    X_T68U28  SU_T68U28  1  SU_T69U28  -1
    X_T68U29  COST  21.343  DEM_T68  1
    X_T68U29  SU_T68U29  1  SU_T69U29  -1
    X_T68U30  COST  10.5516  DEM_T68  1
    X_T68U30  SU_T68U30  1  SU_T69U30  -1
    X_T69U1  COST  38.2919  DEM_T69  1
    X_T69U1  SU_T69U1  1  SU_T70U1  -1
    X_T69U2  COST  29.8342  DEM_T69  1
    X_T69U2  SU_T69U2  1  SU_T70U2  -1
    X_T69U3  COST  17.5324  DEM_T69  1
    X_T69U3  SU_T69U3  1  SU_T70U3  -1
    X_T69U4  COST  16.37  DEM_T69  1
    X_T69U4  SU_T69U4  1  SU_T70U4  -1
    X_T69U5  COST  31.0415  DEM_T69  1
    X_T69U5  SU_T69U5  1  SU_T70U5  -1
    X_T69U6  COST  39.9073  DEM_T69  1
    X_T69U6  SU_T69U6  1  SU_T70U6  -1
    X_T69U7  COST  27.8243  DEM_T69  1
    X_T69U7  SU_T69U7  1  SU_T70U7  -1
    X_T69U8  COST  13.7916  DEM_T69  1
    X_T69U8  SU_T69U8  1  SU_T70U8  -1
    X_T69U9  COST  28.682  DEM_T69  1
    X_T69U9  SU_T69U9  1  SU_T70U9  -1
    X_T69U10  COST  35.2605  DEM_T69  1
    X_T69U10  SU_T69U10  1  SU_T70U10  -1
    X_T69U11  COST  33.3237  DEM_T69  1
    X_T69U11  SU_T69U11  1  SU_T70U11  -1
    X_T69U12  COST  31.7276  DEM_T69  1
    X_T69U12  SU_T69U12  1  SU_T70U12  -1
    X_T69U13  COST  29.0024  DEM_T69  1
    X_T69U13  SU_T69U13  1  SU_T70U13  -1
    X_T69U14  COST  21.9365  DEM_T69  1
    X_T69U14  SU_T69U14  1  SU_T70U14  -1
    X_T69U15  COST  27.7605  DEM_T69  1
    X_T69U15  SU_T69U15  1  SU_T70U15  -1
    X_T69U16  COST  10.7405  DEM_T69  1
    X_T69U16  SU_T69U16  1  SU_T70U16  -1
    X_T69U17  COST  26.4009  DEM_T69  1
    X_T69U17  SU_T69U17  1  SU_T70U17  -1
    X_T69U18  COST  13.8246  DEM_T69  1
    X_T69U18  SU_T69U18  1  SU_T70U18  -1
    X_T69U19  COST  35.8903  DEM_T69  1
    X_T69U19  SU_T69U19  1  SU_T70U19  -1
    X_T69U20  COST  35.5478  DEM_T69  1
    X_T69U20  SU_T69U20  1  SU_T70U20  -1
    X_T69U21  COST  31.8052  DEM_T69  1
    X_T69U21  SU_T69U21  1  SU_T70U21  -1
    X_T69U22  COST  39.8325  DEM_T69  1
    X_T69U22  SU_T69U22  1  SU_T70U22  -1
    X_T69U23  COST  19.2366  DEM_T69  1
    X_T69U23  SU_T69U23  1  SU_T70U23  -1
    X_T69U24  COST  28.4346  DEM_T69  1
    X_T69U24  SU_T69U24  1  SU_T70U24  -1
    X_T69U25  COST  17.6091  DEM_T69  1
    X_T69U25  SU_T69U25  1  SU_T70U25  -1
    X_T69U26  COST  12.45  DEM_T69  1
    X_T69U26  SU_T69U26  1  SU_T70U26  -1
    X_T69U27  COST  19.7747  DEM_T69  1
    X_T69U27  SU_T69U27  1  SU_T70U27  -1
    X_T69U28  COST  23.271  DEM_T69  1
    X_T69U28  SU_T69U28  1  SU_T70U28  -1
    X_T69U29  COST  30.5388  DEM_T69  1
    X_T69U29  SU_T69U29  1  SU_T70U29  -1
    X_T69U30  COST  35.1179  DEM_T69  1
    X_T69U30  SU_T69U30  1  SU_T70U30  -1
    X_T70U1  COST  13.7881  DEM_T70  1
    X_T70U1  SU_T70U1  1  SU_T71U1  -1
    X_T70U2  COST  37.7276  DEM_T70  1
    X_T70U2  SU_T70U2  1  SU_T71U2  -1
    X_T70U3  COST  24.9691  DEM_T70  1
    X_T70U3  SU_T70U3  1  SU_T71U3  -1
    X_T70U4  COST  36.828  DEM_T70  1
    X_T70U4  SU_T70U4  1  SU_T71U4  -1
    X_T70U5  COST  18.6475  DEM_T70  1
    X_T70U5  SU_T70U5  1  SU_T71U5  -1
    X_T70U6  COST  36.736  DEM_T70  1
    X_T70U6  SU_T70U6  1  SU_T71U6  -1
    X_T70U7  COST  19.6818  DEM_T70  1
    X_T70U7  SU_T70U7  1  SU_T71U7  -1
    X_T70U8  COST  14.4465  DEM_T70  1
    X_T70U8  SU_T70U8  1  SU_T71U8  -1
    X_T70U9  COST  34.4583  DEM_T70  1
    X_T70U9  SU_T70U9  1  SU_T71U9  -1
    X_T70U10  COST  34.7082  DEM_T70  1
    X_T70U10  SU_T70U10  1  SU_T71U10  -1
    X_T70U11  COST  26.5934  DEM_T70  1
    X_T70U11  SU_T70U11  1  SU_T71U11  -1
    X_T70U12  COST  21.5213  DEM_T70  1
    X_T70U12  SU_T70U12  1  SU_T71U12  -1
    X_T70U13  COST  39.6651  DEM_T70  1
    X_T70U13  SU_T70U13  1  SU_T71U13  -1
    X_T70U14  COST  21.697  DEM_T70  1
    X_T70U14  SU_T70U14  1  SU_T71U14  -1
    X_T70U15  COST  14.1405  DEM_T70  1
    X_T70U15  SU_T70U15  1  SU_T71U15  -1
    X_T70U16  COST  34.8917  DEM_T70  1
    X_T70U16  SU_T70U16  1  SU_T71U16  -1
    X_T70U17  COST  22.1418  DEM_T70  1
    X_T70U17  SU_T70U17  1  SU_T71U17  -1
    X_T70U18  COST  11.9744  DEM_T70  1
    X_T70U18  SU_T70U18  1  SU_T71U18  -1
    X_T70U19  COST  23.9144  DEM_T70  1
    X_T70U19  SU_T70U19  1  SU_T71U19  -1
    X_T70U20  COST  24.2938  DEM_T70  1
    X_T70U20  SU_T70U20  1  SU_T71U20  -1
    X_T70U21  COST  24.6711  DEM_T70  1
    X_T70U21  SU_T70U21  1  SU_T71U21  -1
    X_T70U22  COST  27.769  DEM_T70  1
    X_T70U22  SU_T70U22  1  SU_T71U22  -1
    X_T70U23  COST  20.9401  DEM_T70  1
    X_T70U23  SU_T70U23  1  SU_T71U23  -1
    X_T70U24  COST  29.9985  DEM_T70  1
    X_T70U24  SU_T70U24  1  SU_T71U24  -1
    X_T70U25  COST  27.1793  DEM_T70  1
    X_T70U25  SU_T70U25  1  SU_T71U25  -1
    X_T70U26  COST  34.1229  DEM_T70  1
    X_T70U26  SU_T70U26  1  SU_T71U26  -1
    X_T70U27  COST  39.8405  DEM_T70  1
    X_T70U27  SU_T70U27  1  SU_T71U27  -1
    X_T70U28  COST  33.4104  DEM_T70  1
    X_T70U28  SU_T70U28  1  SU_T71U28  -1
    X_T70U29  COST  33.025  DEM_T70  1
    X_T70U29  SU_T70U29  1  SU_T71U29  -1
    X_T70U30  COST  24.7616  DEM_T70  1
    X_T70U30  SU_T70U30  1  SU_T71U30  -1
    X_T71U1  COST  16.9762  DEM_T71  1
    X_T71U1  SU_T71U1  1  SU_T72U1  -1
    X_T71U2  COST  26.5315  DEM_T71  1
    X_T71U2  SU_T71U2  1  SU_T72U2  -1
    X_T71U3  COST  18.4679  DEM_T71  1
    X_T71U3  SU_T71U3  1  SU_T72U3  -1
    X_T71U4  COST  18.3354  DEM_T71  1
    X_T71U4  SU_T71U4  1  SU_T72U4  -1
    X_T71U5  COST  29.557  DEM_T71  1
    X_T71U5  SU_T71U5  1  SU_T72U5  -1
    X_T71U6  COST  39.2642  DEM_T71  1
    X_T71U6  SU_T71U6  1  SU_T72U6  -1
    X_T71U7  COST  12.0008  DEM_T71  1
    X_T71U7  SU_T71U7  1  SU_T72U7  -1
    X_T71U8  COST  18.87  DEM_T71  1
    X_T71U8  SU_T71U8  1  SU_T72U8  -1
    X_T71U9  COST  25.6964  DEM_T71  1
    X_T71U9  SU_T71U9  1  SU_T72U9  -1
    X_T71U10  COST  21.975  DEM_T71  1
    X_T71U10  SU_T71U10  1  SU_T72U10  -1
    X_T71U11  COST  29.5885  DEM_T71  1
    X_T71U11  SU_T71U11  1  SU_T72U11  -1
    X_T71U12  COST  39.311  DEM_T71  1
    X_T71U12  SU_T71U12  1  SU_T72U12  -1
    X_T71U13  COST  14.0706  DEM_T71  1
    X_T71U13  SU_T71U13  1  SU_T72U13  -1
    X_T71U14  COST  12.2392  DEM_T71  1
    X_T71U14  SU_T71U14  1  SU_T72U14  -1
    X_T71U15  COST  39.897  DEM_T71  1
    X_T71U15  SU_T71U15  1  SU_T72U15  -1
    X_T71U16  COST  33.1134  DEM_T71  1
    X_T71U16  SU_T71U16  1  SU_T72U16  -1
    X_T71U17  COST  38.2473  DEM_T71  1
    X_T71U17  SU_T71U17  1  SU_T72U17  -1
    X_T71U18  COST  31.9717  DEM_T71  1
    X_T71U18  SU_T71U18  1  SU_T72U18  -1
    X_T71U19  COST  39.2554  DEM_T71  1
    X_T71U19  SU_T71U19  1  SU_T72U19  -1
    X_T71U20  COST  19.0905  DEM_T71  1
    X_T71U20  SU_T71U20  1  SU_T72U20  -1
    X_T71U21  COST  28.8436  DEM_T71  1
    X_T71U21  SU_T71U21  1  SU_T72U21  -1
    X_T71U22  COST  30.2832  DEM_T71  1
    X_T71U22  SU_T71U22  1  SU_T72U22  -1
    X_T71U23  COST  21.1007  DEM_T71  1
    X_T71U23  SU_T71U23  1  SU_T72U23  -1
    X_T71U24  COST  33.7004  DEM_T71  1
    X_T71U24  SU_T71U24  1  SU_T72U24  -1
    X_T71U25  COST  27.3919  DEM_T71  1
    X_T71U25  SU_T71U25  1  SU_T72U25  -1
    X_T71U26  COST  34.4731  DEM_T71  1
    X_T71U26  SU_T71U26  1  SU_T72U26  -1
    X_T71U27  COST  12.3017  DEM_T71  1
    X_T71U27  SU_T71U27  1  SU_T72U27  -1
    X_T71U28  COST  11.8331  DEM_T71  1
    X_T71U28  SU_T71U28  1  SU_T72U28  -1
    X_T71U29  COST  13.1901  DEM_T71  1
    X_T71U29  SU_T71U29  1  SU_T72U29  -1
    X_T71U30  COST  38.2314  DEM_T71  1
    X_T71U30  SU_T71U30  1  SU_T72U30  -1
    X_T72U1  COST  23.5626  DEM_T72  1
    X_T72U1  SU_T72U1  1  SU_T73U1  -1
    X_T72U2  COST  10.0056  DEM_T72  1
    X_T72U2  SU_T72U2  1  SU_T73U2  -1
    X_T72U3  COST  28.4928  DEM_T72  1
    X_T72U3  SU_T72U3  1  SU_T73U3  -1
    X_T72U4  COST  21.9084  DEM_T72  1
    X_T72U4  SU_T72U4  1  SU_T73U4  -1
    X_T72U5  COST  22.4488  DEM_T72  1
    X_T72U5  SU_T72U5  1  SU_T73U5  -1
    X_T72U6  COST  14.0607  DEM_T72  1
    X_T72U6  SU_T72U6  1  SU_T73U6  -1
    X_T72U7  COST  15.4155  DEM_T72  1
    X_T72U7  SU_T72U7  1  SU_T73U7  -1
    X_T72U8  COST  25.7578  DEM_T72  1
    X_T72U8  SU_T72U8  1  SU_T73U8  -1
    X_T72U9  COST  36.0451  DEM_T72  1
    X_T72U9  SU_T72U9  1  SU_T73U9  -1
    X_T72U10  COST  14.8761  DEM_T72  1
    X_T72U10  SU_T72U10  1  SU_T73U10  -1
    X_T72U11  COST  11.1426  DEM_T72  1
    X_T72U11  SU_T72U11  1  SU_T73U11  -1
    X_T72U12  COST  30.946  DEM_T72  1
    X_T72U12  SU_T72U12  1  SU_T73U12  -1
    X_T72U13  COST  11.2589  DEM_T72  1
    X_T72U13  SU_T72U13  1  SU_T73U13  -1
    X_T72U14  COST  12.9578  DEM_T72  1
    X_T72U14  SU_T72U14  1  SU_T73U14  -1
    X_T72U15  COST  17.6278  DEM_T72  1
    X_T72U15  SU_T72U15  1  SU_T73U15  -1
    X_T72U16  COST  25.8991  DEM_T72  1
    X_T72U16  SU_T72U16  1  SU_T73U16  -1
    X_T72U17  COST  27.7831  DEM_T72  1
    X_T72U17  SU_T72U17  1  SU_T73U17  -1
    X_T72U18  COST  15.1626  DEM_T72  1
    X_T72U18  SU_T72U18  1  SU_T73U18  -1
    X_T72U19  COST  26.7506  DEM_T72  1
    X_T72U19  SU_T72U19  1  SU_T73U19  -1
    X_T72U20  COST  21.1464  DEM_T72  1
    X_T72U20  SU_T72U20  1  SU_T73U20  -1
    X_T72U21  COST  25.7099  DEM_T72  1
    X_T72U21  SU_T72U21  1  SU_T73U21  -1
    X_T72U22  COST  24.0975  DEM_T72  1
    X_T72U22  SU_T72U22  1  SU_T73U22  -1
    X_T72U23  COST  16.0231  DEM_T72  1
    X_T72U23  SU_T72U23  1  SU_T73U23  -1
    X_T72U24  COST  33.7423  DEM_T72  1
    X_T72U24  SU_T72U24  1  SU_T73U24  -1
    X_T72U25  COST  20.7938  DEM_T72  1
    X_T72U25  SU_T72U25  1  SU_T73U25  -1
    X_T72U26  COST  15.8559  DEM_T72  1
    X_T72U26  SU_T72U26  1  SU_T73U26  -1
    X_T72U27  COST  19.693  DEM_T72  1
    X_T72U27  SU_T72U27  1  SU_T73U27  -1
    X_T72U28  COST  19.7705  DEM_T72  1
    X_T72U28  SU_T72U28  1  SU_T73U28  -1
    X_T72U29  COST  28.1  DEM_T72  1
    X_T72U29  SU_T72U29  1  SU_T73U29  -1
    X_T72U30  COST  24.0856  DEM_T72  1
    X_T72U30  SU_T72U30  1  SU_T73U30  -1
    X_T73U1  COST  39.8691  DEM_T73  1
    X_T73U1  SU_T73U1  1  SU_T74U1  -1
    X_T73U2  COST  36.852  DEM_T73  1
    X_T73U2  SU_T73U2  1  SU_T74U2  -1
    X_T73U3  COST  33.5778  DEM_T73  1
    X_T73U3  SU_T73U3  1  SU_T74U3  -1
    X_T73U4  COST  20.2554  DEM_T73  1
    X_T73U4  SU_T73U4  1  SU_T74U4  -1
    X_T73U5  COST  10.3872  DEM_T73  1
    X_T73U5  SU_T73U5  1  SU_T74U5  -1
    X_T73U6  COST  27.0068  DEM_T73  1
    X_T73U6  SU_T73U6  1  SU_T74U6  -1
    X_T73U7  COST  28.3113  DEM_T73  1
    X_T73U7  SU_T73U7  1  SU_T74U7  -1
    X_T73U8  COST  13.4938  DEM_T73  1
    X_T73U8  SU_T73U8  1  SU_T74U8  -1
    X_T73U9  COST  15.6785  DEM_T73  1
    X_T73U9  SU_T73U9  1  SU_T74U9  -1
    X_T73U10  COST  32.5639  DEM_T73  1
    X_T73U10  SU_T73U10  1  SU_T74U10  -1
    X_T73U11  COST  35.0612  DEM_T73  1
    X_T73U11  SU_T73U11  1  SU_T74U11  -1
    X_T73U12  COST  23.2345  DEM_T73  1
    X_T73U12  SU_T73U12  1  SU_T74U12  -1
    X_T73U13  COST  17.9342  DEM_T73  1
    X_T73U13  SU_T73U13  1  SU_T74U13  -1
    X_T73U14  COST  12.0433  DEM_T73  1
    X_T73U14  SU_T73U14  1  SU_T74U14  -1
    X_T73U15  COST  38.0613  DEM_T73  1
    X_T73U15  SU_T73U15  1  SU_T74U15  -1
    X_T73U16  COST  23.3616  DEM_T73  1
    X_T73U16  SU_T73U16  1  SU_T74U16  -1
    X_T73U17  COST  17.422  DEM_T73  1
    X_T73U17  SU_T73U17  1  SU_T74U17  -1
    X_T73U18  COST  14.9389  DEM_T73  1
    X_T73U18  SU_T73U18  1  SU_T74U18  -1
    X_T73U19  COST  10.4299  DEM_T73  1
    X_T73U19  SU_T73U19  1  SU_T74U19  -1
    X_T73U20  COST  10.6306  DEM_T73  1
    X_T73U20  SU_T73U20  1  SU_T74U20  -1
    X_T73U21  COST  34.7456  DEM_T73  1
    X_T73U21  SU_T73U21  1  SU_T74U21  -1
    X_T73U22  COST  18.5009  DEM_T73  1
    X_T73U22  SU_T73U22  1  SU_T74U22  -1
    X_T73U23  COST  26.2899  DEM_T73  1
    X_T73U23  SU_T73U23  1  SU_T74U23  -1
    X_T73U24  COST  28.7599  DEM_T73  1
    X_T73U24  SU_T73U24  1  SU_T74U24  -1
    X_T73U25  COST  14.2888  DEM_T73  1
    X_T73U25  SU_T73U25  1  SU_T74U25  -1
    X_T73U26  COST  17.3248  DEM_T73  1
    X_T73U26  SU_T73U26  1  SU_T74U26  -1
    X_T73U27  COST  21.5531  DEM_T73  1
    X_T73U27  SU_T73U27  1  SU_T74U27  -1
    X_T73U28  COST  38.5725  DEM_T73  1
    X_T73U28  SU_T73U28  1  SU_T74U28  -1
    X_T73U29  COST  18.1186  DEM_T73  1
    X_T73U29  SU_T73U29  1  SU_T74U29  -1
    X_T73U30  COST  24.233  DEM_T73  1
    X_T73U30  SU_T73U30  1  SU_T74U30  -1
    X_T74U1  COST  10.7743  DEM_T74  1
    X_T74U1  SU_T74U1  1  SU_T75U1  -1
    X_T74U2  COST  25.6135  DEM_T74  1
    X_T74U2  SU_T74U2  1  SU_T75U2  -1
    X_T74U3  COST  16.0553  DEM_T74  1
    X_T74U3  SU_T74U3  1  SU_T75U3  -1
    X_T74U4  COST  13.4062  DEM_T74  1
    X_T74U4  SU_T74U4  1  SU_T75U4  -1
    X_T74U5  COST  33.3343  DEM_T74  1
    X_T74U5  SU_T74U5  1  SU_T75U5  -1
    X_T74U6  COST  37.0829  DEM_T74  1
    X_T74U6  SU_T74U6  1  SU_T75U6  -1
    X_T74U7  COST  23.5358  DEM_T74  1
    X_T74U7  SU_T74U7  1  SU_T75U7  -1
    X_T74U8  COST  27.6764  DEM_T74  1
    X_T74U8  SU_T74U8  1  SU_T75U8  -1
    X_T74U9  COST  23.547  DEM_T74  1
    X_T74U9  SU_T74U9  1  SU_T75U9  -1
    X_T74U10  COST  39.5209  DEM_T74  1
    X_T74U10  SU_T74U10  1  SU_T75U10  -1
    X_T74U11  COST  32.7027  DEM_T74  1
    X_T74U11  SU_T74U11  1  SU_T75U11  -1
    X_T74U12  COST  14.9822  DEM_T74  1
    X_T74U12  SU_T74U12  1  SU_T75U12  -1
    X_T74U13  COST  30.7218  DEM_T74  1
    X_T74U13  SU_T74U13  1  SU_T75U13  -1
    X_T74U14  COST  11.4092  DEM_T74  1
    X_T74U14  SU_T74U14  1  SU_T75U14  -1
    X_T74U15  COST  12.7342  DEM_T74  1
    X_T74U15  SU_T74U15  1  SU_T75U15  -1
    X_T74U16  COST  30.1717  DEM_T74  1
    X_T74U16  SU_T74U16  1  SU_T75U16  -1
    X_T74U17  COST  11.6625  DEM_T74  1
    X_T74U17  SU_T74U17  1  SU_T75U17  -1
    X_T74U18  COST  32.9791  DEM_T74  1
    X_T74U18  SU_T74U18  1  SU_T75U18  -1
    X_T74U19  COST  29.5892  DEM_T74  1
    X_T74U19  SU_T74U19  1  SU_T75U19  -1
    X_T74U20  COST  10.6666  DEM_T74  1
    X_T74U20  SU_T74U20  1  SU_T75U20  -1
    X_T74U21  COST  11.2428  DEM_T74  1
    X_T74U21  SU_T74U21  1  SU_T75U21  -1
    X_T74U22  COST  26.4959  DEM_T74  1
    X_T74U22  SU_T74U22  1  SU_T75U22  -1
    X_T74U23  COST  13.4426  DEM_T74  1
    X_T74U23  SU_T74U23  1  SU_T75U23  -1
    X_T74U24  COST  15.0851  DEM_T74  1
    X_T74U24  SU_T74U24  1  SU_T75U24  -1
    X_T74U25  COST  28.5259  DEM_T74  1
    X_T74U25  SU_T74U25  1  SU_T75U25  -1
    X_T74U26  COST  27.6309  DEM_T74  1
    X_T74U26  SU_T74U26  1  SU_T75U26  -1
    X_T74U27  COST  19.9596  DEM_T74  1
    X_T74U27  SU_T74U27  1  SU_T75U27  -1
    X_T74U28  COST  23.1115  DEM_T74  1
    X_T74U28  SU_T74U28  1  SU_T75U28  -1
    X_T74U29  COST  29.4237  DEM_T74  1
    X_T74U29  SU_T74U29  1  SU_T75U29  -1
    X_T74U30  COST  19.7477  DEM_T74  1
    X_T74U30  SU_T74U30  1  SU_T75U30  -1
    X_T75U1  COST  38.8485  DEM_T75  1
    X_T75U1  SU_T75U1  1  SU_T76U1  -1
    X_T75U2  COST  24.6961  DEM_T75  1
    X_T75U2  SU_T75U2  1  SU_T76U2  -1
    X_T75U3  COST  32.1905  DEM_T75  1
    X_T75U3  SU_T75U3  1  SU_T76U3  -1
    X_T75U4  COST  10.5003  DEM_T75  1
    X_T75U4  SU_T75U4  1  SU_T76U4  -1
    X_T75U5  COST  34.314  DEM_T75  1
    X_T75U5  SU_T75U5  1  SU_T76U5  -1
    X_T75U6  COST  31.9469  DEM_T75  1
    X_T75U6  SU_T75U6  1  SU_T76U6  -1
    X_T75U7  COST  25.6565  DEM_T75  1
    X_T75U7  SU_T75U7  1  SU_T76U7  -1
    X_T75U8  COST  15.4368  DEM_T75  1
    X_T75U8  SU_T75U8  1  SU_T76U8  -1
    X_T75U9  COST  36.7041  DEM_T75  1
    X_T75U9  SU_T75U9  1  SU_T76U9  -1
    X_T75U10  COST  23.7893  DEM_T75  1
    X_T75U10  SU_T75U10  1  SU_T76U10  -1
    X_T75U11  COST  28.5583  DEM_T75  1
    X_T75U11  SU_T75U11  1  SU_T76U11  -1
    X_T75U12  COST  11.7753  DEM_T75  1
    X_T75U12  SU_T75U12  1  SU_T76U12  -1
    X_T75U13  COST  33.0676  DEM_T75  1
    X_T75U13  SU_T75U13  1  SU_T76U13  -1
    X_T75U14  COST  10.3324  DEM_T75  1
    X_T75U14  SU_T75U14  1  SU_T76U14  -1
    X_T75U15  COST  27.1537  DEM_T75  1
    X_T75U15  SU_T75U15  1  SU_T76U15  -1
    X_T75U16  COST  13.8271  DEM_T75  1
    X_T75U16  SU_T75U16  1  SU_T76U16  -1
    X_T75U17  COST  20.6313  DEM_T75  1
    X_T75U17  SU_T75U17  1  SU_T76U17  -1
    X_T75U18  COST  31.9264  DEM_T75  1
    X_T75U18  SU_T75U18  1  SU_T76U18  -1
    X_T75U19  COST  27.6706  DEM_T75  1
    X_T75U19  SU_T75U19  1  SU_T76U19  -1
    X_T75U20  COST  20.4956  DEM_T75  1
    X_T75U20  SU_T75U20  1  SU_T76U20  -1
    X_T75U21  COST  29.6771  DEM_T75  1
    X_T75U21  SU_T75U21  1  SU_T76U21  -1
    X_T75U22  COST  19.4503  DEM_T75  1
    X_T75U22  SU_T75U22  1  SU_T76U22  -1
    X_T75U23  COST  12.0746  DEM_T75  1
    X_T75U23  SU_T75U23  1  SU_T76U23  -1
    X_T75U24  COST  17.6362  DEM_T75  1
    X_T75U24  SU_T75U24  1  SU_T76U24  -1
    X_T75U25  COST  11.2995  DEM_T75  1
    X_T75U25  SU_T75U25  1  SU_T76U25  -1
    X_T75U26  COST  19.9168  DEM_T75  1
    X_T75U26  SU_T75U26  1  SU_T76U26  -1
    X_T75U27  COST  22.3721  DEM_T75  1
    X_T75U27  SU_T75U27  1  SU_T76U27  -1
    X_T75U28  COST  25.3953  DEM_T75  1
    X_T75U28  SU_T75U28  1  SU_T76U28  -1
    X_T75U29  COST  23.2162  DEM_T75  1
    X_T75U29  SU_T75U29  1  SU_T76U29  -1
    X_T75U30  COST  37.3588  DEM_T75  1
    X_T75U30  SU_T75U30  1  SU_T76U30  -1
    X_T76U1  COST  30.8205  DEM_T76  1
    X_T76U1  SU_T76U1  1  SU_T77U1  -1
    X_T76U2  COST  19.5714  DEM_T76  1
    X_T76U2  SU_T76U2  1  SU_T77U2  -1
    X_T76U3  COST  37.2405  DEM_T76  1
    X_T76U3  SU_T76U3  1  SU_T77U3  -1
    X_T76U4  COST  12.7393  DEM_T76  1
    X_T76U4  SU_T76U4  1  SU_T77U4  -1
    X_T76U5  COST  13.1403  DEM_T76  1
    X_T76U5  SU_T76U5  1  SU_T77U5  -1
    X_T76U6  COST  27.2155  DEM_T76  1
    X_T76U6  SU_T76U6  1  SU_T77U6  -1
    X_T76U7  COST  10.9279  DEM_T76  1
    X_T76U7  SU_T76U7  1  SU_T77U7  -1
    X_T76U8  COST  20.8494  DEM_T76  1
    X_T76U8  SU_T76U8  1  SU_T77U8  -1
    X_T76U9  COST  17.6084  DEM_T76  1
    X_T76U9  SU_T76U9  1  SU_T77U9  -1
    X_T76U10  COST  18.2661  DEM_T76  1
    X_T76U10  SU_T76U10  1  SU_T77U10  -1
    X_T76U11  COST  13.6509  DEM_T76  1
    X_T76U11  SU_T76U11  1  SU_T77U11  -1
    X_T76U12  COST  19.4823  DEM_T76  1
    X_T76U12  SU_T76U12  1  SU_T77U12  -1
    X_T76U13  COST  34.2518  DEM_T76  1
    X_T76U13  SU_T76U13  1  SU_T77U13  -1
    X_T76U14  COST  18.8724  DEM_T76  1
    X_T76U14  SU_T76U14  1  SU_T77U14  -1
    X_T76U15  COST  19.8226  DEM_T76  1
    X_T76U15  SU_T76U15  1  SU_T77U15  -1
    X_T76U16  COST  15.4352  DEM_T76  1
    X_T76U16  SU_T76U16  1  SU_T77U16  -1
    X_T76U17  COST  21.542  DEM_T76  1
    X_T76U17  SU_T76U17  1  SU_T77U17  -1
    X_T76U18  COST  27.8215  DEM_T76  1
    X_T76U18  SU_T76U18  1  SU_T77U18  -1
    X_T76U19  COST  12.0213  DEM_T76  1
    X_T76U19  SU_T76U19  1  SU_T77U19  -1
    X_T76U20  COST  15.3198  DEM_T76  1
    X_T76U20  SU_T76U20  1  SU_T77U20  -1
    X_T76U21  COST  33.1801  DEM_T76  1
    X_T76U21  SU_T76U21  1  SU_T77U21  -1
    X_T76U22  COST  27.3693  DEM_T76  1
    X_T76U22  SU_T76U22  1  SU_T77U22  -1
    X_T76U23  COST  20.8113  DEM_T76  1
    X_T76U23  SU_T76U23  1  SU_T77U23  -1
    X_T76U24  COST  21.6235  DEM_T76  1
    X_T76U24  SU_T76U24  1  SU_T77U24  -1
    X_T76U25  COST  19.2641  DEM_T76  1
    X_T76U25  SU_T76U25  1  SU_T77U25  -1
    X_T76U26  COST  17.9799  DEM_T76  1
    X_T76U26  SU_T76U26  1  SU_T77U26  -1
    X_T76U27  COST  26.7221  DEM_T76  1
    X_T76U27  SU_T76U27  1  SU_T77U27  -1
    X_T76U28  COST  29.877  DEM_T76  1
    X_T76U28  SU_T76U28  1  SU_T77U28  -1
    X_T76U29  COST  36.5774  DEM_T76  1
    X_T76U29  SU_T76U29  1  SU_T77U29  -1
    X_T76U30  COST  10.5684  DEM_T76  1
    X_T76U30  SU_T76U30  1  SU_T77U30  -1
    X_T77U1  COST  16.252  DEM_T77  1
    X_T77U1  SU_T77U1  1  SU_T78U1  -1
    X_T77U2  COST  29.1547  DEM_T77  1
    X_T77U2  SU_T77U2  1  SU_T78U2  -1
    X_T77U3  COST  11.7135  DEM_T77  1
    X_T77U3  SU_T77U3  1  SU_T78U3  -1
    X_T77U4  COST  10.0279  DEM_T77  1
    X_T77U4  SU_T77U4  1  SU_T78U4  -1
    X_T77U5  COST  10.7385  DEM_T77  1
    X_T77U5  SU_T77U5  1  SU_T78U5  -1
    X_T77U6  COST  22.4879  DEM_T77  1
    X_T77U6  SU_T77U6  1  SU_T78U6  -1
    X_T77U7  COST  37.3518  DEM_T77  1
    X_T77U7  SU_T77U7  1  SU_T78U7  -1
    X_T77U8  COST  25.3664  DEM_T77  1
    X_T77U8  SU_T77U8  1  SU_T78U8  -1
    X_T77U9  COST  37.9509  DEM_T77  1
    X_T77U9  SU_T77U9  1  SU_T78U9  -1
    X_T77U10  COST  34.1127  DEM_T77  1
    X_T77U10  SU_T77U10  1  SU_T78U10  -1
    X_T77U11  COST  21.5782  DEM_T77  1
    X_T77U11  SU_T77U11  1  SU_T78U11  -1
    X_T77U12  COST  36.5886  DEM_T77  1
    X_T77U12  SU_T77U12  1  SU_T78U12  -1
    X_T77U13  COST  14.5566  DEM_T77  1
    X_T77U13  SU_T77U13  1  SU_T78U13  -1
    X_T77U14  COST  11.634  DEM_T77  1
    X_T77U14  SU_T77U14  1  SU_T78U14  -1
    X_T77U15  COST  38.9563  DEM_T77  1
    X_T77U15  SU_T77U15  1  SU_T78U15  -1
    X_T77U16  COST  28.9606  DEM_T77  1
    X_T77U16  SU_T77U16  1  SU_T78U16  -1
    X_T77U17  COST  21.0088  DEM_T77  1
    X_T77U17  SU_T77U17  1  SU_T78U17  -1
    X_T77U18  COST  16.1974  DEM_T77  1
    X_T77U18  SU_T77U18  1  SU_T78U18  -1
    X_T77U19  COST  29.0821  DEM_T77  1
    X_T77U19  SU_T77U19  1  SU_T78U19  -1
    X_T77U20  COST  10.2044  DEM_T77  1
    X_T77U20  SU_T77U20  1  SU_T78U20  -1
    X_T77U21  COST  37.6454  DEM_T77  1
    X_T77U21  SU_T77U21  1  SU_T78U21  -1
    X_T77U22  COST  34.7563  DEM_T77  1
    X_T77U22  SU_T77U22  1  SU_T78U22  -1
    X_T77U23  COST  19.7119  DEM_T77  1
    X_T77U23  SU_T77U23  1  SU_T78U23  -1
    X_T77U24  COST  14.2948  DEM_T77  1
    X_T77U24  SU_T77U24  1  SU_T78U24  -1
    X_T77U25  COST  29.2471  DEM_T77  1
    X_T77U25  SU_T77U25  1  SU_T78U25  -1
    X_T77U26  COST  33.6391  DEM_T77  1
    X_T77U26  SU_T77U26  1  SU_T78U26  -1
    X_T77U27  COST  18.0225  DEM_T77  1
    X_T77U27  SU_T77U27  1  SU_T78U27  -1
    X_T77U28  COST  12.4722  DEM_T77  1
    X_T77U28  SU_T77U28  1  SU_T78U28  -1
    X_T77U29  COST  24.5694  DEM_T77  1
    X_T77U29  SU_T77U29  1  SU_T78U29  -1
    X_T77U30  COST  37.7862  DEM_T77  1
    X_T77U30  SU_T77U30  1  SU_T78U30  -1
    X_T78U1  COST  33.5525  DEM_T78  1
    X_T78U1  SU_T78U1  1  SU_T79U1  -1
    X_T78U2  COST  37.3546  DEM_T78  1
    X_T78U2  SU_T78U2  1  SU_T79U2  -1
    X_T78U3  COST  35.5999  DEM_T78  1
    X_T78U3  SU_T78U3  1  SU_T79U3  -1
    X_T78U4  COST  11.6132  DEM_T78  1
    X_T78U4  SU_T78U4  1  SU_T79U4  -1
    X_T78U5  COST  16.9384  DEM_T78  1
    X_T78U5  SU_T78U5  1  SU_T79U5  -1
    X_T78U6  COST  19.1814  DEM_T78  1
    X_T78U6  SU_T78U6  1  SU_T79U6  -1
    X_T78U7  COST  15.3138  DEM_T78  1
    X_T78U7  SU_T78U7  1  SU_T79U7  -1
    X_T78U8  COST  23.3623  DEM_T78  1
    X_T78U8  SU_T78U8  1  SU_T79U8  -1
    X_T78U9  COST  30.4796  DEM_T78  1
    X_T78U9  SU_T78U9  1  SU_T79U9  -1
    X_T78U10  COST  38.3072  DEM_T78  1
    X_T78U10  SU_T78U10  1  SU_T79U10  -1
    X_T78U11  COST  18.6832  DEM_T78  1
    X_T78U11  SU_T78U11  1  SU_T79U11  -1
    X_T78U12  COST  34.0973  DEM_T78  1
    X_T78U12  SU_T78U12  1  SU_T79U12  -1
    X_T78U13  COST  27.9352  DEM_T78  1
    X_T78U13  SU_T78U13  1  SU_T79U13  -1
    X_T78U14  COST  29.4051  DEM_T78  1
    X_T78U14  SU_T78U14  1  SU_T79U14  -1
    X_T78U15  COST  29.1505  DEM_T78  1
    X_T78U15  SU_T78U15  1  SU_T79U15  -1
    X_T78U16  COST  35.7904  DEM_T78  1
    X_T78U16  SU_T78U16  1  SU_T79U16  -1
    X_T78U17  COST  16.5314  DEM_T78  1
    X_T78U17  SU_T78U17  1  SU_T79U17  -1
    X_T78U18  COST  15.8361  DEM_T78  1
    X_T78U18  SU_T78U18  1  SU_T79U18  -1
    X_T78U19  COST  30.2993  DEM_T78  1
    X_T78U19  SU_T78U19  1  SU_T79U19  -1
    X_T78U20  COST  22.0538  DEM_T78  1
    X_T78U20  SU_T78U20  1  SU_T79U20  -1
    X_T78U21  COST  19.2362  DEM_T78  1
    X_T78U21  SU_T78U21  1  SU_T79U21  -1
    X_T78U22  COST  33.7919  DEM_T78  1
    X_T78U22  SU_T78U22  1  SU_T79U22  -1
    X_T78U23  COST  37.9747  DEM_T78  1
    X_T78U23  SU_T78U23  1  SU_T79U23  -1
    X_T78U24  COST  22.0667  DEM_T78  1
    X_T78U24  SU_T78U24  1  SU_T79U24  -1
    X_T78U25  COST  31.1691  DEM_T78  1
    X_T78U25  SU_T78U25  1  SU_T79U25  -1
    X_T78U26  COST  14.2598  DEM_T78  1
    X_T78U26  SU_T78U26  1  SU_T79U26  -1
    X_T78U27  COST  14.1774  DEM_T78  1
    X_T78U27  SU_T78U27  1  SU_T79U27  -1
    X_T78U28  COST  19.189  DEM_T78  1
    X_T78U28  SU_T78U28  1  SU_T79U28  -1
    X_T78U29  COST  12.1275  DEM_T78  1
    X_T78U29  SU_T78U29  1  SU_T79U29  -1
    X_T78U30  COST  35.8749  DEM_T78  1
    X_T78U30  SU_T78U30  1  SU_T79U30  -1
    X_T79U1  COST  30.8556  DEM_T79  1
    X_T79U1  SU_T79U1  1  SU_T80U1  -1
    X_T79U2  COST  35.9045  DEM_T79  1
    X_T79U2  SU_T79U2  1  SU_T80U2  -1
    X_T79U3  COST  39.3277  DEM_T79  1
    X_T79U3  SU_T79U3  1  SU_T80U3  -1
    X_T79U4  COST  39.8642  DEM_T79  1
    X_T79U4  SU_T79U4  1  SU_T80U4  -1
    X_T79U5  COST  16.6455  DEM_T79  1
    X_T79U5  SU_T79U5  1  SU_T80U5  -1
    X_T79U6  COST  17.6692  DEM_T79  1
    X_T79U6  SU_T79U6  1  SU_T80U6  -1
    X_T79U7  COST  15.1479  DEM_T79  1
    X_T79U7  SU_T79U7  1  SU_T80U7  -1
    X_T79U8  COST  23.8778  DEM_T79  1
    X_T79U8  SU_T79U8  1  SU_T80U8  -1
    X_T79U9  COST  13.6566  DEM_T79  1
    X_T79U9  SU_T79U9  1  SU_T80U9  -1
    X_T79U10  COST  11.8939  DEM_T79  1
    X_T79U10  SU_T79U10  1  SU_T80U10  -1
    X_T79U11  COST  24.2202  DEM_T79  1
    X_T79U11  SU_T79U11  1  SU_T80U11  -1
    X_T79U12  COST  36.0752  DEM_T79  1
    X_T79U12  SU_T79U12  1  SU_T80U12  -1
    X_T79U13  COST  24.0394  DEM_T79  1
    X_T79U13  SU_T79U13  1  SU_T80U13  -1
    X_T79U14  COST  34.5287  DEM_T79  1
    X_T79U14  SU_T79U14  1  SU_T80U14  -1
    X_T79U15  COST  35.5973  DEM_T79  1
    X_T79U15  SU_T79U15  1  SU_T80U15  -1
    X_T79U16  COST  14.1209  DEM_T79  1
    X_T79U16  SU_T79U16  1  SU_T80U16  -1
    X_T79U17  COST  11.3819  DEM_T79  1
    X_T79U17  SU_T79U17  1  SU_T80U17  -1
    X_T79U18  COST  29.824  DEM_T79  1
    X_T79U18  SU_T79U18  1  SU_T80U18  -1
    X_T79U19  COST  19.3472  DEM_T79  1
    X_T79U19  SU_T79U19  1  SU_T80U19  -1
    X_T79U20  COST  17.7881  DEM_T79  1
    X_T79U20  SU_T79U20  1  SU_T80U20  -1
    X_T79U21  COST  21.2924  DEM_T79  1
    X_T79U21  SU_T79U21  1  SU_T80U21  -1
    X_T79U22  COST  24.3611  DEM_T79  1
    X_T79U22  SU_T79U22  1  SU_T80U22  -1
    X_T79U23  COST  13.1622  DEM_T79  1
    X_T79U23  SU_T79U23  1  SU_T80U23  -1
    X_T79U24  COST  25.3894  DEM_T79  1
    X_T79U24  SU_T79U24  1  SU_T80U24  -1
    X_T79U25  COST  34.6668  DEM_T79  1
    X_T79U25  SU_T79U25  1  SU_T80U25  -1
    X_T79U26  COST  31.9858  DEM_T79  1
    X_T79U26  SU_T79U26  1  SU_T80U26  -1
    X_T79U27  COST  31.6835  DEM_T79  1
    X_T79U27  SU_T79U27  1  SU_T80U27  -1
    X_T79U28  COST  31.1669  DEM_T79  1
    X_T79U28  SU_T79U28  1  SU_T80U28  -1
    X_T79U29  COST  17.2652  DEM_T79  1
    X_T79U29  SU_T79U29  1  SU_T80U29  -1
    X_T79U30  COST  32.3209  DEM_T79  1
    X_T79U30  SU_T79U30  1  SU_T80U30  -1
    X_T80U1  COST  17.035  DEM_T80  1
    X_T80U1  SU_T80U1  1  SU_T81U1  -1
    X_T80U2  COST  37.5352  DEM_T80  1
    X_T80U2  SU_T80U2  1  SU_T81U2  -1
    X_T80U3  COST  16.9791  DEM_T80  1
    X_T80U3  SU_T80U3  1  SU_T81U3  -1
    X_T80U4  COST  18.2352  DEM_T80  1
    X_T80U4  SU_T80U4  1  SU_T81U4  -1
    X_T80U5  COST  12.4349  DEM_T80  1
    X_T80U5  SU_T80U5  1  SU_T81U5  -1
    X_T80U6  COST  32.1727  DEM_T80  1
    X_T80U6  SU_T80U6  1  SU_T81U6  -1
    X_T80U7  COST  34.4522  DEM_T80  1
    X_T80U7  SU_T80U7  1  SU_T81U7  -1
    X_T80U8  COST  33.1955  DEM_T80  1
    X_T80U8  SU_T80U8  1  SU_T81U8  -1
    X_T80U9  COST  10.9517  DEM_T80  1
    X_T80U9  SU_T80U9  1  SU_T81U9  -1
    X_T80U10  COST  11.1309  DEM_T80  1
    X_T80U10  SU_T80U10  1  SU_T81U10  -1
    X_T80U11  COST  19.6217  DEM_T80  1
    X_T80U11  SU_T80U11  1  SU_T81U11  -1
    X_T80U12  COST  18.3834  DEM_T80  1
    X_T80U12  SU_T80U12  1  SU_T81U12  -1
    X_T80U13  COST  36.5951  DEM_T80  1
    X_T80U13  SU_T80U13  1  SU_T81U13  -1
    X_T80U14  COST  35.8877  DEM_T80  1
    X_T80U14  SU_T80U14  1  SU_T81U14  -1
    X_T80U15  COST  26.0398  DEM_T80  1
    X_T80U15  SU_T80U15  1  SU_T81U15  -1
    X_T80U16  COST  19.7764  DEM_T80  1
    X_T80U16  SU_T80U16  1  SU_T81U16  -1
    X_T80U17  COST  13.6564  DEM_T80  1
    X_T80U17  SU_T80U17  1  SU_T81U17  -1
    X_T80U18  COST  37.1241  DEM_T80  1
    X_T80U18  SU_T80U18  1  SU_T81U18  -1
    X_T80U19  COST  39.7567  DEM_T80  1
    X_T80U19  SU_T80U19  1  SU_T81U19  -1
    X_T80U20  COST  14.1106  DEM_T80  1
    X_T80U20  SU_T80U20  1  SU_T81U20  -1
    X_T80U21  COST  15.5476  DEM_T80  1
    X_T80U21  SU_T80U21  1  SU_T81U21  -1
    X_T80U22  COST  11.8428  DEM_T80  1
    X_T80U22  SU_T80U22  1  SU_T81U22  -1
    X_T80U23  COST  20.8982  DEM_T80  1
    X_T80U23  SU_T80U23  1  SU_T81U23  -1
    X_T80U24  COST  39.3249  DEM_T80  1
    X_T80U24  SU_T80U24  1  SU_T81U24  -1
    X_T80U25  COST  32.1223  DEM_T80  1
    X_T80U25  SU_T80U25  1  SU_T81U25  -1
    X_T80U26  COST  35.1999  DEM_T80  1
    X_T80U26  SU_T80U26  1  SU_T81U26  -1
    X_T80U27  COST  31.267  DEM_T80  1
    X_T80U27  SU_T80U27  1  SU_T81U27  -1
    X_T80U28  COST  19.4389  DEM_T80  1
    X_T80U28  SU_T80U28  1  SU_T81U28  -1
    X_T80U29  COST  35.3294  DEM_T80  1
    X_T80U29  SU_T80U29  1  SU_T81U29  -1
    X_T80U30  COST  31.538  DEM_T80  1
    X_T80U30  SU_T80U30  1  SU_T81U30  -1
    X_T81U1  COST  19.7885  DEM_T81  1
    X_T81U1  SU_T81U1  1  SU_T82U1  -1
    X_T81U2  COST  32.8266  DEM_T81  1
    X_T81U2  SU_T81U2  1  SU_T82U2  -1
    X_T81U3  COST  35.9396  DEM_T81  1
    X_T81U3  SU_T81U3  1  SU_T82U3  -1
    X_T81U4  COST  15.1563  DEM_T81  1
    X_T81U4  SU_T81U4  1  SU_T82U4  -1
    X_T81U5  COST  32.1364  DEM_T81  1
    X_T81U5  SU_T81U5  1  SU_T82U5  -1
    X_T81U6  COST  23.2021  DEM_T81  1
    X_T81U6  SU_T81U6  1  SU_T82U6  -1
    X_T81U7  COST  16.3686  DEM_T81  1
    X_T81U7  SU_T81U7  1  SU_T82U7  -1
    X_T81U8  COST  35.0926  DEM_T81  1
    X_T81U8  SU_T81U8  1  SU_T82U8  -1
    X_T81U9  COST  10.4314  DEM_T81  1
    X_T81U9  SU_T81U9  1  SU_T82U9  -1
    X_T81U10  COST  39.4238  DEM_T81  1
    X_T81U10  SU_T81U10  1  SU_T82U10  -1
    X_T81U11  COST  25.1113  DEM_T81  1
    X_T81U11  SU_T81U11  1  SU_T82U11  -1
    X_T81U12  COST  38.5755  DEM_T81  1
    X_T81U12  SU_T81U12  1  SU_T82U12  -1
    X_T81U13  COST  23.3636  DEM_T81  1
    X_T81U13  SU_T81U13  1  SU_T82U13  -1
    X_T81U14  COST  31.0281  DEM_T81  1
    X_T81U14  SU_T81U14  1  SU_T82U14  -1
    X_T81U15  COST  23.416  DEM_T81  1
    X_T81U15  SU_T81U15  1  SU_T82U15  -1
    X_T81U16  COST  29.6418  DEM_T81  1
    X_T81U16  SU_T81U16  1  SU_T82U16  -1
    X_T81U17  COST  29.9009  DEM_T81  1
    X_T81U17  SU_T81U17  1  SU_T82U17  -1
    X_T81U18  COST  22.0449  DEM_T81  1
    X_T81U18  SU_T81U18  1  SU_T82U18  -1
    X_T81U19  COST  16.6153  DEM_T81  1
    X_T81U19  SU_T81U19  1  SU_T82U19  -1
    X_T81U20  COST  38.5246  DEM_T81  1
    X_T81U20  SU_T81U20  1  SU_T82U20  -1
    X_T81U21  COST  17.8276  DEM_T81  1
    X_T81U21  SU_T81U21  1  SU_T82U21  -1
    X_T81U22  COST  32.0413  DEM_T81  1
    X_T81U22  SU_T81U22  1  SU_T82U22  -1
    X_T81U23  COST  35.5878  DEM_T81  1
    X_T81U23  SU_T81U23  1  SU_T82U23  -1
    X_T81U24  COST  31.1787  DEM_T81  1
    X_T81U24  SU_T81U24  1  SU_T82U24  -1
    X_T81U25  COST  34.8745  DEM_T81  1
    X_T81U25  SU_T81U25  1  SU_T82U25  -1
    X_T81U26  COST  28.6072  DEM_T81  1
    X_T81U26  SU_T81U26  1  SU_T82U26  -1
    X_T81U27  COST  24.3448  DEM_T81  1
    X_T81U27  SU_T81U27  1  SU_T82U27  -1
    X_T81U28  COST  28.857  DEM_T81  1
    X_T81U28  SU_T81U28  1  SU_T82U28  -1
    X_T81U29  COST  23.5085  DEM_T81  1
    X_T81U29  SU_T81U29  1  SU_T82U29  -1
    X_T81U30  COST  32.3715  DEM_T81  1
    X_T81U30  SU_T81U30  1  SU_T82U30  -1
    X_T82U1  COST  30.8968  DEM_T82  1
    X_T82U1  SU_T82U1  1  SU_T83U1  -1
    X_T82U2  COST  34.6097  DEM_T82  1
    X_T82U2  SU_T82U2  1  SU_T83U2  -1
    X_T82U3  COST  30.1422  DEM_T82  1
    X_T82U3  SU_T82U3  1  SU_T83U3  -1
    X_T82U4  COST  28.575  DEM_T82  1
    X_T82U4  SU_T82U4  1  SU_T83U4  -1
    X_T82U5  COST  30.6643  DEM_T82  1
    X_T82U5  SU_T82U5  1  SU_T83U5  -1
    X_T82U6  COST  17.2551  DEM_T82  1
    X_T82U6  SU_T82U6  1  SU_T83U6  -1
    X_T82U7  COST  39.0323  DEM_T82  1
    X_T82U7  SU_T82U7  1  SU_T83U7  -1
    X_T82U8  COST  26.9319  DEM_T82  1
    X_T82U8  SU_T82U8  1  SU_T83U8  -1
    X_T82U9  COST  27.5954  DEM_T82  1
    X_T82U9  SU_T82U9  1  SU_T83U9  -1
    X_T82U10  COST  32.7793  DEM_T82  1
    X_T82U10  SU_T82U10  1  SU_T83U10  -1
    X_T82U11  COST  15.7948  DEM_T82  1
    X_T82U11  SU_T82U11  1  SU_T83U11  -1
    X_T82U12  COST  24.1755  DEM_T82  1
    X_T82U12  SU_T82U12  1  SU_T83U12  -1
    X_T82U13  COST  25.5188  DEM_T82  1
    X_T82U13  SU_T82U13  1  SU_T83U13  -1
    X_T82U14  COST  15.9804  DEM_T82  1
    X_T82U14  SU_T82U14  1  SU_T83U14  -1
    X_T82U15  COST  12.1683  DEM_T82  1
    X_T82U15  SU_T82U15  1  SU_T83U15  -1
    X_T82U16  COST  35.6096  DEM_T82  1
    X_T82U16  SU_T82U16  1  SU_T83U16  -1
    X_T82U17  COST  20.8118  DEM_T82  1
    X_T82U17  SU_T82U17  1  SU_T83U17  -1
    X_T82U18  COST  16.0645  DEM_T82  1
    X_T82U18  SU_T82U18  1  SU_T83U18  -1
    X_T82U19  COST  16.2117  DEM_T82  1
    X_T82U19  SU_T82U19  1  SU_T83U19  -1
    X_T82U20  COST  16.948  DEM_T82  1
    X_T82U20  SU_T82U20  1  SU_T83U20  -1
    X_T82U21  COST  21.9181  DEM_T82  1
    X_T82U21  SU_T82U21  1  SU_T83U21  -1
    X_T82U22  COST  34.3698  DEM_T82  1
    X_T82U22  SU_T82U22  1  SU_T83U22  -1
    X_T82U23  COST  13.3446  DEM_T82  1
    X_T82U23  SU_T82U23  1  SU_T83U23  -1
    X_T82U24  COST  27.4469  DEM_T82  1
    X_T82U24  SU_T82U24  1  SU_T83U24  -1
    X_T82U25  COST  17.2066  DEM_T82  1
    X_T82U25  SU_T82U25  1  SU_T83U25  -1
    X_T82U26  COST  18.471  DEM_T82  1
    X_T82U26  SU_T82U26  1  SU_T83U26  -1
    X_T82U27  COST  36.2984  DEM_T82  1
    X_T82U27  SU_T82U27  1  SU_T83U27  -1
    X_T82U28  COST  19.0439  DEM_T82  1
    X_T82U28  SU_T82U28  1  SU_T83U28  -1
    X_T82U29  COST  16.0379  DEM_T82  1
    X_T82U29  SU_T82U29  1  SU_T83U29  -1
    X_T82U30  COST  13.4472  DEM_T82  1
    X_T82U30  SU_T82U30  1  SU_T83U30  -1
    X_T83U1  COST  25.0602  DEM_T83  1
    X_T83U1  SU_T83U1  1  SU_T84U1  -1
    X_T83U2  COST  27.369  DEM_T83  1
    X_T83U2  SU_T83U2  1  SU_T84U2  -1
    X_T83U3  COST  19.4213  DEM_T83  1
    X_T83U3  SU_T83U3  1  SU_T84U3  -1
    X_T83U4  COST  16.4974  DEM_T83  1
    X_T83U4  SU_T83U4  1  SU_T84U4  -1
    X_T83U5  COST  12.6133  DEM_T83  1
    X_T83U5  SU_T83U5  1  SU_T84U5  -1
    X_T83U6  COST  30.7425  DEM_T83  1
    X_T83U6  SU_T83U6  1  SU_T84U6  -1
    X_T83U7  COST  28.7272  DEM_T83  1
    X_T83U7  SU_T83U7  1  SU_T84U7  -1
    X_T83U8  COST  15.7101  DEM_T83  1
    X_T83U8  SU_T83U8  1  SU_T84U8  -1
    X_T83U9  COST  26.6068  DEM_T83  1
    X_T83U9  SU_T83U9  1  SU_T84U9  -1
    X_T83U10  COST  22.9257  DEM_T83  1
    X_T83U10  SU_T83U10  1  SU_T84U10  -1
    X_T83U11  COST  31.7533  DEM_T83  1
    X_T83U11  SU_T83U11  1  SU_T84U11  -1
    X_T83U12  COST  34.9881  DEM_T83  1
    X_T83U12  SU_T83U12  1  SU_T84U12  -1
    X_T83U13  COST  33.7385  DEM_T83  1
    X_T83U13  SU_T83U13  1  SU_T84U13  -1
    X_T83U14  COST  20.1766  DEM_T83  1
    X_T83U14  SU_T83U14  1  SU_T84U14  -1
    X_T83U15  COST  11.232  DEM_T83  1
    X_T83U15  SU_T83U15  1  SU_T84U15  -1
    X_T83U16  COST  23.3787  DEM_T83  1
    X_T83U16  SU_T83U16  1  SU_T84U16  -1
    X_T83U17  COST  11.8752  DEM_T83  1
    X_T83U17  SU_T83U17  1  SU_T84U17  -1
    X_T83U18  COST  27.5026  DEM_T83  1
    X_T83U18  SU_T83U18  1  SU_T84U18  -1
    X_T83U19  COST  28.5761  DEM_T83  1
    X_T83U19  SU_T83U19  1  SU_T84U19  -1
    X_T83U20  COST  29.8511  DEM_T83  1
    X_T83U20  SU_T83U20  1  SU_T84U20  -1
    X_T83U21  COST  13.3853  DEM_T83  1
    X_T83U21  SU_T83U21  1  SU_T84U21  -1
    X_T83U22  COST  24.5407  DEM_T83  1
    X_T83U22  SU_T83U22  1  SU_T84U22  -1
    X_T83U23  COST  21.4145  DEM_T83  1
    X_T83U23  SU_T83U23  1  SU_T84U23  -1
    X_T83U24  COST  25.9407  DEM_T83  1
    X_T83U24  SU_T83U24  1  SU_T84U24  -1
    X_T83U25  COST  28.3946  DEM_T83  1
    X_T83U25  SU_T83U25  1  SU_T84U25  -1
    X_T83U26  COST  18.9901  DEM_T83  1
    X_T83U26  SU_T83U26  1  SU_T84U26  -1
    X_T83U27  COST  26.069  DEM_T83  1
    X_T83U27  SU_T83U27  1  SU_T84U27  -1
    X_T83U28  COST  30.4202  DEM_T83  1
    X_T83U28  SU_T83U28  1  SU_T84U28  -1
    X_T83U29  COST  25.3291  DEM_T83  1
    X_T83U29  SU_T83U29  1  SU_T84U29  -1
    X_T83U30  COST  11.6135  DEM_T83  1
    X_T83U30  SU_T83U30  1  SU_T84U30  -1
    X_T84U1  COST  20.7388  DEM_T84  1
    X_T84U1  SU_T84U1  1  SU_T85U1  -1
    X_T84U2  COST  21.6309  DEM_T84  1
    X_T84U2  SU_T84U2  1  SU_T85U2  -1
    X_T84U3  COST  32.145  DEM_T84  1
    X_T84U3  SU_T84U3  1  SU_T85U3  -1
    X_T84U4  COST  38.1614  DEM_T84  1
    X_T84U4  SU_T84U4  1  SU_T85U4  -1
    X_T84U5  COST  31.026  DEM_T84  1
    X_T84U5  SU_T84U5  1  SU_T85U5  -1
    X_T84U6  COST  22.5487  DEM_T84  1
    X_T84U6  SU_T84U6  1  SU_T85U6  -1
    X_T84U7  COST  38.1017  DEM_T84  1
    X_T84U7  SU_T84U7  1  SU_T85U7  -1
    X_T84U8  COST  24.9176  DEM_T84  1
    X_T84U8  SU_T84U8  1  SU_T85U8  -1
    X_T84U9  COST  13.2447  DEM_T84  1
    X_T84U9  SU_T84U9  1  SU_T85U9  -1
    X_T84U10  COST  28.424  DEM_T84  1
    X_T84U10  SU_T84U10  1  SU_T85U10  -1
    X_T84U11  COST  15.7521  DEM_T84  1
    X_T84U11  SU_T84U11  1  SU_T85U11  -1
    X_T84U12  COST  27.5176  DEM_T84  1
    X_T84U12  SU_T84U12  1  SU_T85U12  -1
    X_T84U13  COST  35.5422  DEM_T84  1
    X_T84U13  SU_T84U13  1  SU_T85U13  -1
    X_T84U14  COST  20.6828  DEM_T84  1
    X_T84U14  SU_T84U14  1  SU_T85U14  -1
    X_T84U15  COST  18.2236  DEM_T84  1
    X_T84U15  SU_T84U15  1  SU_T85U15  -1
    X_T84U16  COST  32.196  DEM_T84  1
    X_T84U16  SU_T84U16  1  SU_T85U16  -1
    X_T84U17  COST  13.5732  DEM_T84  1
    X_T84U17  SU_T84U17  1  SU_T85U17  -1
    X_T84U18  COST  18.5942  DEM_T84  1
    X_T84U18  SU_T84U18  1  SU_T85U18  -1
    X_T84U19  COST  32.4405  DEM_T84  1
    X_T84U19  SU_T84U19  1  SU_T85U19  -1
    X_T84U20  COST  31.1301  DEM_T84  1
    X_T84U20  SU_T84U20  1  SU_T85U20  -1
    X_T84U21  COST  32.1623  DEM_T84  1
    X_T84U21  SU_T84U21  1  SU_T85U21  -1
    X_T84U22  COST  17.9524  DEM_T84  1
    X_T84U22  SU_T84U22  1  SU_T85U22  -1
    X_T84U23  COST  15.7861  DEM_T84  1
    X_T84U23  SU_T84U23  1  SU_T85U23  -1
    X_T84U24  COST  25.9667  DEM_T84  1
    X_T84U24  SU_T84U24  1  SU_T85U24  -1
    X_T84U25  COST  13.0414  DEM_T84  1
    X_T84U25  SU_T84U25  1  SU_T85U25  -1
    X_T84U26  COST  34.3472  DEM_T84  1
    X_T84U26  SU_T84U26  1  SU_T85U26  -1
    X_T84U27  COST  11.7193  DEM_T84  1
    X_T84U27  SU_T84U27  1  SU_T85U27  -1
    X_T84U28  COST  31.2228  DEM_T84  1
    X_T84U28  SU_T84U28  1  SU_T85U28  -1
    X_T84U29  COST  36.9507  DEM_T84  1
    X_T84U29  SU_T84U29  1  SU_T85U29  -1
    X_T84U30  COST  13.7232  DEM_T84  1
    X_T84U30  SU_T84U30  1  SU_T85U30  -1
    X_T85U1  COST  31.634  DEM_T85  1
    X_T85U1  SU_T85U1  1  SU_T86U1  -1
    X_T85U2  COST  19.8516  DEM_T85  1
    X_T85U2  SU_T85U2  1  SU_T86U2  -1
    X_T85U3  COST  10.7429  DEM_T85  1
    X_T85U3  SU_T85U3  1  SU_T86U3  -1
    X_T85U4  COST  22.2367  DEM_T85  1
    X_T85U4  SU_T85U4  1  SU_T86U4  -1
    X_T85U5  COST  14.0911  DEM_T85  1
    X_T85U5  SU_T85U5  1  SU_T86U5  -1
    X_T85U6  COST  34.3944  DEM_T85  1
    X_T85U6  SU_T85U6  1  SU_T86U6  -1
    X_T85U7  COST  33.2326  DEM_T85  1
    X_T85U7  SU_T85U7  1  SU_T86U7  -1
    X_T85U8  COST  25.2006  DEM_T85  1
    X_T85U8  SU_T85U8  1  SU_T86U8  -1
    X_T85U9  COST  32.4986  DEM_T85  1
    X_T85U9  SU_T85U9  1  SU_T86U9  -1
    X_T85U10  COST  14.1054  DEM_T85  1
    X_T85U10  SU_T85U10  1  SU_T86U10  -1
    X_T85U11  COST  36.8021  DEM_T85  1
    X_T85U11  SU_T85U11  1  SU_T86U11  -1
    X_T85U12  COST  18.6364  DEM_T85  1
    X_T85U12  SU_T85U12  1  SU_T86U12  -1
    X_T85U13  COST  35.0925  DEM_T85  1
    X_T85U13  SU_T85U13  1  SU_T86U13  -1
    X_T85U14  COST  19.4799  DEM_T85  1
    X_T85U14  SU_T85U14  1  SU_T86U14  -1
    X_T85U15  COST  11.228  DEM_T85  1
    X_T85U15  SU_T85U15  1  SU_T86U15  -1
    X_T85U16  COST  28.7056  DEM_T85  1
    X_T85U16  SU_T85U16  1  SU_T86U16  -1
    X_T85U17  COST  19.7383  DEM_T85  1
    X_T85U17  SU_T85U17  1  SU_T86U17  -1
    X_T85U18  COST  20.118  DEM_T85  1
    X_T85U18  SU_T85U18  1  SU_T86U18  -1
    X_T85U19  COST  18.4405  DEM_T85  1
    X_T85U19  SU_T85U19  1  SU_T86U19  -1
    X_T85U20  COST  24.2616  DEM_T85  1
    X_T85U20  SU_T85U20  1  SU_T86U20  -1
    X_T85U21  COST  32.5046  DEM_T85  1
    X_T85U21  SU_T85U21  1  SU_T86U21  -1
    X_T85U22  COST  35.37  DEM_T85  1
    X_T85U22  SU_T85U22  1  SU_T86U22  -1
    X_T85U23  COST  17.6606  DEM_T85  1
    X_T85U23  SU_T85U23  1  SU_T86U23  -1
    X_T85U24  COST  21.3398  DEM_T85  1
    X_T85U24  SU_T85U24  1  SU_T86U24  -1
    X_T85U25  COST  23.9876  DEM_T85  1
    X_T85U25  SU_T85U25  1  SU_T86U25  -1
    X_T85U26  COST  22.0692  DEM_T85  1
    X_T85U26  SU_T85U26  1  SU_T86U26  -1
    X_T85U27  COST  21.4865  DEM_T85  1
    X_T85U27  SU_T85U27  1  SU_T86U27  -1
    X_T85U28  COST  26.4255  DEM_T85  1
    X_T85U28  SU_T85U28  1  SU_T86U28  -1
    X_T85U29  COST  17.5267  DEM_T85  1
    X_T85U29  SU_T85U29  1  SU_T86U29  -1
    X_T85U30  COST  21.7978  DEM_T85  1
    X_T85U30  SU_T85U30  1  SU_T86U30  -1
    X_T86U1  COST  35.824  DEM_T86  1
    X_T86U1  SU_T86U1  1  SU_T87U1  -1
    X_T86U2  COST  29.6136  DEM_T86  1
    X_T86U2  SU_T86U2  1  SU_T87U2  -1
    X_T86U3  COST  28.5166  DEM_T86  1
    X_T86U3  SU_T86U3  1  SU_T87U3  -1
    X_T86U4  COST  16.9407  DEM_T86  1
    X_T86U4  SU_T86U4  1  SU_T87U4  -1
    X_T86U5  COST  39.798  DEM_T86  1
    X_T86U5  SU_T86U5  1  SU_T87U5  -1
    X_T86U6  COST  26.9392  DEM_T86  1
    X_T86U6  SU_T86U6  1  SU_T87U6  -1
    X_T86U7  COST  18.538  DEM_T86  1
    X_T86U7  SU_T86U7  1  SU_T87U7  -1
    X_T86U8  COST  35.4454  DEM_T86  1
    X_T86U8  SU_T86U8  1  SU_T87U8  -1
    X_T86U9  COST  18.7013  DEM_T86  1
    X_T86U9  SU_T86U9  1  SU_T87U9  -1
    X_T86U10  COST  17.9563  DEM_T86  1
    X_T86U10  SU_T86U10  1  SU_T87U10  -1
    X_T86U11  COST  12.8692  DEM_T86  1
    X_T86U11  SU_T86U11  1  SU_T87U11  -1
    X_T86U12  COST  13.399  DEM_T86  1
    X_T86U12  SU_T86U12  1  SU_T87U12  -1
    X_T86U13  COST  26.4197  DEM_T86  1
    X_T86U13  SU_T86U13  1  SU_T87U13  -1
    X_T86U14  COST  11.9164  DEM_T86  1
    X_T86U14  SU_T86U14  1  SU_T87U14  -1
    X_T86U15  COST  16.6096  DEM_T86  1
    X_T86U15  SU_T86U15  1  SU_T87U15  -1
    X_T86U16  COST  13.071  DEM_T86  1
    X_T86U16  SU_T86U16  1  SU_T87U16  -1
    X_T86U17  COST  37.187  DEM_T86  1
    X_T86U17  SU_T86U17  1  SU_T87U17  -1
    X_T86U18  COST  25.9848  DEM_T86  1
    X_T86U18  SU_T86U18  1  SU_T87U18  -1
    X_T86U19  COST  30.8476  DEM_T86  1
    X_T86U19  SU_T86U19  1  SU_T87U19  -1
    X_T86U20  COST  21.8227  DEM_T86  1
    X_T86U20  SU_T86U20  1  SU_T87U20  -1
    X_T86U21  COST  20.3758  DEM_T86  1
    X_T86U21  SU_T86U21  1  SU_T87U21  -1
    X_T86U22  COST  32.3854  DEM_T86  1
    X_T86U22  SU_T86U22  1  SU_T87U22  -1
    X_T86U23  COST  14.8178  DEM_T86  1
    X_T86U23  SU_T86U23  1  SU_T87U23  -1
    X_T86U24  COST  15.7587  DEM_T86  1
    X_T86U24  SU_T86U24  1  SU_T87U24  -1
    X_T86U25  COST  18.1465  DEM_T86  1
    X_T86U25  SU_T86U25  1  SU_T87U25  -1
    X_T86U26  COST  35.3491  DEM_T86  1
    X_T86U26  SU_T86U26  1  SU_T87U26  -1
    X_T86U27  COST  30.0926  DEM_T86  1
    X_T86U27  SU_T86U27  1  SU_T87U27  -1
    X_T86U28  COST  18.9402  DEM_T86  1
    X_T86U28  SU_T86U28  1  SU_T87U28  -1
    X_T86U29  COST  14.6457  DEM_T86  1
    X_T86U29  SU_T86U29  1  SU_T87U29  -1
    X_T86U30  COST  16.2711  DEM_T86  1
    X_T86U30  SU_T86U30  1  SU_T87U30  -1
    X_T87U1  COST  38.3263  DEM_T87  1
    X_T87U1  SU_T87U1  1  SU_T88U1  -1
    X_T87U2  COST  23.5083  DEM_T87  1
    X_T87U2  SU_T87U2  1  SU_T88U2  -1
    X_T87U3  COST  23.2849  DEM_T87  1
    X_T87U3  SU_T87U3  1  SU_T88U3  -1
    X_T87U4  COST  16.1802  DEM_T87  1
    X_T87U4  SU_T87U4  1  SU_T88U4  -1
    X_T87U5  COST  20.256  DEM_T87  1
    X_T87U5  SU_T87U5  1  SU_T88U5  -1
    X_T87U6  COST  35.1583  DEM_T87  1
    X_T87U6  SU_T87U6  1  SU_T88U6  -1
    X_T87U7  COST  19.5371  DEM_T87  1
    X_T87U7  SU_T87U7  1  SU_T88U7  -1
    X_T87U8  COST  21.464  DEM_T87  1
    X_T87U8  SU_T87U8  1  SU_T88U8  -1
    X_T87U9  COST  11.1219  DEM_T87  1
    X_T87U9  SU_T87U9  1  SU_T88U9  -1
    X_T87U10  COST  22.0909  DEM_T87  1
    X_T87U10  SU_T87U10  1  SU_T88U10  -1
    X_T87U11  COST  28.6356  DEM_T87  1
    X_T87U11  SU_T87U11  1  SU_T88U11  -1
    X_T87U12  COST  39.309  DEM_T87  1
    X_T87U12  SU_T87U12  1  SU_T88U12  -1
    X_T87U13  COST  23.3582  DEM_T87  1
    X_T87U13  SU_T87U13  1  SU_T88U13  -1
    X_T87U14  COST  34.3919  DEM_T87  1
    X_T87U14  SU_T87U14  1  SU_T88U14  -1
    X_T87U15  COST  22.8593  DEM_T87  1
    X_T87U15  SU_T87U15  1  SU_T88U15  -1
    X_T87U16  COST  16.4547  DEM_T87  1
    X_T87U16  SU_T87U16  1  SU_T88U16  -1
    X_T87U17  COST  37.7099  DEM_T87  1
    X_T87U17  SU_T87U17  1  SU_T88U17  -1
    X_T87U18  COST  10.9735  DEM_T87  1
    X_T87U18  SU_T87U18  1  SU_T88U18  -1
    X_T87U19  COST  19.3092  DEM_T87  1
    X_T87U19  SU_T87U19  1  SU_T88U19  -1
    X_T87U20  COST  17.2677  DEM_T87  1
    X_T87U20  SU_T87U20  1  SU_T88U20  -1
    X_T87U21  COST  38.6366  DEM_T87  1
    X_T87U21  SU_T87U21  1  SU_T88U21  -1
    X_T87U22  COST  11.4098  DEM_T87  1
    X_T87U22  SU_T87U22  1  SU_T88U22  -1
    X_T87U23  COST  22.1545  DEM_T87  1
    X_T87U23  SU_T87U23  1  SU_T88U23  -1
    X_T87U24  COST  28.8662  DEM_T87  1
    X_T87U24  SU_T87U24  1  SU_T88U24  -1
    X_T87U25  COST  35.5151  DEM_T87  1
    X_T87U25  SU_T87U25  1  SU_T88U25  -1
    X_T87U26  COST  26.2772  DEM_T87  1
    X_T87U26  SU_T87U26  1  SU_T88U26  -1
    X_T87U27  COST  18.2197  DEM_T87  1
    X_T87U27  SU_T87U27  1  SU_T88U27  -1
    X_T87U28  COST  24.6768  DEM_T87  1
    X_T87U28  SU_T87U28  1  SU_T88U28  -1
    X_T87U29  COST  17.2763  DEM_T87  1
    X_T87U29  SU_T87U29  1  SU_T88U29  -1
    X_T87U30  COST  37.7293  DEM_T87  1
    X_T87U30  SU_T87U30  1  SU_T88U30  -1
    X_T88U1  COST  18.6773  DEM_T88  1
    X_T88U1  SU_T88U1  1  SU_T89U1  -1
    X_T88U2  COST  29.9123  DEM_T88  1
    X_T88U2  SU_T88U2  1  SU_T89U2  -1
    X_T88U3  COST  38.6184  DEM_T88  1
    X_T88U3  SU_T88U3  1  SU_T89U3  -1
    X_T88U4  COST  27.3165  DEM_T88  1
    X_T88U4  SU_T88U4  1  SU_T89U4  -1
    X_T88U5  COST  10.4998  DEM_T88  1
    X_T88U5  SU_T88U5  1  SU_T89U5  -1
    X_T88U6  COST  33.8698  DEM_T88  1
    X_T88U6  SU_T88U6  1  SU_T89U6  -1
    X_T88U7  COST  18.4694  DEM_T88  1
    X_T88U7  SU_T88U7  1  SU_T89U7  -1
    X_T88U8  COST  17.6924  DEM_T88  1
    X_T88U8  SU_T88U8  1  SU_T89U8  -1
    X_T88U9  COST  13.9318  DEM_T88  1
    X_T88U9  SU_T88U9  1  SU_T89U9  -1
    X_T88U10  COST  25.2385  DEM_T88  1
    X_T88U10  SU_T88U10  1  SU_T89U10  -1
    X_T88U11  COST  19.3215  DEM_T88  1
    X_T88U11  SU_T88U11  1  SU_T89U11  -1
    X_T88U12  COST  35.7051  DEM_T88  1
    X_T88U12  SU_T88U12  1  SU_T89U12  -1
    X_T88U13  COST  20.7916  DEM_T88  1
    X_T88U13  SU_T88U13  1  SU_T89U13  -1
    X_T88U14  COST  31.5209  DEM_T88  1
    X_T88U14  SU_T88U14  1  SU_T89U14  -1
    X_T88U15  COST  38.1663  DEM_T88  1
    X_T88U15  SU_T88U15  1  SU_T89U15  -1
    X_T88U16  COST  24.2639  DEM_T88  1
    X_T88U16  SU_T88U16  1  SU_T89U16  -1
    X_T88U17  COST  30.6736  DEM_T88  1
    X_T88U17  SU_T88U17  1  SU_T89U17  -1
    X_T88U18  COST  39.9043  DEM_T88  1
    X_T88U18  SU_T88U18  1  SU_T89U18  -1
    X_T88U19  COST  13.3345  DEM_T88  1
    X_T88U19  SU_T88U19  1  SU_T89U19  -1
    X_T88U20  COST  31.8063  DEM_T88  1
    X_T88U20  SU_T88U20  1  SU_T89U20  -1
    X_T88U21  COST  16.6214  DEM_T88  1
    X_T88U21  SU_T88U21  1  SU_T89U21  -1
    X_T88U22  COST  11.8662  DEM_T88  1
    X_T88U22  SU_T88U22  1  SU_T89U22  -1
    X_T88U23  COST  19.3415  DEM_T88  1
    X_T88U23  SU_T88U23  1  SU_T89U23  -1
    X_T88U24  COST  25.0825  DEM_T88  1
    X_T88U24  SU_T88U24  1  SU_T89U24  -1
    X_T88U25  COST  29.525  DEM_T88  1
    X_T88U25  SU_T88U25  1  SU_T89U25  -1
    X_T88U26  COST  15.2702  DEM_T88  1
    X_T88U26  SU_T88U26  1  SU_T89U26  -1
    X_T88U27  COST  31.4614  DEM_T88  1
    X_T88U27  SU_T88U27  1  SU_T89U27  -1
    X_T88U28  COST  16.0422  DEM_T88  1
    X_T88U28  SU_T88U28  1  SU_T89U28  -1
    X_T88U29  COST  12.259  DEM_T88  1
    X_T88U29  SU_T88U29  1  SU_T89U29  -1
    X_T88U30  COST  34.6163  DEM_T88  1
    X_T88U30  SU_T88U30  1  SU_T89U30  -1
    X_T89U1  COST  23.7019  DEM_T89  1
    X_T89U1  SU_T89U1  1  SU_T90U1  -1
    X_T89U2  COST  11.5745  DEM_T89  1
    X_T89U2  SU_T89U2  1  SU_T90U2  -1
    X_T89U3  COST  17.6425  DEM_T89  1
    X_T89U3  SU_T89U3  1  SU_T90U3  -1
    X_T89U4  COST  31.1685  DEM_T89  1
    X_T89U4  SU_T89U4  1  SU_T90U4  -1
    X_T89U5  COST  13.7394  DEM_T89  1
    X_T89U5  SU_T89U5  1  SU_T90U5  -1
    X_T89U6  COST  29.0773  DEM_T89  1
    X_T89U6  SU_T89U6  1  SU_T90U6  -1
    X_T89U7  COST  12.3764  DEM_T89  1
    X_T89U7  SU_T89U7  1  SU_T90U7  -1
    X_T89U8  COST  10.5834  DEM_T89  1
    X_T89U8  SU_T89U8  1  SU_T90U8  -1
    X_T89U9  COST  22.4323  DEM_T89  1
    X_T89U9  SU_T89U9  1  SU_T90U9  -1
    X_T89U10  COST  23.7118  DEM_T89  1
    X_T89U10  SU_T89U10  1  SU_T90U10  -1
    X_T89U11  COST  26.8581  DEM_T89  1
    X_T89U11  SU_T89U11  1  SU_T90U11  -1
    X_T89U12  COST  28.2852  DEM_T89  1
    X_T89U12  SU_T89U12  1  SU_T90U12  -1
    X_T89U13  COST  33.7598  DEM_T89  1
    X_T89U13  SU_T89U13  1  SU_T90U13  -1
    X_T89U14  COST  17.5262  DEM_T89  1
    X_T89U14  SU_T89U14  1  SU_T90U14  -1
    X_T89U15  COST  37.266  DEM_T89  1
    X_T89U15  SU_T89U15  1  SU_T90U15  -1
    X_T89U16  COST  24.6222  DEM_T89  1
    X_T89U16  SU_T89U16  1  SU_T90U16  -1
    X_T89U17  COST  11.7171  DEM_T89  1
    X_T89U17  SU_T89U17  1  SU_T90U17  -1
    X_T89U18  COST  11.5152  DEM_T89  1
    X_T89U18  SU_T89U18  1  SU_T90U18  -1
    X_T89U19  COST  36.7132  DEM_T89  1
    X_T89U19  SU_T89U19  1  SU_T90U19  -1
    X_T89U20  COST  24.1675  DEM_T89  1
    X_T89U20  SU_T89U20  1  SU_T90U20  -1
    X_T89U21  COST  38.5643  DEM_T89  1
    X_T89U21  SU_T89U21  1  SU_T90U21  -1
    X_T89U22  COST  31.27  DEM_T89  1
    X_T89U22  SU_T89U22  1  SU_T90U22  -1
    X_T89U23  COST  34.6178  DEM_T89  1
    X_T89U23  SU_T89U23  1  SU_T90U23  -1
    X_T89U24  COST  23.4266  DEM_T89  1
    X_T89U24  SU_T89U24  1  SU_T90U24  -1
    X_T89U25  COST  20.7326  DEM_T89  1
    X_T89U25  SU_T89U25  1  SU_T90U25  -1
    X_T89U26  COST  12.23  DEM_T89  1
    X_T89U26  SU_T89U26  1  SU_T90U26  -1
    X_T89U27  COST  36.0904  DEM_T89  1
    X_T89U27  SU_T89U27  1  SU_T90U27  -1
    X_T89U28  COST  31.3865  DEM_T89  1
    X_T89U28  SU_T89U28  1  SU_T90U28  -1
    X_T89U29  COST  17.7613  DEM_T89  1
    X_T89U29  SU_T89U29  1  SU_T90U29  -1
    X_T89U30  COST  33.8255  DEM_T89  1
    X_T89U30  SU_T89U30  1  SU_T90U30  -1
    X_T90U1  COST  38.1292  DEM_T90  1
    X_T90U1  SU_T90U1  1  SU_T91U1  -1
    X_T90U2  COST  27.1054  DEM_T90  1
    X_T90U2  SU_T90U2  1  SU_T91U2  -1
    X_T90U3  COST  38.2711  DEM_T90  1
    X_T90U3  SU_T90U3  1  SU_T91U3  -1
    X_T90U4  COST  10.7212  DEM_T90  1
    X_T90U4  SU_T90U4  1  SU_T91U4  -1
    X_T90U5  COST  30.6502  DEM_T90  1
    X_T90U5  SU_T90U5  1  SU_T91U5  -1
    X_T90U6  COST  16.3943  DEM_T90  1
    X_T90U6  SU_T90U6  1  SU_T91U6  -1
    X_T90U7  COST  38.6753  DEM_T90  1
    X_T90U7  SU_T90U7  1  SU_T91U7  -1
    X_T90U8  COST  36.4785  DEM_T90  1
    X_T90U8  SU_T90U8  1  SU_T91U8  -1
    X_T90U9  COST  11.6712  DEM_T90  1
    X_T90U9  SU_T90U9  1  SU_T91U9  -1
    X_T90U10  COST  11.7322  DEM_T90  1
    X_T90U10  SU_T90U10  1  SU_T91U10  -1
    X_T90U11  COST  11.7715  DEM_T90  1
    X_T90U11  SU_T90U11  1  SU_T91U11  -1
    X_T90U12  COST  13.1127  DEM_T90  1
    X_T90U12  SU_T90U12  1  SU_T91U12  -1
    X_T90U13  COST  12.7168  DEM_T90  1
    X_T90U13  SU_T90U13  1  SU_T91U13  -1
    X_T90U14  COST  13.9998  DEM_T90  1
    X_T90U14  SU_T90U14  1  SU_T91U14  -1
    X_T90U15  COST  34.5157  DEM_T90  1
    X_T90U15  SU_T90U15  1  SU_T91U15  -1
    X_T90U16  COST  36.8718  DEM_T90  1
    X_T90U16  SU_T90U16  1  SU_T91U16  -1
    X_T90U17  COST  17.1894  DEM_T90  1
    X_T90U17  SU_T90U17  1  SU_T91U17  -1
    X_T90U18  COST  20.0753  DEM_T90  1
    X_T90U18  SU_T90U18  1  SU_T91U18  -1
    X_T90U19  COST  33.8993  DEM_T90  1
    X_T90U19  SU_T90U19  1  SU_T91U19  -1
    X_T90U20  COST  31.1647  DEM_T90  1
    X_T90U20  SU_T90U20  1  SU_T91U20  -1
    X_T90U21  COST  32.518  DEM_T90  1
    X_T90U21  SU_T90U21  1  SU_T91U21  -1
    X_T90U22  COST  14.3063  DEM_T90  1
    X_T90U22  SU_T90U22  1  SU_T91U22  -1
    X_T90U23  COST  15.4619  DEM_T90  1
    X_T90U23  SU_T90U23  1  SU_T91U23  -1
    X_T90U24  COST  35.3439  DEM_T90  1
    X_T90U24  SU_T90U24  1  SU_T91U24  -1
    X_T90U25  COST  31.2087  DEM_T90  1
    X_T90U25  SU_T90U25  1  SU_T91U25  -1
    X_T90U26  COST  36.1756  DEM_T90  1
    X_T90U26  SU_T90U26  1  SU_T91U26  -1
    X_T90U27  COST  23.5033  DEM_T90  1
    X_T90U27  SU_T90U27  1  SU_T91U27  -1
    X_T90U28  COST  29.7998  DEM_T90  1
    X_T90U28  SU_T90U28  1  SU_T91U28  -1
    X_T90U29  COST  13.9424  DEM_T90  1
    X_T90U29  SU_T90U29  1  SU_T91U29  -1
    X_T90U30  COST  27.4365  DEM_T90  1
    X_T90U30  SU_T90U30  1  SU_T91U30  -1
    X_T91U1  COST  13.7327  DEM_T91  1
    X_T91U1  SU_T91U1  1  SU_T92U1  -1
    X_T91U2  COST  26.5105  DEM_T91  1
    X_T91U2  SU_T91U2  1  SU_T92U2  -1
    X_T91U3  COST  30.7037  DEM_T91  1
    X_T91U3  SU_T91U3  1  SU_T92U3  -1
    X_T91U4  COST  19.6897  DEM_T91  1
    X_T91U4  SU_T91U4  1  SU_T92U4  -1
    X_T91U5  COST  14.819  DEM_T91  1
    X_T91U5  SU_T91U5  1  SU_T92U5  -1
    X_T91U6  COST  18.0032  DEM_T91  1
    X_T91U6  SU_T91U6  1  SU_T92U6  -1
    X_T91U7  COST  16.9096  DEM_T91  1
    X_T91U7  SU_T91U7  1  SU_T92U7  -1
    X_T91U8  COST  34.6526  DEM_T91  1
    X_T91U8  SU_T91U8  1  SU_T92U8  -1
    X_T91U9  COST  32.4189  DEM_T91  1
    X_T91U9  SU_T91U9  1  SU_T92U9  -1
    X_T91U10  COST  38.4556  DEM_T91  1
    X_T91U10  SU_T91U10  1  SU_T92U10  -1
    X_T91U11  COST  10.2039  DEM_T91  1
    X_T91U11  SU_T91U11  1  SU_T92U11  -1
    X_T91U12  COST  25.4225  DEM_T91  1
    X_T91U12  SU_T91U12  1  SU_T92U12  -1
    X_T91U13  COST  25.6749  DEM_T91  1
    X_T91U13  SU_T91U13  1  SU_T92U13  -1
    X_T91U14  COST  33.5899  DEM_T91  1
    X_T91U14  SU_T91U14  1  SU_T92U14  -1
    X_T91U15  COST  10.0812  DEM_T91  1
    X_T91U15  SU_T91U15  1  SU_T92U15  -1
    X_T91U16  COST  21.4267  DEM_T91  1
    X_T91U16  SU_T91U16  1  SU_T92U16  -1
    X_T91U17  COST  10.233  DEM_T91  1
    X_T91U17  SU_T91U17  1  SU_T92U17  -1
    X_T91U18  COST  39.5946  DEM_T91  1
    X_T91U18  SU_T91U18  1  SU_T92U18  -1
    X_T91U19  COST  21.8625  DEM_T91  1
    X_T91U19  SU_T91U19  1  SU_T92U19  -1
    X_T91U20  COST  34.4438  DEM_T91  1
    X_T91U20  SU_T91U20  1  SU_T92U20  -1
    X_T91U21  COST  19.2901  DEM_T91  1
    X_T91U21  SU_T91U21  1  SU_T92U21  -1
    X_T91U22  COST  30.3143  DEM_T91  1
    X_T91U22  SU_T91U22  1  SU_T92U22  -1
    X_T91U23  COST  12.0678  DEM_T91  1
    X_T91U23  SU_T91U23  1  SU_T92U23  -1
    X_T91U24  COST  16.6027  DEM_T91  1
    X_T91U24  SU_T91U24  1  SU_T92U24  -1
    X_T91U25  COST  36.3308  DEM_T91  1
    X_T91U25  SU_T91U25  1  SU_T92U25  -1
    X_T91U26  COST  31.4609  DEM_T91  1
    X_T91U26  SU_T91U26  1  SU_T92U26  -1
    X_T91U27  COST  32.8098  DEM_T91  1
    X_T91U27  SU_T91U27  1  SU_T92U27  -1
    X_T91U28  COST  10.2218  DEM_T91  1
    X_T91U28  SU_T91U28  1  SU_T92U28  -1
    X_T91U29  COST  14.1796  DEM_T91  1
    X_T91U29  SU_T91U29  1  SU_T92U29  -1
    X_T91U30  COST  36.1476  DEM_T91  1
    X_T91U30  SU_T91U30  1  SU_T92U30  -1
    X_T92U1  COST  23.3319  DEM_T92  1
    X_T92U1  SU_T92U1  1  SU_T93U1  -1
    X_T92U2  COST  31.4982  DEM_T92  1
    X_T92U2  SU_T92U2  1  SU_T93U2  -1
    X_T92U3  COST  18.0338  DEM_T92  1
    X_T92U3  SU_T92U3  1  SU_T93U3  -1
    X_T92U4  COST  12.7446  DEM_T92  1
    X_T92U4  SU_T92U4  1  SU_T93U4  -1
    X_T92U5  COST  10.3779  DEM_T92  1
    X_T92U5  SU_T92U5  1  SU_T93U5  -1
    X_T92U6  COST  15.4859  DEM_T92  1
    X_T92U6  SU_T92U6  1  SU_T93U6  -1
    X_T92U7  COST  29.069  DEM_T92  1
    X_T92U7  SU_T92U7  1  SU_T93U7  -1
    X_T92U8  COST  33.3315  DEM_T92  1
    X_T92U8  SU_T92U8  1  SU_T93U8  -1
    X_T92U9  COST  15.2807  DEM_T92  1
    X_T92U9  SU_T92U9  1  SU_T93U9  -1
    X_T92U10  COST  23.3255  DEM_T92  1
    X_T92U10  SU_T92U10  1  SU_T93U10  -1
    X_T92U11  COST  35.8663  DEM_T92  1
    X_T92U11  SU_T92U11  1  SU_T93U11  -1
    X_T92U12  COST  39.5172  DEM_T92  1
    X_T92U12  SU_T92U12  1  SU_T93U12  -1
    X_T92U13  COST  35.5537  DEM_T92  1
    X_T92U13  SU_T92U13  1  SU_T93U13  -1
    X_T92U14  COST  13.1325  DEM_T92  1
    X_T92U14  SU_T92U14  1  SU_T93U14  -1
    X_T92U15  COST  25.9444  DEM_T92  1
    X_T92U15  SU_T92U15  1  SU_T93U15  -1
    X_T92U16  COST  21.9037  DEM_T92  1
    X_T92U16  SU_T92U16  1  SU_T93U16  -1
    X_T92U17  COST  27.0789  DEM_T92  1
    X_T92U17  SU_T92U17  1  SU_T93U17  -1
    X_T92U18  COST  17.8213  DEM_T92  1
    X_T92U18  SU_T92U18  1  SU_T93U18  -1
    X_T92U19  COST  31.6665  DEM_T92  1
    X_T92U19  SU_T92U19  1  SU_T93U19  -1
    X_T92U20  COST  26.4064  DEM_T92  1
    X_T92U20  SU_T92U20  1  SU_T93U20  -1
    X_T92U21  COST  23.3388  DEM_T92  1
    X_T92U21  SU_T92U21  1  SU_T93U21  -1
    X_T92U22  COST  23.478  DEM_T92  1
    X_T92U22  SU_T92U22  1  SU_T93U22  -1
    X_T92U23  COST  37.8895  DEM_T92  1
    X_T92U23  SU_T92U23  1  SU_T93U23  -1
    X_T92U24  COST  29.5743  DEM_T92  1
    X_T92U24  SU_T92U24  1  SU_T93U24  -1
    X_T92U25  COST  23.3851  DEM_T92  1
    X_T92U25  SU_T92U25  1  SU_T93U25  -1
    X_T92U26  COST  18.9386  DEM_T92  1
    X_T92U26  SU_T92U26  1  SU_T93U26  -1
    X_T92U27  COST  14.9066  DEM_T92  1
    X_T92U27  SU_T92U27  1  SU_T93U27  -1
    X_T92U28  COST  28.6332  DEM_T92  1
    X_T92U28  SU_T92U28  1  SU_T93U28  -1
    X_T92U29  COST  36.9923  DEM_T92  1
    X_T92U29  SU_T92U29  1  SU_T93U29  -1
    X_T92U30  COST  23.1595  DEM_T92  1
    X_T92U30  SU_T92U30  1  SU_T93U30  -1
    X_T93U1  COST  24.9864  DEM_T93  1
    X_T93U1  SU_T93U1  1  SU_T94U1  -1
    X_T93U2  COST  17.9667  DEM_T93  1
    X_T93U2  SU_T93U2  1  SU_T94U2  -1
    X_T93U3  COST  17.5542  DEM_T93  1
    X_T93U3  SU_T93U3  1  SU_T94U3  -1
    X_T93U4  COST  12.5581  DEM_T93  1
    X_T93U4  SU_T93U4  1  SU_T94U4  -1
    X_T93U5  COST  24.9756  DEM_T93  1
    X_T93U5  SU_T93U5  1  SU_T94U5  -1
    X_T93U6  COST  17.9534  DEM_T93  1
    X_T93U6  SU_T93U6  1  SU_T94U6  -1
    X_T93U7  COST  39.9715  DEM_T93  1
    X_T93U7  SU_T93U7  1  SU_T94U7  -1
    X_T93U8  COST  13.0965  DEM_T93  1
    X_T93U8  SU_T93U8  1  SU_T94U8  -1
    X_T93U9  COST  24.6563  DEM_T93  1
    X_T93U9  SU_T93U9  1  SU_T94U9  -1
    X_T93U10  COST  30.0081  DEM_T93  1
    X_T93U10  SU_T93U10  1  SU_T94U10  -1
    X_T93U11  COST  37.3199  DEM_T93  1
    X_T93U11  SU_T93U11  1  SU_T94U11  -1
    X_T93U12  COST  13.8726  DEM_T93  1
    X_T93U12  SU_T93U12  1  SU_T94U12  -1
    X_T93U13  COST  29.2931  DEM_T93  1
    X_T93U13  SU_T93U13  1  SU_T94U13  -1
    X_T93U14  COST  28.6456  DEM_T93  1
    X_T93U14  SU_T93U14  1  SU_T94U14  -1
    X_T93U15  COST  23.3452  DEM_T93  1
    X_T93U15  SU_T93U15  1  SU_T94U15  -1
    X_T93U16  COST  14.006  DEM_T93  1
    X_T93U16  SU_T93U16  1  SU_T94U16  -1
    X_T93U17  COST  34.6343  DEM_T93  1
    X_T93U17  SU_T93U17  1  SU_T94U17  -1
    X_T93U18  COST  23.6178  DEM_T93  1
    X_T93U18  SU_T93U18  1  SU_T94U18  -1
    X_T93U19  COST  27.1652  DEM_T93  1
    X_T93U19  SU_T93U19  1  SU_T94U19  -1
    X_T93U20  COST  35.7462  DEM_T93  1
    X_T93U20  SU_T93U20  1  SU_T94U20  -1
    X_T93U21  COST  23.1027  DEM_T93  1
    X_T93U21  SU_T93U21  1  SU_T94U21  -1
    X_T93U22  COST  33.6729  DEM_T93  1
    X_T93U22  SU_T93U22  1  SU_T94U22  -1
    X_T93U23  COST  29.6266  DEM_T93  1
    X_T93U23  SU_T93U23  1  SU_T94U23  -1
    X_T93U24  COST  12.2488  DEM_T93  1
    X_T93U24  SU_T93U24  1  SU_T94U24  -1
    X_T93U25  COST  22.2369  DEM_T93  1
    X_T93U25  SU_T93U25  1  SU_T94U25  -1
    X_T93U26  COST  10.6494  DEM_T93  1
    X_T93U26  SU_T93U26  1  SU_T94U26  -1
    X_T93U27  COST  30.4286  DEM_T93  1
    X_T93U27  SU_T93U27  1  SU_T94U27  -1
    X_T93U28  COST  25.4268  DEM_T93  1
    X_T93U28  SU_T93U28  1  SU_T94U28  -1
    X_T93U29  COST  17.6528  DEM_T93  1
    X_T93U29  SU_T93U29  1  SU_T94U29  -1
    X_T93U30  COST  32.5538  DEM_T93  1
    X_T93U30  SU_T93U30  1  SU_T94U30  -1
    X_T94U1  COST  16.3799  DEM_T94  1
    X_T94U1  SU_T94U1  1  SU_T95U1  -1
    X_T94U2  COST  11.9272  DEM_T94  1
    X_T94U2  SU_T94U2  1  SU_T95U2  -1
    X_T94U3  COST  34.7511  DEM_T94  1
    X_T94U3  SU_T94U3  1  SU_T95U3  -1
    X_T94U4  COST  23.9087  DEM_T94  1
    X_T94U4  SU_T94U4  1  SU_T95U4  -1
    X_T94U5  COST  38.4064  DEM_T94  1
    X_T94U5  SU_T94U5  1  SU_T95U5  -1
    X_T94U6  COST  21.9388  DEM_T94  1
    X_T94U6  SU_T94U6  1  SU_T95U6  -1
    X_T94U7  COST  20.1469  DEM_T94  1
    X_T94U7  SU_T94U7  1  SU_T95U7  -1
    X_T94U8  COST  39.4313  DEM_T94  1
    X_T94U8  SU_T94U8  1  SU_T95U8  -1
    X_T94U9  COST  34.5067  DEM_T94  1
    X_T94U9  SU_T94U9  1  SU_T95U9  -1
    X_T94U10  COST  30.986  DEM_T94  1
    X_T94U10  SU_T94U10  1  SU_T95U10  -1
    X_T94U11  COST  11.7128  DEM_T94  1
    X_T94U11  SU_T94U11  1  SU_T95U11  -1
    X_T94U12  COST  30.0081  DEM_T94  1
    X_T94U12  SU_T94U12  1  SU_T95U12  -1
    X_T94U13  COST  10.3575  DEM_T94  1
    X_T94U13  SU_T94U13  1  SU_T95U13  -1
    X_T94U14  COST  31.4721  DEM_T94  1
    X_T94U14  SU_T94U14  1  SU_T95U14  -1
    X_T94U15  COST  39.4919  DEM_T94  1
    X_T94U15  SU_T94U15  1  SU_T95U15  -1
    X_T94U16  COST  36.0806  DEM_T94  1
    X_T94U16  SU_T94U16  1  SU_T95U16  -1
    X_T94U17  COST  25.0312  DEM_T94  1
    X_T94U17  SU_T94U17  1  SU_T95U17  -1
    X_T94U18  COST  14.1168  DEM_T94  1
    X_T94U18  SU_T94U18  1  SU_T95U18  -1
    X_T94U19  COST  20.5579  DEM_T94  1
    X_T94U19  SU_T94U19  1  SU_T95U19  -1
    X_T94U20  COST  30.1498  DEM_T94  1
    X_T94U20  SU_T94U20  1  SU_T95U20  -1
    X_T94U21  COST  17.6278  DEM_T94  1
    X_T94U21  SU_T94U21  1  SU_T95U21  -1
    X_T94U22  COST  10.7495  DEM_T94  1
    X_T94U22  SU_T94U22  1  SU_T95U22  -1
    X_T94U23  COST  25.4207  DEM_T94  1
    X_T94U23  SU_T94U23  1  SU_T95U23  -1
    X_T94U24  COST  28.9564  DEM_T94  1
    X_T94U24  SU_T94U24  1  SU_T95U24  -1
    X_T94U25  COST  27.476  DEM_T94  1
    X_T94U25  SU_T94U25  1  SU_T95U25  -1
    X_T94U26  COST  32.5936  DEM_T94  1
    X_T94U26  SU_T94U26  1  SU_T95U26  -1
    X_T94U27  COST  36.0885  DEM_T94  1
    X_T94U27  SU_T94U27  1  SU_T95U27  -1
    X_T94U28  COST  22.0344  DEM_T94  1
    X_T94U28  SU_T94U28  1  SU_T95U28  -1
    X_T94U29  COST  21.8977  DEM_T94  1
    X_T94U29  SU_T94U29  1  SU_T95U29  -1
    X_T94U30  COST  25.7634  DEM_T94  1
    X_T94U30  SU_T94U30  1  SU_T95U30  -1
    X_T95U1  COST  16.0856  DEM_T95  1
    X_T95U1  SU_T95U1  1  SU_T96U1  -1
    X_T95U2  COST  26.2409  DEM_T95  1
    X_T95U2  SU_T95U2  1  SU_T96U2  -1
    X_T95U3  COST  39.8432  DEM_T95  1
    X_T95U3  SU_T95U3  1  SU_T96U3  -1
    X_T95U4  COST  23.2222  DEM_T95  1
    X_T95U4  SU_T95U4  1  SU_T96U4  -1
    X_T95U5  COST  35.152  DEM_T95  1
    X_T95U5  SU_T95U5  1  SU_T96U5  -1
    X_T95U6  COST  30.6082  DEM_T95  1
    X_T95U6  SU_T95U6  1  SU_T96U6  -1
    X_T95U7  COST  30.6825  DEM_T95  1
    X_T95U7  SU_T95U7  1  SU_T96U7  -1
    X_T95U8  COST  30.8159  DEM_T95  1
    X_T95U8  SU_T95U8  1  SU_T96U8  -1
    X_T95U9  COST  32.7772  DEM_T95  1
    X_T95U9  SU_T95U9  1  SU_T96U9  -1
    X_T95U10  COST  12.3223  DEM_T95  1
    X_T95U10  SU_T95U10  1  SU_T96U10  -1
    X_T95U11  COST  20.299  DEM_T95  1
    X_T95U11  SU_T95U11  1  SU_T96U11  -1
    X_T95U12  COST  28.0677  DEM_T95  1
    X_T95U12  SU_T95U12  1  SU_T96U12  -1
    X_T95U13  COST  33.3068  DEM_T95  1
    X_T95U13  SU_T95U13  1  SU_T96U13  -1
    X_T95U14  COST  29.8116  DEM_T95  1
    X_T95U14  SU_T95U14  1  SU_T96U14  -1
    X_T95U15  COST  30.185  DEM_T95  1
    X_T95U15  SU_T95U15  1  SU_T96U15  -1
    X_T95U16  COST  38.5092  DEM_T95  1
    X_T95U16  SU_T95U16  1  SU_T96U16  -1
    X_T95U17  COST  10.575  DEM_T95  1
    X_T95U17  SU_T95U17  1  SU_T96U17  -1
    X_T95U18  COST  10.9904  DEM_T95  1
    X_T95U18  SU_T95U18  1  SU_T96U18  -1
    X_T95U19  COST  16.2975  DEM_T95  1
    X_T95U19  SU_T95U19  1  SU_T96U19  -1
    X_T95U20  COST  33.2372  DEM_T95  1
    X_T95U20  SU_T95U20  1  SU_T96U20  -1
    X_T95U21  COST  28.6368  DEM_T95  1
    X_T95U21  SU_T95U21  1  SU_T96U21  -1
    X_T95U22  COST  24.5072  DEM_T95  1
    X_T95U22  SU_T95U22  1  SU_T96U22  -1
    X_T95U23  COST  37.6343  DEM_T95  1
    X_T95U23  SU_T95U23  1  SU_T96U23  -1
    X_T95U24  COST  16.6685  DEM_T95  1
    X_T95U24  SU_T95U24  1  SU_T96U24  -1
    X_T95U25  COST  32.6116  DEM_T95  1
    X_T95U25  SU_T95U25  1  SU_T96U25  -1
    X_T95U26  COST  36.8523  DEM_T95  1
    X_T95U26  SU_T95U26  1  SU_T96U26  -1
    X_T95U27  COST  20.5233  DEM_T95  1
    X_T95U27  SU_T95U27  1  SU_T96U27  -1
    X_T95U28  COST  24.8022  DEM_T95  1
    X_T95U28  SU_T95U28  1  SU_T96U28  -1
    X_T95U29  COST  37.8404  DEM_T95  1
    X_T95U29  SU_T95U29  1  SU_T96U29  -1
    X_T95U30  COST  10.0697  DEM_T95  1
    X_T95U30  SU_T95U30  1  SU_T96U30  -1
    X_T96U1  COST  37.1841  DEM_T96  1
    X_T96U1  SU_T96U1  1  SU_T97U1  -1
    X_T96U2  COST  34.991  DEM_T96  1
    X_T96U2  SU_T96U2  1  SU_T97U2  -1
    X_T96U3  COST  17.7688  DEM_T96  1
    X_T96U3  SU_T96U3  1  SU_T97U3  -1
    X_T96U4  COST  15.9  DEM_T96  1
    X_T96U4  SU_T96U4  1  SU_T97U4  -1
    X_T96U5  COST  16.1686  DEM_T96  1
    X_T96U5  SU_T96U5  1  SU_T97U5  -1
    X_T96U6  COST  16.6926  DEM_T96  1
    X_T96U6  SU_T96U6  1  SU_T97U6  -1
    X_T96U7  COST  30.5193  DEM_T96  1
    X_T96U7  SU_T96U7  1  SU_T97U7  -1
    X_T96U8  COST  25.6266  DEM_T96  1
    X_T96U8  SU_T96U8  1  SU_T97U8  -1
    X_T96U9  COST  12.1311  DEM_T96  1
    X_T96U9  SU_T96U9  1  SU_T97U9  -1
    X_T96U10  COST  20.0705  DEM_T96  1
    X_T96U10  SU_T96U10  1  SU_T97U10  -1
    X_T96U11  COST  25.4435  DEM_T96  1
    X_T96U11  SU_T96U11  1  SU_T97U11  -1
    X_T96U12  COST  13.2167  DEM_T96  1
    X_T96U12  SU_T96U12  1  SU_T97U12  -1
    X_T96U13  COST  23.571  DEM_T96  1
    X_T96U13  SU_T96U13  1  SU_T97U13  -1
    X_T96U14  COST  35.2006  DEM_T96  1
    X_T96U14  SU_T96U14  1  SU_T97U14  -1
    X_T96U15  COST  12.6035  DEM_T96  1
    X_T96U15  SU_T96U15  1  SU_T97U15  -1
    X_T96U16  COST  14.948  DEM_T96  1
    X_T96U16  SU_T96U16  1  SU_T97U16  -1
    X_T96U17  COST  20.977  DEM_T96  1
    X_T96U17  SU_T96U17  1  SU_T97U17  -1
    X_T96U18  COST  16.5491  DEM_T96  1
    X_T96U18  SU_T96U18  1  SU_T97U18  -1
    X_T96U19  COST  10.5301  DEM_T96  1
    X_T96U19  SU_T96U19  1  SU_T97U19  -1
    X_T96U20  COST  15.1659  DEM_T96  1
    X_T96U20  SU_T96U20  1  SU_T97U20  -1
    X_T96U21  COST  25.3156  DEM_T96  1
    X_T96U21  SU_T96U21  1  SU_T97U21  -1
    X_T96U22  COST  22.7435  DEM_T96  1
    X_T96U22  SU_T96U22  1  SU_T97U22  -1
    X_T96U23  COST  15.5027  DEM_T96  1
    X_T96U23  SU_T96U23  1  SU_T97U23  -1
    X_T96U24  COST  24.0105  DEM_T96  1
    X_T96U24  SU_T96U24  1  SU_T97U24  -1
    X_T96U25  COST  16.7883  DEM_T96  1
    X_T96U25  SU_T96U25  1  SU_T97U25  -1
    X_T96U26  COST  36.6113  DEM_T96  1
    X_T96U26  SU_T96U26  1  SU_T97U26  -1
    X_T96U27  COST  16.7084  DEM_T96  1
    X_T96U27  SU_T96U27  1  SU_T97U27  -1
    X_T96U28  COST  34.5132  DEM_T96  1
    X_T96U28  SU_T96U28  1  SU_T97U28  -1
    X_T96U29  COST  24.6772  DEM_T96  1
    X_T96U29  SU_T96U29  1  SU_T97U29  -1
    X_T96U30  COST  12.3491  DEM_T96  1
    X_T96U30  SU_T96U30  1  SU_T97U30  -1
    X_T97U1  COST  12.9503  DEM_T97  1
    X_T97U1  SU_T97U1  1  SU_T98U1  -1
    X_T97U2  COST  38.2149  DEM_T97  1
    X_T97U2  SU_T97U2  1  SU_T98U2  -1
    X_T97U3  COST  17.18  DEM_T97  1
    X_T97U3  SU_T97U3  1  SU_T98U3  -1
    X_T97U4  COST  24.2223  DEM_T97  1
    X_T97U4  SU_T97U4  1  SU_T98U4  -1
    X_T97U5  COST  18.1429  DEM_T97  1
    X_T97U5  SU_T97U5  1  SU_T98U5  -1
    X_T97U6  COST  14.8768  DEM_T97  1
    X_T97U6  SU_T97U6  1  SU_T98U6  -1
    X_T97U7  COST  19.4716  DEM_T97  1
    X_T97U7  SU_T97U7  1  SU_T98U7  -1
    X_T97U8  COST  30.4168  DEM_T97  1
    X_T97U8  SU_T97U8  1  SU_T98U8  -1
    X_T97U9  COST  23.7323  DEM_T97  1
    X_T97U9  SU_T97U9  1  SU_T98U9  -1
    X_T97U10  COST  36.9444  DEM_T97  1
    X_T97U10  SU_T97U10  1  SU_T98U10  -1
    X_T97U11  COST  39.3941  DEM_T97  1
    X_T97U11  SU_T97U11  1  SU_T98U11  -1
    X_T97U12  COST  15.2188  DEM_T97  1
    X_T97U12  SU_T97U12  1  SU_T98U12  -1
    X_T97U13  COST  27.3879  DEM_T97  1
    X_T97U13  SU_T97U13  1  SU_T98U13  -1
    X_T97U14  COST  15.3205  DEM_T97  1
    X_T97U14  SU_T97U14  1  SU_T98U14  -1
    X_T97U15  COST  34.1649  DEM_T97  1
    X_T97U15  SU_T97U15  1  SU_T98U15  -1
    X_T97U16  COST  22.4112  DEM_T97  1
    X_T97U16  SU_T97U16  1  SU_T98U16  -1
    X_T97U17  COST  17.1039  DEM_T97  1
    X_T97U17  SU_T97U17  1  SU_T98U17  -1
    X_T97U18  COST  33.1006  DEM_T97  1
    X_T97U18  SU_T97U18  1  SU_T98U18  -1
    X_T97U19  COST  39.6547  DEM_T97  1
    X_T97U19  SU_T97U19  1  SU_T98U19  -1
    X_T97U20  COST  11.8529  DEM_T97  1
    X_T97U20  SU_T97U20  1  SU_T98U20  -1
    X_T97U21  COST  25.652  DEM_T97  1
    X_T97U21  SU_T97U21  1  SU_T98U21  -1
    X_T97U22  COST  33.4519  DEM_T97  1
    X_T97U22  SU_T97U22  1  SU_T98U22  -1
    X_T97U23  COST  17.8198  DEM_T97  1
    X_T97U23  SU_T97U23  1  SU_T98U23  -1
    X_T97U24  COST  21.983  DEM_T97  1
    X_T97U24  SU_T97U24  1  SU_T98U24  -1
    X_T97U25  COST  25.4369  DEM_T97  1
    X_T97U25  SU_T97U25  1  SU_T98U25  -1
    X_T97U26  COST  37.183  DEM_T97  1
    X_T97U26  SU_T97U26  1  SU_T98U26  -1
    X_T97U27  COST  11.6304  DEM_T97  1
    X_T97U27  SU_T97U27  1  SU_T98U27  -1
    X_T97U28  COST  14.3086  DEM_T97  1
    X_T97U28  SU_T97U28  1  SU_T98U28  -1
    X_T97U29  COST  31.8243  DEM_T97  1
    X_T97U29  SU_T97U29  1  SU_T98U29  -1
    X_T97U30  COST  17.3112  DEM_T97  1
    X_T97U30  SU_T97U30  1  SU_T98U30  -1
    X_T98U1  COST  24.494  DEM_T98  1
    X_T98U1  SU_T98U1  1  SU_T99U1  -1
    X_T98U2  COST  28.3342  DEM_T98  1
    X_T98U2  SU_T98U2  1  SU_T99U2  -1
    X_T98U3  COST  20.8242  DEM_T98  1
    X_T98U3  SU_T98U3  1  SU_T99U3  -1
    X_T98U4  COST  25.001  DEM_T98  1
    X_T98U4  SU_T98U4  1  SU_T99U4  -1
    X_T98U5  COST  27.4671  DEM_T98  1
    X_T98U5  SU_T98U5  1  SU_T99U5  -1
    X_T98U6  COST  11.0321  DEM_T98  1
    X_T98U6  SU_T98U6  1  SU_T99U6  -1
    X_T98U7  COST  35.768  DEM_T98  1
    X_T98U7  SU_T98U7  1  SU_T99U7  -1
    X_T98U8  COST  21.7089  DEM_T98  1
    X_T98U8  SU_T98U8  1  SU_T99U8  -1
    X_T98U9  COST  34.4083  DEM_T98  1
    X_T98U9  SU_T98U9  1  SU_T99U9  -1
    X_T98U10  COST  17.4639  DEM_T98  1
    X_T98U10  SU_T98U10  1  SU_T99U10  -1
    X_T98U11  COST  14.6325  DEM_T98  1
    X_T98U11  SU_T98U11  1  SU_T99U11  -1
    X_T98U12  COST  10.864  DEM_T98  1
    X_T98U12  SU_T98U12  1  SU_T99U12  -1
    X_T98U13  COST  18.3143  DEM_T98  1
    X_T98U13  SU_T98U13  1  SU_T99U13  -1
    X_T98U14  COST  20.3579  DEM_T98  1
    X_T98U14  SU_T98U14  1  SU_T99U14  -1
    X_T98U15  COST  28.6594  DEM_T98  1
    X_T98U15  SU_T98U15  1  SU_T99U15  -1
    X_T98U16  COST  38.7725  DEM_T98  1
    X_T98U16  SU_T98U16  1  SU_T99U16  -1
    X_T98U17  COST  31.5212  DEM_T98  1
    X_T98U17  SU_T98U17  1  SU_T99U17  -1
    X_T98U18  COST  20.3013  DEM_T98  1
    X_T98U18  SU_T98U18  1  SU_T99U18  -1
    X_T98U19  COST  30.6937  DEM_T98  1
    X_T98U19  SU_T98U19  1  SU_T99U19  -1
    X_T98U20  COST  28.9636  DEM_T98  1
    X_T98U20  SU_T98U20  1  SU_T99U20  -1
    X_T98U21  COST  25.7546  DEM_T98  1
    X_T98U21  SU_T98U21  1  SU_T99U21  -1
    X_T98U22  COST  32.5163  DEM_T98  1
    X_T98U22  SU_T98U22  1  SU_T99U22  -1
    X_T98U23  COST  14.3655  DEM_T98  1
    X_T98U23  SU_T98U23  1  SU_T99U23  -1
    X_T98U24  COST  18.0757  DEM_T98  1
    X_T98U24  SU_T98U24  1  SU_T99U24  -1
    X_T98U25  COST  21.4871  DEM_T98  1
    X_T98U25  SU_T98U25  1  SU_T99U25  -1
    X_T98U26  COST  20.5516  DEM_T98  1
    X_T98U26  SU_T98U26  1  SU_T99U26  -1
    X_T98U27  COST  12.0792  DEM_T98  1
    X_T98U27  SU_T98U27  1  SU_T99U27  -1
    X_T98U28  COST  27.929  DEM_T98  1
    X_T98U28  SU_T98U28  1  SU_T99U28  -1
    X_T98U29  COST  10.8751  DEM_T98  1
    X_T98U29  SU_T98U29  1  SU_T99U29  -1
    X_T98U30  COST  11.5872  DEM_T98  1
    X_T98U30  SU_T98U30  1  SU_T99U30  -1
    X_T99U1  COST  11.6718  DEM_T99  1
    X_T99U1  SU_T99U1  1  SU_T100U1  -1
    X_T99U2  COST  31.0625  DEM_T99  1
    X_T99U2  SU_T99U2  1  SU_T100U2  -1
    X_T99U3  COST  23.2451  DEM_T99  1
    X_T99U3  SU_T99U3  1  SU_T100U3  -1
    X_T99U4  COST  18.73  DEM_T99  1
    X_T99U4  SU_T99U4  1  SU_T100U4  -1
    X_T99U5  COST  37.1336  DEM_T99  1
    X_T99U5  SU_T99U5  1  SU_T100U5  -1
    X_T99U6  COST  27.8241  DEM_T99  1
    X_T99U6  SU_T99U6  1  SU_T100U6  -1
    X_T99U7  COST  28.5624  DEM_T99  1
    X_T99U7  SU_T99U7  1  SU_T100U7  -1
    X_T99U8  COST  16.5317  DEM_T99  1
    X_T99U8  SU_T99U8  1  SU_T100U8  -1
    X_T99U9  COST  34.9517  DEM_T99  1
    X_T99U9  SU_T99U9  1  SU_T100U9  -1
    X_T99U10  COST  24.6048  DEM_T99  1
    X_T99U10  SU_T99U10  1  SU_T100U10  -1
    X_T99U11  COST  29.1126  DEM_T99  1
    X_T99U11  SU_T99U11  1  SU_T100U11  -1
    X_T99U12  COST  23.6953  DEM_T99  1
    X_T99U12  SU_T99U12  1  SU_T100U12  -1
    X_T99U13  COST  37.8981  DEM_T99  1
    X_T99U13  SU_T99U13  1  SU_T100U13  -1
    X_T99U14  COST  15.4489  DEM_T99  1
    X_T99U14  SU_T99U14  1  SU_T100U14  -1
    X_T99U15  COST  11.5241  DEM_T99  1
    X_T99U15  SU_T99U15  1  SU_T100U15  -1
    X_T99U16  COST  35.5938  DEM_T99  1
    X_T99U16  SU_T99U16  1  SU_T100U16  -1
    X_T99U17  COST  37.9781  DEM_T99  1
    X_T99U17  SU_T99U17  1  SU_T100U17  -1
    X_T99U18  COST  21.4616  DEM_T99  1
    X_T99U18  SU_T99U18  1  SU_T100U18  -1
    X_T99U19  COST  35.655  DEM_T99  1
    X_T99U19  SU_T99U19  1  SU_T100U19  -1
    X_T99U20  COST  28.9335  DEM_T99  1
    X_T99U20  SU_T99U20  1  SU_T100U20  -1
    X_T99U21  COST  22.8953  DEM_T99  1
    X_T99U21  SU_T99U21  1  SU_T100U21  -1
    X_T99U22  COST  38.8664  DEM_T99  1
    X_T99U22  SU_T99U22  1  SU_T100U22  -1
    X_T99U23  COST  18.6831  DEM_T99  1
    X_T99U23  SU_T99U23  1  SU_T100U23  -1
    X_T99U24  COST  39.1853  DEM_T99  1
    X_T99U24  SU_T99U24  1  SU_T100U24  -1
    X_T99U25  COST  22.3803  DEM_T99  1
    X_T99U25  SU_T99U25  1  SU_T100U25  -1
    X_T99U26  COST  25.2747  DEM_T99  1
    X_T99U26  SU_T99U26  1  SU_T100U26  -1
    X_T99U27  COST  22.207  DEM_T99  1
    X_T99U27  SU_T99U27  1  SU_T100U27  -1
    X_T99U28  COST  25.9993  DEM_T99  1
    X_T99U28  SU_T99U28  1  SU_T100U28  -1
    X_T99U29  COST  34.0161  DEM_T99  1
    X_T99U29  SU_T99U29  1  SU_T100U29  -1
    X_T99U30  COST  29.0579  DEM_T99  1
    X_T99U30  SU_T99U30  1  SU_T100U30  -1
    X_T100U1  COST  16.2039  DEM_T100  1
    X_T100U1  SU_T100U1  1  SU_T101U1  -1
    X_T100U2  COST  20.9834  DEM_T100  1
    X_T100U2  SU_T100U2  1  SU_T101U2  -1
    X_T100U3  COST  31.0722  DEM_T100  1
    X_T100U3  SU_T100U3  1  SU_T101U3  -1
    X_T100U4  COST  18.0657  DEM_T100  1
    X_T100U4  SU_T100U4  1  SU_T101U4  -1
    X_T100U5  COST  35.7442  DEM_T100  1
    X_T100U5  SU_T100U5  1  SU_T101U5  -1
    X_T100U6  COST  39.4078  DEM_T100  1
    X_T100U6  SU_T100U6  1  SU_T101U6  -1
    X_T100U7  COST  32.2607  DEM_T100  1
    X_T100U7  SU_T100U7  1  SU_T101U7  -1
    X_T100U8  COST  13.6482  DEM_T100  1
    X_T100U8  SU_T100U8  1  SU_T101U8  -1
    X_T100U9  COST  36.9707  DEM_T100  1
    X_T100U9  SU_T100U9  1  SU_T101U9  -1
    X_T100U10  COST  14.0207  DEM_T100  1
    X_T100U10  SU_T100U10  1  SU_T101U10  -1
    X_T100U11  COST  35.3256  DEM_T100  1
    X_T100U11  SU_T100U11  1  SU_T101U11  -1
    X_T100U12  COST  25.607  DEM_T100  1
    X_T100U12  SU_T100U12  1  SU_T101U12  -1
    X_T100U13  COST  12.4201  DEM_T100  1
    X_T100U13  SU_T100U13  1  SU_T101U13  -1
    X_T100U14  COST  30.6754  DEM_T100  1
    X_T100U14  SU_T100U14  1  SU_T101U14  -1
    X_T100U15  COST  16.4683  DEM_T100  1
    X_T100U15  SU_T100U15  1  SU_T101U15  -1
    X_T100U16  COST  16.5131  DEM_T100  1
    X_T100U16  SU_T100U16  1  SU_T101U16  -1
    X_T100U17  COST  39.0463  DEM_T100  1
    X_T100U17  SU_T100U17  1  SU_T101U17  -1
    X_T100U18  COST  38.2263  DEM_T100  1
    X_T100U18  SU_T100U18  1  SU_T101U18  -1
    X_T100U19  COST  27.0233  DEM_T100  1
    X_T100U19  SU_T100U19  1  SU_T101U19  -1
    X_T100U20  COST  38.9479  DEM_T100  1
    X_T100U20  SU_T100U20  1  SU_T101U20  -1
    X_T100U21  COST  21.9897  DEM_T100  1
    X_T100U21  SU_T100U21  1  SU_T101U21  -1
    X_T100U22  COST  26.0941  DEM_T100  1
    X_T100U22  SU_T100U22  1  SU_T101U22  -1
    X_T100U23  COST  17.7334  DEM_T100  1
    X_T100U23  SU_T100U23  1  SU_T101U23  -1
    X_T100U24  COST  10.4312  DEM_T100  1
    X_T100U24  SU_T100U24  1  SU_T101U24  -1
    X_T100U25  COST  27.9808  DEM_T100  1
    X_T100U25  SU_T100U25  1  SU_T101U25  -1
    X_T100U26  COST  38.5995  DEM_T100  1
    X_T100U26  SU_T100U26  1  SU_T101U26  -1
    X_T100U27  COST  31.4112  DEM_T100  1
    X_T100U27  SU_T100U27  1  SU_T101U27  -1
    X_T100U28  COST  30.02  DEM_T100  1
    X_T100U28  SU_T100U28  1  SU_T101U28  -1
    X_T100U29  COST  32.9663  DEM_T100  1
    X_T100U29  SU_T100U29  1  SU_T101U29  -1
    X_T100U30  COST  19.7033  DEM_T100  1
    X_T100U30  SU_T100U30  1  SU_T101U30  -1
    X_T101U1  COST  26.0958  DEM_T101  1
    X_T101U1  SU_T101U1  1  SU_T102U1  -1
    X_T101U2  COST  16.3911  DEM_T101  1
    X_T101U2  SU_T101U2  1  SU_T102U2  -1
    X_T101U3  COST  12.5137  DEM_T101  1
    X_T101U3  SU_T101U3  1  SU_T102U3  -1
    X_T101U4  COST  32.876  DEM_T101  1
    X_T101U4  SU_T101U4  1  SU_T102U4  -1
    X_T101U5  COST  17.9869  DEM_T101  1
    X_T101U5  SU_T101U5  1  SU_T102U5  -1
    X_T101U6  COST  13.5835  DEM_T101  1
    X_T101U6  SU_T101U6  1  SU_T102U6  -1
    X_T101U7  COST  38.0326  DEM_T101  1
    X_T101U7  SU_T101U7  1  SU_T102U7  -1
    X_T101U8  COST  32.0508  DEM_T101  1
    X_T101U8  SU_T101U8  1  SU_T102U8  -1
    X_T101U9  COST  25.6265  DEM_T101  1
    X_T101U9  SU_T101U9  1  SU_T102U9  -1
    X_T101U10  COST  34.4505  DEM_T101  1
    X_T101U10  SU_T101U10  1  SU_T102U10  -1
    X_T101U11  COST  18.9069  DEM_T101  1
    X_T101U11  SU_T101U11  1  SU_T102U11  -1
    X_T101U12  COST  38.8928  DEM_T101  1
    X_T101U12  SU_T101U12  1  SU_T102U12  -1
    X_T101U13  COST  32.937  DEM_T101  1
    X_T101U13  SU_T101U13  1  SU_T102U13  -1
    X_T101U14  COST  23.4251  DEM_T101  1
    X_T101U14  SU_T101U14  1  SU_T102U14  -1
    X_T101U15  COST  10.4776  DEM_T101  1
    X_T101U15  SU_T101U15  1  SU_T102U15  -1
    X_T101U16  COST  38.8249  DEM_T101  1
    X_T101U16  SU_T101U16  1  SU_T102U16  -1
    X_T101U17  COST  30.9026  DEM_T101  1
    X_T101U17  SU_T101U17  1  SU_T102U17  -1
    X_T101U18  COST  18.2249  DEM_T101  1
    X_T101U18  SU_T101U18  1  SU_T102U18  -1
    X_T101U19  COST  32.8945  DEM_T101  1
    X_T101U19  SU_T101U19  1  SU_T102U19  -1
    X_T101U20  COST  21.5532  DEM_T101  1
    X_T101U20  SU_T101U20  1  SU_T102U20  -1
    X_T101U21  COST  11.3353  DEM_T101  1
    X_T101U21  SU_T101U21  1  SU_T102U21  -1
    X_T101U22  COST  23.5386  DEM_T101  1
    X_T101U22  SU_T101U22  1  SU_T102U22  -1
    X_T101U23  COST  23.598  DEM_T101  1
    X_T101U23  SU_T101U23  1  SU_T102U23  -1
    X_T101U24  COST  27.4396  DEM_T101  1
    X_T101U24  SU_T101U24  1  SU_T102U24  -1
    X_T101U25  COST  15.7501  DEM_T101  1
    X_T101U25  SU_T101U25  1  SU_T102U25  -1
    X_T101U26  COST  20.8446  DEM_T101  1
    X_T101U26  SU_T101U26  1  SU_T102U26  -1
    X_T101U27  COST  25.878  DEM_T101  1
    X_T101U27  SU_T101U27  1  SU_T102U27  -1
    X_T101U28  COST  33.9058  DEM_T101  1
    X_T101U28  SU_T101U28  1  SU_T102U28  -1
    X_T101U29  COST  34.164  DEM_T101  1
    X_T101U29  SU_T101U29  1  SU_T102U29  -1
    X_T101U30  COST  11.663  DEM_T101  1
    X_T101U30  SU_T101U30  1  SU_T102U30  -1
    X_T102U1  COST  27.6371  DEM_T102  1
    X_T102U1  SU_T102U1  1  SU_T103U1  -1
    X_T102U2  COST  31.7818  DEM_T102  1
    X_T102U2  SU_T102U2  1  SU_T103U2  -1
    X_T102U3  COST  37.2504  DEM_T102  1
    X_T102U3  SU_T102U3  1  SU_T103U3  -1
    X_T102U4  COST  25.8329  DEM_T102  1
    X_T102U4  SU_T102U4  1  SU_T103U4  -1
    X_T102U5  COST  39.3499  DEM_T102  1
    X_T102U5  SU_T102U5  1  SU_T103U5  -1
    X_T102U6  COST  13.188  DEM_T102  1
    X_T102U6  SU_T102U6  1  SU_T103U6  -1
    X_T102U7  COST  15.1161  DEM_T102  1
    X_T102U7  SU_T102U7  1  SU_T103U7  -1
    X_T102U8  COST  16.3138  DEM_T102  1
    X_T102U8  SU_T102U8  1  SU_T103U8  -1
    X_T102U9  COST  36.3193  DEM_T102  1
    X_T102U9  SU_T102U9  1  SU_T103U9  -1
    X_T102U10  COST  12.4603  DEM_T102  1
    X_T102U10  SU_T102U10  1  SU_T103U10  -1
    X_T102U11  COST  30.1709  DEM_T102  1
    X_T102U11  SU_T102U11  1  SU_T103U11  -1
    X_T102U12  COST  18.3434  DEM_T102  1
    X_T102U12  SU_T102U12  1  SU_T103U12  -1
    X_T102U13  COST  24.9255  DEM_T102  1
    X_T102U13  SU_T102U13  1  SU_T103U13  -1
    X_T102U14  COST  31.9303  DEM_T102  1
    X_T102U14  SU_T102U14  1  SU_T103U14  -1
    X_T102U15  COST  29.921  DEM_T102  1
    X_T102U15  SU_T102U15  1  SU_T103U15  -1
    X_T102U16  COST  24.6784  DEM_T102  1
    X_T102U16  SU_T102U16  1  SU_T103U16  -1
    X_T102U17  COST  31.6831  DEM_T102  1
    X_T102U17  SU_T102U17  1  SU_T103U17  -1
    X_T102U18  COST  37.5123  DEM_T102  1
    X_T102U18  SU_T102U18  1  SU_T103U18  -1
    X_T102U19  COST  23.8783  DEM_T102  1
    X_T102U19  SU_T102U19  1  SU_T103U19  -1
    X_T102U20  COST  30.4998  DEM_T102  1
    X_T102U20  SU_T102U20  1  SU_T103U20  -1
    X_T102U21  COST  34.6276  DEM_T102  1
    X_T102U21  SU_T102U21  1  SU_T103U21  -1
    X_T102U22  COST  15.6696  DEM_T102  1
    X_T102U22  SU_T102U22  1  SU_T103U22  -1
    X_T102U23  COST  18.0258  DEM_T102  1
    X_T102U23  SU_T102U23  1  SU_T103U23  -1
    X_T102U24  COST  17.0311  DEM_T102  1
    X_T102U24  SU_T102U24  1  SU_T103U24  -1
    X_T102U25  COST  13.7107  DEM_T102  1
    X_T102U25  SU_T102U25  1  SU_T103U25  -1
    X_T102U26  COST  32.0428  DEM_T102  1
    X_T102U26  SU_T102U26  1  SU_T103U26  -1
    X_T102U27  COST  11.0395  DEM_T102  1
    X_T102U27  SU_T102U27  1  SU_T103U27  -1
    X_T102U28  COST  37.4408  DEM_T102  1
    X_T102U28  SU_T102U28  1  SU_T103U28  -1
    X_T102U29  COST  23.6072  DEM_T102  1
    X_T102U29  SU_T102U29  1  SU_T103U29  -1
    X_T102U30  COST  31.8591  DEM_T102  1
    X_T102U30  SU_T102U30  1  SU_T103U30  -1
    X_T103U1  COST  16.0624  DEM_T103  1
    X_T103U1  SU_T103U1  1  SU_T104U1  -1
    X_T103U2  COST  21.5016  DEM_T103  1
    X_T103U2  SU_T103U2  1  SU_T104U2  -1
    X_T103U3  COST  35.9588  DEM_T103  1
    X_T103U3  SU_T103U3  1  SU_T104U3  -1
    X_T103U4  COST  31.8261  DEM_T103  1
    X_T103U4  SU_T103U4  1  SU_T104U4  -1
    X_T103U5  COST  27.6438  DEM_T103  1
    X_T103U5  SU_T103U5  1  SU_T104U5  -1
    X_T103U6  COST  16.0214  DEM_T103  1
    X_T103U6  SU_T103U6  1  SU_T104U6  -1
    X_T103U7  COST  15.8499  DEM_T103  1
    X_T103U7  SU_T103U7  1  SU_T104U7  -1
    X_T103U8  COST  28.6167  DEM_T103  1
    X_T103U8  SU_T103U8  1  SU_T104U8  -1
    X_T103U9  COST  30.9815  DEM_T103  1
    X_T103U9  SU_T103U9  1  SU_T104U9  -1
    X_T103U10  COST  35.4839  DEM_T103  1
    X_T103U10  SU_T103U10  1  SU_T104U10  -1
    X_T103U11  COST  24.1397  DEM_T103  1
    X_T103U11  SU_T103U11  1  SU_T104U11  -1
    X_T103U12  COST  32.2113  DEM_T103  1
    X_T103U12  SU_T103U12  1  SU_T104U12  -1
    X_T103U13  COST  32.6962  DEM_T103  1
    X_T103U13  SU_T103U13  1  SU_T104U13  -1
    X_T103U14  COST  10.8241  DEM_T103  1
    X_T103U14  SU_T103U14  1  SU_T104U14  -1
    X_T103U15  COST  39.8073  DEM_T103  1
    X_T103U15  SU_T103U15  1  SU_T104U15  -1
    X_T103U16  COST  30.1793  DEM_T103  1
    X_T103U16  SU_T103U16  1  SU_T104U16  -1
    X_T103U17  COST  31.7436  DEM_T103  1
    X_T103U17  SU_T103U17  1  SU_T104U17  -1
    X_T103U18  COST  30.3992  DEM_T103  1
    X_T103U18  SU_T103U18  1  SU_T104U18  -1
    X_T103U19  COST  32.3688  DEM_T103  1
    X_T103U19  SU_T103U19  1  SU_T104U19  -1
    X_T103U20  COST  29.9695  DEM_T103  1
    X_T103U20  SU_T103U20  1  SU_T104U20  -1
    X_T103U21  COST  37.6952  DEM_T103  1
    X_T103U21  SU_T103U21  1  SU_T104U21  -1
    X_T103U22  COST  31.8977  DEM_T103  1
    X_T103U22  SU_T103U22  1  SU_T104U22  -1
    X_T103U23  COST  11.8502  DEM_T103  1
    X_T103U23  SU_T103U23  1  SU_T104U23  -1
    X_T103U24  COST  16.1416  DEM_T103  1
    X_T103U24  SU_T103U24  1  SU_T104U24  -1
    X_T103U25  COST  29.4863  DEM_T103  1
    X_T103U25  SU_T103U25  1  SU_T104U25  -1
    X_T103U26  COST  23.7994  DEM_T103  1
    X_T103U26  SU_T103U26  1  SU_T104U26  -1
    X_T103U27  COST  21.0817  DEM_T103  1
    X_T103U27  SU_T103U27  1  SU_T104U27  -1
    X_T103U28  COST  36.5668  DEM_T103  1
    X_T103U28  SU_T103U28  1  SU_T104U28  -1
    X_T103U29  COST  36.4723  DEM_T103  1
    X_T103U29  SU_T103U29  1  SU_T104U29  -1
    X_T103U30  COST  19.9497  DEM_T103  1
    X_T103U30  SU_T103U30  1  SU_T104U30  -1
    X_T104U1  COST  25.2326  DEM_T104  1
    X_T104U1  SU_T104U1  1  SU_T105U1  -1
    X_T104U2  COST  13.3043  DEM_T104  1
    X_T104U2  SU_T104U2  1  SU_T105U2  -1
    X_T104U3  COST  17.2319  DEM_T104  1
    X_T104U3  SU_T104U3  1  SU_T105U3  -1
    X_T104U4  COST  20.803  DEM_T104  1
    X_T104U4  SU_T104U4  1  SU_T105U4  -1
    X_T104U5  COST  17.7049  DEM_T104  1
    X_T104U5  SU_T104U5  1  SU_T105U5  -1
    X_T104U6  COST  13.0282  DEM_T104  1
    X_T104U6  SU_T104U6  1  SU_T105U6  -1
    X_T104U7  COST  39.9955  DEM_T104  1
    X_T104U7  SU_T104U7  1  SU_T105U7  -1
    X_T104U8  COST  29.1602  DEM_T104  1
    X_T104U8  SU_T104U8  1  SU_T105U8  -1
    X_T104U9  COST  37.6188  DEM_T104  1
    X_T104U9  SU_T104U9  1  SU_T105U9  -1
    X_T104U10  COST  38.6519  DEM_T104  1
    X_T104U10  SU_T104U10  1  SU_T105U10  -1
    X_T104U11  COST  10.038  DEM_T104  1
    X_T104U11  SU_T104U11  1  SU_T105U11  -1
    X_T104U12  COST  25.6514  DEM_T104  1
    X_T104U12  SU_T104U12  1  SU_T105U12  -1
    X_T104U13  COST  33.0184  DEM_T104  1
    X_T104U13  SU_T104U13  1  SU_T105U13  -1
    X_T104U14  COST  24.5107  DEM_T104  1
    X_T104U14  SU_T104U14  1  SU_T105U14  -1
    X_T104U15  COST  33.6684  DEM_T104  1
    X_T104U15  SU_T104U15  1  SU_T105U15  -1
    X_T104U16  COST  36.6626  DEM_T104  1
    X_T104U16  SU_T104U16  1  SU_T105U16  -1
    X_T104U17  COST  17.3059  DEM_T104  1
    X_T104U17  SU_T104U17  1  SU_T105U17  -1
    X_T104U18  COST  13.1451  DEM_T104  1
    X_T104U18  SU_T104U18  1  SU_T105U18  -1
    X_T104U19  COST  25.6058  DEM_T104  1
    X_T104U19  SU_T104U19  1  SU_T105U19  -1
    X_T104U20  COST  10.4593  DEM_T104  1
    X_T104U20  SU_T104U20  1  SU_T105U20  -1
    X_T104U21  COST  20.8482  DEM_T104  1
    X_T104U21  SU_T104U21  1  SU_T105U21  -1
    X_T104U22  COST  34.2811  DEM_T104  1
    X_T104U22  SU_T104U22  1  SU_T105U22  -1
    X_T104U23  COST  11.4167  DEM_T104  1
    X_T104U23  SU_T104U23  1  SU_T105U23  -1
    X_T104U24  COST  38.6771  DEM_T104  1
    X_T104U24  SU_T104U24  1  SU_T105U24  -1
    X_T104U25  COST  20.6479  DEM_T104  1
    X_T104U25  SU_T104U25  1  SU_T105U25  -1
    X_T104U26  COST  24.7984  DEM_T104  1
    X_T104U26  SU_T104U26  1  SU_T105U26  -1
    X_T104U27  COST  25.0349  DEM_T104  1
    X_T104U27  SU_T104U27  1  SU_T105U27  -1
    X_T104U28  COST  39.1624  DEM_T104  1
    X_T104U28  SU_T104U28  1  SU_T105U28  -1
    X_T104U29  COST  20.6246  DEM_T104  1
    X_T104U29  SU_T104U29  1  SU_T105U29  -1
    X_T104U30  COST  21.7208  DEM_T104  1
    X_T104U30  SU_T104U30  1  SU_T105U30  -1
    X_T105U1  COST  16.4654  DEM_T105  1
    X_T105U1  SU_T105U1  1  SU_T106U1  -1
    X_T105U2  COST  31.8763  DEM_T105  1
    X_T105U2  SU_T105U2  1  SU_T106U2  -1
    X_T105U3  COST  22.4547  DEM_T105  1
    X_T105U3  SU_T105U3  1  SU_T106U3  -1
    X_T105U4  COST  15.6258  DEM_T105  1
    X_T105U4  SU_T105U4  1  SU_T106U4  -1
    X_T105U5  COST  12.7428  DEM_T105  1
    X_T105U5  SU_T105U5  1  SU_T106U5  -1
    X_T105U6  COST  36.7562  DEM_T105  1
    X_T105U6  SU_T105U6  1  SU_T106U6  -1
    X_T105U7  COST  19.8324  DEM_T105  1
    X_T105U7  SU_T105U7  1  SU_T106U7  -1
    X_T105U8  COST  21.6589  DEM_T105  1
    X_T105U8  SU_T105U8  1  SU_T106U8  -1
    X_T105U9  COST  37.528  DEM_T105  1
    X_T105U9  SU_T105U9  1  SU_T106U9  -1
    X_T105U10  COST  39.7225  DEM_T105  1
    X_T105U10  SU_T105U10  1  SU_T106U10  -1
    X_T105U11  COST  24.1897  DEM_T105  1
    X_T105U11  SU_T105U11  1  SU_T106U11  -1
    X_T105U12  COST  15.7173  DEM_T105  1
    X_T105U12  SU_T105U12  1  SU_T106U12  -1
    X_T105U13  COST  37.0908  DEM_T105  1
    X_T105U13  SU_T105U13  1  SU_T106U13  -1
    X_T105U14  COST  35.9067  DEM_T105  1
    X_T105U14  SU_T105U14  1  SU_T106U14  -1
    X_T105U15  COST  36.9854  DEM_T105  1
    X_T105U15  SU_T105U15  1  SU_T106U15  -1
    X_T105U16  COST  30.1259  DEM_T105  1
    X_T105U16  SU_T105U16  1  SU_T106U16  -1
    X_T105U17  COST  23.5826  DEM_T105  1
    X_T105U17  SU_T105U17  1  SU_T106U17  -1
    X_T105U18  COST  38.8484  DEM_T105  1
    X_T105U18  SU_T105U18  1  SU_T106U18  -1
    X_T105U19  COST  28.6581  DEM_T105  1
    X_T105U19  SU_T105U19  1  SU_T106U19  -1
    X_T105U20  COST  35.4841  DEM_T105  1
    X_T105U20  SU_T105U20  1  SU_T106U20  -1
    X_T105U21  COST  34.1158  DEM_T105  1
    X_T105U21  SU_T105U21  1  SU_T106U21  -1
    X_T105U22  COST  11.8733  DEM_T105  1
    X_T105U22  SU_T105U22  1  SU_T106U22  -1
    X_T105U23  COST  23.3332  DEM_T105  1
    X_T105U23  SU_T105U23  1  SU_T106U23  -1
    X_T105U24  COST  13.0749  DEM_T105  1
    X_T105U24  SU_T105U24  1  SU_T106U24  -1
    X_T105U25  COST  12.5543  DEM_T105  1
    X_T105U25  SU_T105U25  1  SU_T106U25  -1
    X_T105U26  COST  32.3379  DEM_T105  1
    X_T105U26  SU_T105U26  1  SU_T106U26  -1
    X_T105U27  COST  31.5361  DEM_T105  1
    X_T105U27  SU_T105U27  1  SU_T106U27  -1
    X_T105U28  COST  30.9501  DEM_T105  1
    X_T105U28  SU_T105U28  1  SU_T106U28  -1
    X_T105U29  COST  30.1616  DEM_T105  1
    X_T105U29  SU_T105U29  1  SU_T106U29  -1
    X_T105U30  COST  21.1518  DEM_T105  1
    X_T105U30  SU_T105U30  1  SU_T106U30  -1
    X_T106U1  COST  31.096  DEM_T106  1
    X_T106U1  SU_T106U1  1  SU_T107U1  -1
    X_T106U2  COST  28.9356  DEM_T106  1
    X_T106U2  SU_T106U2  1  SU_T107U2  -1
    X_T106U3  COST  26.9681  DEM_T106  1
    X_T106U3  SU_T106U3  1  SU_T107U3  -1
    X_T106U4  COST  10.4054  DEM_T106  1
    X_T106U4  SU_T106U4  1  SU_T107U4  -1
    X_T106U5  COST  28.0327  DEM_T106  1
    X_T106U5  SU_T106U5  1  SU_T107U5  -1
    X_T106U6  COST  36.6593  DEM_T106  1
    X_T106U6  SU_T106U6  1  SU_T107U6  -1
    X_T106U7  COST  31.8527  DEM_T106  1
    X_T106U7  SU_T106U7  1  SU_T107U7  -1
    X_T106U8  COST  20.2656  DEM_T106  1
    X_T106U8  SU_T106U8  1  SU_T107U8  -1
    X_T106U9  COST  26.8584  DEM_T106  1
    X_T106U9  SU_T106U9  1  SU_T107U9  -1
    X_T106U10  COST  12.5311  DEM_T106  1
    X_T106U10  SU_T106U10  1  SU_T107U10  -1
    X_T106U11  COST  31.2326  DEM_T106  1
    X_T106U11  SU_T106U11  1  SU_T107U11  -1
    X_T106U12  COST  12.3017  DEM_T106  1
    X_T106U12  SU_T106U12  1  SU_T107U12  -1
    X_T106U13  COST  23.2701  DEM_T106  1
    X_T106U13  SU_T106U13  1  SU_T107U13  -1
    X_T106U14  COST  19.4625  DEM_T106  1
    X_T106U14  SU_T106U14  1  SU_T107U14  -1
    X_T106U15  COST  36.1447  DEM_T106  1
    X_T106U15  SU_T106U15  1  SU_T107U15  -1
    X_T106U16  COST  39.3676  DEM_T106  1
    X_T106U16  SU_T106U16  1  SU_T107U16  -1
    X_T106U17  COST  18.0178  DEM_T106  1
    X_T106U17  SU_T106U17  1  SU_T107U17  -1
    X_T106U18  COST  12.8319  DEM_T106  1
    X_T106U18  SU_T106U18  1  SU_T107U18  -1
    X_T106U19  COST  22.433  DEM_T106  1
    X_T106U19  SU_T106U19  1  SU_T107U19  -1
    X_T106U20  COST  37.0094  DEM_T106  1
    X_T106U20  SU_T106U20  1  SU_T107U20  -1
    X_T106U21  COST  13.1566  DEM_T106  1
    X_T106U21  SU_T106U21  1  SU_T107U21  -1
    X_T106U22  COST  29.0628  DEM_T106  1
    X_T106U22  SU_T106U22  1  SU_T107U22  -1
    X_T106U23  COST  34.7575  DEM_T106  1
    X_T106U23  SU_T106U23  1  SU_T107U23  -1
    X_T106U24  COST  22.4239  DEM_T106  1
    X_T106U24  SU_T106U24  1  SU_T107U24  -1
    X_T106U25  COST  18.0475  DEM_T106  1
    X_T106U25  SU_T106U25  1  SU_T107U25  -1
    X_T106U26  COST  15.26  DEM_T106  1
    X_T106U26  SU_T106U26  1  SU_T107U26  -1
    X_T106U27  COST  14.4643  DEM_T106  1
    X_T106U27  SU_T106U27  1  SU_T107U27  -1
    X_T106U28  COST  23.4035  DEM_T106  1
    X_T106U28  SU_T106U28  1  SU_T107U28  -1
    X_T106U29  COST  38.6507  DEM_T106  1
    X_T106U29  SU_T106U29  1  SU_T107U29  -1
    X_T106U30  COST  19.3358  DEM_T106  1
    X_T106U30  SU_T106U30  1  SU_T107U30  -1
    X_T107U1  COST  35.4545  DEM_T107  1
    X_T107U1  SU_T107U1  1  SU_T108U1  -1
    X_T107U2  COST  26.2479  DEM_T107  1
    X_T107U2  SU_T107U2  1  SU_T108U2  -1
    X_T107U3  COST  17.7074  DEM_T107  1
    X_T107U3  SU_T107U3  1  SU_T108U3  -1
    X_T107U4  COST  28.9637  DEM_T107  1
    X_T107U4  SU_T107U4  1  SU_T108U4  -1
    X_T107U5  COST  11.8033  DEM_T107  1
    X_T107U5  SU_T107U5  1  SU_T108U5  -1
    X_T107U6  COST  28.4635  DEM_T107  1
    X_T107U6  SU_T107U6  1  SU_T108U6  -1
    X_T107U7  COST  28.1916  DEM_T107  1
    X_T107U7  SU_T107U7  1  SU_T108U7  -1
    X_T107U8  COST  25.7731  DEM_T107  1
    X_T107U8  SU_T107U8  1  SU_T108U8  -1
    X_T107U9  COST  27.4436  DEM_T107  1
    X_T107U9  SU_T107U9  1  SU_T108U9  -1
    X_T107U10  COST  11.6109  DEM_T107  1
    X_T107U10  SU_T107U10  1  SU_T108U10  -1
    X_T107U11  COST  15.2101  DEM_T107  1
    X_T107U11  SU_T107U11  1  SU_T108U11  -1
    X_T107U12  COST  29.3679  DEM_T107  1
    X_T107U12  SU_T107U12  1  SU_T108U12  -1
    X_T107U13  COST  31.9863  DEM_T107  1
    X_T107U13  SU_T107U13  1  SU_T108U13  -1
    X_T107U14  COST  39.755  DEM_T107  1
    X_T107U14  SU_T107U14  1  SU_T108U14  -1
    X_T107U15  COST  34.9957  DEM_T107  1
    X_T107U15  SU_T107U15  1  SU_T108U15  -1
    X_T107U16  COST  29.4621  DEM_T107  1
    X_T107U16  SU_T107U16  1  SU_T108U16  -1
    X_T107U17  COST  29.0126  DEM_T107  1
    X_T107U17  SU_T107U17  1  SU_T108U17  -1
    X_T107U18  COST  23.2885  DEM_T107  1
    X_T107U18  SU_T107U18  1  SU_T108U18  -1
    X_T107U19  COST  35.4713  DEM_T107  1
    X_T107U19  SU_T107U19  1  SU_T108U19  -1
    X_T107U20  COST  37.5624  DEM_T107  1
    X_T107U20  SU_T107U20  1  SU_T108U20  -1
    X_T107U21  COST  26.4634  DEM_T107  1
    X_T107U21  SU_T107U21  1  SU_T108U21  -1
    X_T107U22  COST  27.492  DEM_T107  1
    X_T107U22  SU_T107U22  1  SU_T108U22  -1
    X_T107U23  COST  29.8101  DEM_T107  1
    X_T107U23  SU_T107U23  1  SU_T108U23  -1
    X_T107U24  COST  10.7078  DEM_T107  1
    X_T107U24  SU_T107U24  1  SU_T108U24  -1
    X_T107U25  COST  18.9775  DEM_T107  1
    X_T107U25  SU_T107U25  1  SU_T108U25  -1
    X_T107U26  COST  16.2483  DEM_T107  1
    X_T107U26  SU_T107U26  1  SU_T108U26  -1
    X_T107U27  COST  15.6856  DEM_T107  1
    X_T107U27  SU_T107U27  1  SU_T108U27  -1
    X_T107U28  COST  19.3302  DEM_T107  1
    X_T107U28  SU_T107U28  1  SU_T108U28  -1
    X_T107U29  COST  33.2479  DEM_T107  1
    X_T107U29  SU_T107U29  1  SU_T108U29  -1
    X_T107U30  COST  33.9201  DEM_T107  1
    X_T107U30  SU_T107U30  1  SU_T108U30  -1
    X_T108U1  COST  36.6233  DEM_T108  1
    X_T108U1  SU_T108U1  1  SU_T109U1  -1
    X_T108U2  COST  20.0904  DEM_T108  1
    X_T108U2  SU_T108U2  1  SU_T109U2  -1
    X_T108U3  COST  13.0872  DEM_T108  1
    X_T108U3  SU_T108U3  1  SU_T109U3  -1
    X_T108U4  COST  21.6174  DEM_T108  1
    X_T108U4  SU_T108U4  1  SU_T109U4  -1
    X_T108U5  COST  24.7869  DEM_T108  1
    X_T108U5  SU_T108U5  1  SU_T109U5  -1
    X_T108U6  COST  32.0429  DEM_T108  1
    X_T108U6  SU_T108U6  1  SU_T109U6  -1
    X_T108U7  COST  24.7243  DEM_T108  1
    X_T108U7  SU_T108U7  1  SU_T109U7  -1
    X_T108U8  COST  28.536  DEM_T108  1
    X_T108U8  SU_T108U8  1  SU_T109U8  -1
    X_T108U9  COST  21.3602  DEM_T108  1
    X_T108U9  SU_T108U9  1  SU_T109U9  -1
    X_T108U10  COST  36.2251  DEM_T108  1
    X_T108U10  SU_T108U10  1  SU_T109U10  -1
    X_T108U11  COST  31.4096  DEM_T108  1
    X_T108U11  SU_T108U11  1  SU_T109U11  -1
    X_T108U12  COST  29.7045  DEM_T108  1
    X_T108U12  SU_T108U12  1  SU_T109U12  -1
    X_T108U13  COST  14.3201  DEM_T108  1
    X_T108U13  SU_T108U13  1  SU_T109U13  -1
    X_T108U14  COST  28.6713  DEM_T108  1
    X_T108U14  SU_T108U14  1  SU_T109U14  -1
    X_T108U15  COST  18.6449  DEM_T108  1
    X_T108U15  SU_T108U15  1  SU_T109U15  -1
    X_T108U16  COST  11.4878  DEM_T108  1
    X_T108U16  SU_T108U16  1  SU_T109U16  -1
    X_T108U17  COST  10.9857  DEM_T108  1
    X_T108U17  SU_T108U17  1  SU_T109U17  -1
    X_T108U18  COST  28.0182  DEM_T108  1
    X_T108U18  SU_T108U18  1  SU_T109U18  -1
    X_T108U19  COST  31.6367  DEM_T108  1
    X_T108U19  SU_T108U19  1  SU_T109U19  -1
    X_T108U20  COST  30.556  DEM_T108  1
    X_T108U20  SU_T108U20  1  SU_T109U20  -1
    X_T108U21  COST  30.7332  DEM_T108  1
    X_T108U21  SU_T108U21  1  SU_T109U21  -1
    X_T108U22  COST  38.446  DEM_T108  1
    X_T108U22  SU_T108U22  1  SU_T109U22  -1
    X_T108U23  COST  31.0697  DEM_T108  1
    X_T108U23  SU_T108U23  1  SU_T109U23  -1
    X_T108U24  COST  20.6983  DEM_T108  1
    X_T108U24  SU_T108U24  1  SU_T109U24  -1
    X_T108U25  COST  38.398  DEM_T108  1
    X_T108U25  SU_T108U25  1  SU_T109U25  -1
    X_T108U26  COST  16.5905  DEM_T108  1
    X_T108U26  SU_T108U26  1  SU_T109U26  -1
    X_T108U27  COST  33.8936  DEM_T108  1
    X_T108U27  SU_T108U27  1  SU_T109U27  -1
    X_T108U28  COST  29.4986  DEM_T108  1
    X_T108U28  SU_T108U28  1  SU_T109U28  -1
    X_T108U29  COST  28.6603  DEM_T108  1
    X_T108U29  SU_T108U29  1  SU_T109U29  -1
    X_T108U30  COST  32.4884  DEM_T108  1
    X_T108U30  SU_T108U30  1  SU_T109U30  -1
    X_T109U1  COST  28.8962  DEM_T109  1
    X_T109U1  SU_T109U1  1  SU_T110U1  -1
    X_T109U2  COST  22.1744  DEM_T109  1
    X_T109U2  SU_T109U2  1  SU_T110U2  -1
    X_T109U3  COST  13.3716  DEM_T109  1
    X_T109U3  SU_T109U3  1  SU_T110U3  -1
    X_T109U4  COST  24.7721  DEM_T109  1
    X_T109U4  SU_T109U4  1  SU_T110U4  -1
    X_T109U5  COST  14.9103  DEM_T109  1
    X_T109U5  SU_T109U5  1  SU_T110U5  -1
    X_T109U6  COST  11.9739  DEM_T109  1
    X_T109U6  SU_T109U6  1  SU_T110U6  -1
    X_T109U7  COST  17.1463  DEM_T109  1
    X_T109U7  SU_T109U7  1  SU_T110U7  -1
    X_T109U8  COST  23.311  DEM_T109  1
    X_T109U8  SU_T109U8  1  SU_T110U8  -1
    X_T109U9  COST  22.3399  DEM_T109  1
    X_T109U9  SU_T109U9  1  SU_T110U9  -1
    X_T109U10  COST  25.7294  DEM_T109  1
    X_T109U10  SU_T109U10  1  SU_T110U10  -1
    X_T109U11  COST  28.2306  DEM_T109  1
    X_T109U11  SU_T109U11  1  SU_T110U11  -1
    X_T109U12  COST  35.2332  DEM_T109  1
    X_T109U12  SU_T109U12  1  SU_T110U12  -1
    X_T109U13  COST  29.752  DEM_T109  1
    X_T109U13  SU_T109U13  1  SU_T110U13  -1
    X_T109U14  COST  26.7885  DEM_T109  1
    X_T109U14  SU_T109U14  1  SU_T110U14  -1
    X_T109U15  COST  20.4661  DEM_T109  1
    X_T109U15  SU_T109U15  1  SU_T110U15  -1
    X_T109U16  COST  16.1993  DEM_T109  1
    X_T109U16  SU_T109U16  1  SU_T110U16  -1
    X_T109U17  COST  10.9137  DEM_T109  1
    X_T109U17  SU_T109U17  1  SU_T110U17  -1
    X_T109U18  COST  35.6403  DEM_T109  1
    X_T109U18  SU_T109U18  1  SU_T110U18  -1
    X_T109U19  COST  32.4171  DEM_T109  1
    X_T109U19  SU_T109U19  1  SU_T110U19  -1
    X_T109U20  COST  26.1125  DEM_T109  1
    X_T109U20  SU_T109U20  1  SU_T110U20  -1
    X_T109U21  COST  28.8194  DEM_T109  1
    X_T109U21  SU_T109U21  1  SU_T110U21  -1
    X_T109U22  COST  38.7935  DEM_T109  1
    X_T109U22  SU_T109U22  1  SU_T110U22  -1
    X_T109U23  COST  37.2325  DEM_T109  1
    X_T109U23  SU_T109U23  1  SU_T110U23  -1
    X_T109U24  COST  32.0639  DEM_T109  1
    X_T109U24  SU_T109U24  1  SU_T110U24  -1
    X_T109U25  COST  20.7839  DEM_T109  1
    X_T109U25  SU_T109U25  1  SU_T110U25  -1
    X_T109U26  COST  16.9781  DEM_T109  1
    X_T109U26  SU_T109U26  1  SU_T110U26  -1
    X_T109U27  COST  19.7832  DEM_T109  1
    X_T109U27  SU_T109U27  1  SU_T110U27  -1
    X_T109U28  COST  37.7586  DEM_T109  1
    X_T109U28  SU_T109U28  1  SU_T110U28  -1
    X_T109U29  COST  24.9905  DEM_T109  1
    X_T109U29  SU_T109U29  1  SU_T110U29  -1
    X_T109U30  COST  31.4369  DEM_T109  1
    X_T109U30  SU_T109U30  1  SU_T110U30  -1
    X_T110U1  COST  39.1166  DEM_T110  1
    X_T110U1  SU_T110U1  1  SU_T111U1  -1
    X_T110U2  COST  20.0918  DEM_T110  1
    X_T110U2  SU_T110U2  1  SU_T111U2  -1
    X_T110U3  COST  39.3779  DEM_T110  1
    X_T110U3  SU_T110U3  1  SU_T111U3  -1
    X_T110U4  COST  30.1593  DEM_T110  1
    X_T110U4  SU_T110U4  1  SU_T111U4  -1
    X_T110U5  COST  32.3081  DEM_T110  1
    X_T110U5  SU_T110U5  1  SU_T111U5  -1
    X_T110U6  COST  19.5187  DEM_T110  1
    X_T110U6  SU_T110U6  1  SU_T111U6  -1
    X_T110U7  COST  18.8381  DEM_T110  1
    X_T110U7  SU_T110U7  1  SU_T111U7  -1
    X_T110U8  COST  10.7769  DEM_T110  1
    X_T110U8  SU_T110U8  1  SU_T111U8  -1
    X_T110U9  COST  26.6191  DEM_T110  1
    X_T110U9  SU_T110U9  1  SU_T111U9  -1
    X_T110U10  COST  18.4966  DEM_T110  1
    X_T110U10  SU_T110U10  1  SU_T111U10  -1
    X_T110U11  COST  27.8095  DEM_T110  1
    X_T110U11  SU_T110U11  1  SU_T111U11  -1
    X_T110U12  COST  22.1009  DEM_T110  1
    X_T110U12  SU_T110U12  1  SU_T111U12  -1
    X_T110U13  COST  15.698  DEM_T110  1
    X_T110U13  SU_T110U13  1  SU_T111U13  -1
    X_T110U14  COST  13.5007  DEM_T110  1
    X_T110U14  SU_T110U14  1  SU_T111U14  -1
    X_T110U15  COST  20.2345  DEM_T110  1
    X_T110U15  SU_T110U15  1  SU_T111U15  -1
    X_T110U16  COST  26.4929  DEM_T110  1
    X_T110U16  SU_T110U16  1  SU_T111U16  -1
    X_T110U17  COST  15.0827  DEM_T110  1
    X_T110U17  SU_T110U17  1  SU_T111U17  -1
    X_T110U18  COST  39.2431  DEM_T110  1
    X_T110U18  SU_T110U18  1  SU_T111U18  -1
    X_T110U19  COST  11.8002  DEM_T110  1
    X_T110U19  SU_T110U19  1  SU_T111U19  -1
    X_T110U20  COST  37.7675  DEM_T110  1
    X_T110U20  SU_T110U20  1  SU_T111U20  -1
    X_T110U21  COST  29.8634  DEM_T110  1
    X_T110U21  SU_T110U21  1  SU_T111U21  -1
    X_T110U22  COST  36.2138  DEM_T110  1
    X_T110U22  SU_T110U22  1  SU_T111U22  -1
    X_T110U23  COST  23.1294  DEM_T110  1
    X_T110U23  SU_T110U23  1  SU_T111U23  -1
    X_T110U24  COST  31.5706  DEM_T110  1
    X_T110U24  SU_T110U24  1  SU_T111U24  -1
    X_T110U25  COST  17.4966  DEM_T110  1
    X_T110U25  SU_T110U25  1  SU_T111U25  -1
    X_T110U26  COST  15.3165  DEM_T110  1
    X_T110U26  SU_T110U26  1  SU_T111U26  -1
    X_T110U27  COST  28.4872  DEM_T110  1
    X_T110U27  SU_T110U27  1  SU_T111U27  -1
    X_T110U28  COST  21.7098  DEM_T110  1
    X_T110U28  SU_T110U28  1  SU_T111U28  -1
    X_T110U29  COST  10.8737  DEM_T110  1
    X_T110U29  SU_T110U29  1  SU_T111U29  -1
    X_T110U30  COST  37.0573  DEM_T110  1
    X_T110U30  SU_T110U30  1  SU_T111U30  -1
    X_T111U1  COST  26.5207  DEM_T111  1
    X_T111U1  SU_T111U1  1  SU_T112U1  -1
    X_T111U2  COST  16.3683  DEM_T111  1
    X_T111U2  SU_T111U2  1  SU_T112U2  -1
    X_T111U3  COST  24.2416  DEM_T111  1
    X_T111U3  SU_T111U3  1  SU_T112U3  -1
    X_T111U4  COST  34.5578  DEM_T111  1
    X_T111U4  SU_T111U4  1  SU_T112U4  -1
    X_T111U5  COST  33.458  DEM_T111  1
    X_T111U5  SU_T111U5  1  SU_T112U5  -1
    X_T111U6  COST  12.6025  DEM_T111  1
    X_T111U6  SU_T111U6  1  SU_T112U6  -1
    X_T111U7  COST  11.7128  DEM_T111  1
    X_T111U7  SU_T111U7  1  SU_T112U7  -1
    X_T111U8  COST  25.9127  DEM_T111  1
    X_T111U8  SU_T111U8  1  SU_T112U8  -1
    X_T111U9  COST  27.7051  DEM_T111  1
    X_T111U9  SU_T111U9  1  SU_T112U9  -1
    X_T111U10  COST  16.0263  DEM_T111  1
    X_T111U10  SU_T111U10  1  SU_T112U10  -1
    X_T111U11  COST  25.735  DEM_T111  1
    X_T111U11  SU_T111U11  1  SU_T112U11  -1
    X_T111U12  COST  33.3845  DEM_T111  1
    X_T111U12  SU_T111U12  1  SU_T112U12  -1
    X_T111U13  COST  39.1807  DEM_T111  1
    X_T111U13  SU_T111U13  1  SU_T112U13  -1
    X_T111U14  COST  12.1333  DEM_T111  1
    X_T111U14  SU_T111U14  1  SU_T112U14  -1
    X_T111U15  COST  32.2988  DEM_T111  1
    X_T111U15  SU_T111U15  1  SU_T112U15  -1
    X_T111U16  COST  34.5337  DEM_T111  1
    X_T111U16  SU_T111U16  1  SU_T112U16  -1
    X_T111U17  COST  37.8938  DEM_T111  1
    X_T111U17  SU_T111U17  1  SU_T112U17  -1
    X_T111U18  COST  12.0791  DEM_T111  1
    X_T111U18  SU_T111U18  1  SU_T112U18  -1
    X_T111U19  COST  28.2907  DEM_T111  1
    X_T111U19  SU_T111U19  1  SU_T112U19  -1
    X_T111U20  COST  22.2123  DEM_T111  1
    X_T111U20  SU_T111U20  1  SU_T112U20  -1
    X_T111U21  COST  16.802  DEM_T111  1
    X_T111U21  SU_T111U21  1  SU_T112U21  -1
    X_T111U22  COST  30.9234  DEM_T111  1
    X_T111U22  SU_T111U22  1  SU_T112U22  -1
    X_T111U23  COST  24.9259  DEM_T111  1
    X_T111U23  SU_T111U23  1  SU_T112U23  -1
    X_T111U24  COST  31.7316  DEM_T111  1
    X_T111U24  SU_T111U24  1  SU_T112U24  -1
    X_T111U25  COST  36.7671  DEM_T111  1
    X_T111U25  SU_T111U25  1  SU_T112U25  -1
    X_T111U26  COST  15.9401  DEM_T111  1
    X_T111U26  SU_T111U26  1  SU_T112U26  -1
    X_T111U27  COST  22.2623  DEM_T111  1
    X_T111U27  SU_T111U27  1  SU_T112U27  -1
    X_T111U28  COST  27.5668  DEM_T111  1
    X_T111U28  SU_T111U28  1  SU_T112U28  -1
    X_T111U29  COST  14.4933  DEM_T111  1
    X_T111U29  SU_T111U29  1  SU_T112U29  -1
    X_T111U30  COST  31.8825  DEM_T111  1
    X_T111U30  SU_T111U30  1  SU_T112U30  -1
    X_T112U1  COST  20.77  DEM_T112  1
    X_T112U1  SU_T112U1  1  SU_T113U1  -1
    X_T112U2  COST  21.6418  DEM_T112  1
    X_T112U2  SU_T112U2  1  SU_T113U2  -1
    X_T112U3  COST  19.1727  DEM_T112  1
    X_T112U3  SU_T112U3  1  SU_T113U3  -1
    X_T112U4  COST  37.9792  DEM_T112  1
    X_T112U4  SU_T112U4  1  SU_T113U4  -1
    X_T112U5  COST  33.7808  DEM_T112  1
    X_T112U5  SU_T112U5  1  SU_T113U5  -1
    X_T112U6  COST  29.391  DEM_T112  1
    X_T112U6  SU_T112U6  1  SU_T113U6  -1
    X_T112U7  COST  11.2493  DEM_T112  1
    X_T112U7  SU_T112U7  1  SU_T113U7  -1
    X_T112U8  COST  27.14  DEM_T112  1
    X_T112U8  SU_T112U8  1  SU_T113U8  -1
    X_T112U9  COST  25.6947  DEM_T112  1
    X_T112U9  SU_T112U9  1  SU_T113U9  -1
    X_T112U10  COST  11.303  DEM_T112  1
    X_T112U10  SU_T112U10  1  SU_T113U10  -1
    X_T112U11  COST  36.2729  DEM_T112  1
    X_T112U11  SU_T112U11  1  SU_T113U11  -1
    X_T112U12  COST  10.5294  DEM_T112  1
    X_T112U12  SU_T112U12  1  SU_T113U12  -1
    X_T112U13  COST  25.8872  DEM_T112  1
    X_T112U13  SU_T112U13  1  SU_T113U13  -1
    X_T112U14  COST  18.9218  DEM_T112  1
    X_T112U14  SU_T112U14  1  SU_T113U14  -1
    X_T112U15  COST  16.2337  DEM_T112  1
    X_T112U15  SU_T112U15  1  SU_T113U15  -1
    X_T112U16  COST  34.0911  DEM_T112  1
    X_T112U16  SU_T112U16  1  SU_T113U16  -1
    X_T112U17  COST  18.5064  DEM_T112  1
    X_T112U17  SU_T112U17  1  SU_T113U17  -1
    X_T112U18  COST  24.4687  DEM_T112  1
    X_T112U18  SU_T112U18  1  SU_T113U18  -1
    X_T112U19  COST  20.7661  DEM_T112  1
    X_T112U19  SU_T112U19  1  SU_T113U19  -1
    X_T112U20  COST  21.4745  DEM_T112  1
    X_T112U20  SU_T112U20  1  SU_T113U20  -1
    X_T112U21  COST  10.7458  DEM_T112  1
    X_T112U21  SU_T112U21  1  SU_T113U21  -1
    X_T112U22  COST  16.8162  DEM_T112  1
    X_T112U22  SU_T112U22  1  SU_T113U22  -1
    X_T112U23  COST  35.5378  DEM_T112  1
    X_T112U23  SU_T112U23  1  SU_T113U23  -1
    X_T112U24  COST  18.015  DEM_T112  1
    X_T112U24  SU_T112U24  1  SU_T113U24  -1
    X_T112U25  COST  16.8197  DEM_T112  1
    X_T112U25  SU_T112U25  1  SU_T113U25  -1
    X_T112U26  COST  24.946  DEM_T112  1
    X_T112U26  SU_T112U26  1  SU_T113U26  -1
    X_T112U27  COST  16.5482  DEM_T112  1
    X_T112U27  SU_T112U27  1  SU_T113U27  -1
    X_T112U28  COST  10.3773  DEM_T112  1
    X_T112U28  SU_T112U28  1  SU_T113U28  -1
    X_T112U29  COST  31.1607  DEM_T112  1
    X_T112U29  SU_T112U29  1  SU_T113U29  -1
    X_T112U30  COST  24.0581  DEM_T112  1
    X_T112U30  SU_T112U30  1  SU_T113U30  -1
    X_T113U1  COST  36.6052  DEM_T113  1
    X_T113U1  SU_T113U1  1  SU_T114U1  -1
    X_T113U2  COST  32.372  DEM_T113  1
    X_T113U2  SU_T113U2  1  SU_T114U2  -1
    X_T113U3  COST  27.2521  DEM_T113  1
    X_T113U3  SU_T113U3  1  SU_T114U3  -1
    X_T113U4  COST  10.5186  DEM_T113  1
    X_T113U4  SU_T113U4  1  SU_T114U4  -1
    X_T113U5  COST  35.7329  DEM_T113  1
    X_T113U5  SU_T113U5  1  SU_T114U5  -1
    X_T113U6  COST  10.1232  DEM_T113  1
    X_T113U6  SU_T113U6  1  SU_T114U6  -1
    X_T113U7  COST  22.4991  DEM_T113  1
    X_T113U7  SU_T113U7  1  SU_T114U7  -1
    X_T113U8  COST  29.9335  DEM_T113  1
    X_T113U8  SU_T113U8  1  SU_T114U8  -1
    X_T113U9  COST  15.3364  DEM_T113  1
    X_T113U9  SU_T113U9  1  SU_T114U9  -1
    X_T113U10  COST  23.2572  DEM_T113  1
    X_T113U10  SU_T113U10  1  SU_T114U10  -1
    X_T113U11  COST  32.9275  DEM_T113  1
    X_T113U11  SU_T113U11  1  SU_T114U11  -1
    X_T113U12  COST  29.1789  DEM_T113  1
    X_T113U12  SU_T113U12  1  SU_T114U12  -1
    X_T113U13  COST  32.1212  DEM_T113  1
    X_T113U13  SU_T113U13  1  SU_T114U13  -1
    X_T113U14  COST  23.0166  DEM_T113  1
    X_T113U14  SU_T113U14  1  SU_T114U14  -1
    X_T113U15  COST  39.9925  DEM_T113  1
    X_T113U15  SU_T113U15  1  SU_T114U15  -1
    X_T113U16  COST  13.4255  DEM_T113  1
    X_T113U16  SU_T113U16  1  SU_T114U16  -1
    X_T113U17  COST  27.6204  DEM_T113  1
    X_T113U17  SU_T113U17  1  SU_T114U17  -1
    X_T113U18  COST  38.8867  DEM_T113  1
    X_T113U18  SU_T113U18  1  SU_T114U18  -1
    X_T113U19  COST  15.3267  DEM_T113  1
    X_T113U19  SU_T113U19  1  SU_T114U19  -1
    X_T113U20  COST  23.9562  DEM_T113  1
    X_T113U20  SU_T113U20  1  SU_T114U20  -1
    X_T113U21  COST  27.9456  DEM_T113  1
    X_T113U21  SU_T113U21  1  SU_T114U21  -1
    X_T113U22  COST  11.935  DEM_T113  1
    X_T113U22  SU_T113U22  1  SU_T114U22  -1
    X_T113U23  COST  26.3209  DEM_T113  1
    X_T113U23  SU_T113U23  1  SU_T114U23  -1
    X_T113U24  COST  25.6035  DEM_T113  1
    X_T113U24  SU_T113U24  1  SU_T114U24  -1
    X_T113U25  COST  17.929  DEM_T113  1
    X_T113U25  SU_T113U25  1  SU_T114U25  -1
    X_T113U26  COST  25.3402  DEM_T113  1
    X_T113U26  SU_T113U26  1  SU_T114U26  -1
    X_T113U27  COST  11.4959  DEM_T113  1
    X_T113U27  SU_T113U27  1  SU_T114U27  -1
    X_T113U28  COST  34.2033  DEM_T113  1
    X_T113U28  SU_T113U28  1  SU_T114U28  -1
    X_T113U29  COST  10.4507  DEM_T113  1
    X_T113U29  SU_T113U29  1  SU_T114U29  -1
    X_T113U30  COST  27.6443  DEM_T113  1
    X_T113U30  SU_T113U30  1  SU_T114U30  -1
    X_T114U1  COST  22.7837  DEM_T114  1
    X_T114U1  SU_T114U1  1  SU_T115U1  -1
    X_T114U2  COST  27.9665  DEM_T114  1
    X_T114U2  SU_T114U2  1  SU_T115U2  -1
    X_T114U3  COST  22.0009  DEM_T114  1
    X_T114U3  SU_T114U3  1  SU_T115U3  -1
    X_T114U4  COST  38.2364  DEM_T114  1
    X_T114U4  SU_T114U4  1  SU_T115U4  -1
    X_T114U5  COST  26.9285  DEM_T114  1
    X_T114U5  SU_T114U5  1  SU_T115U5  -1
    X_T114U6  COST  19.9887  DEM_T114  1
    X_T114U6  SU_T114U6  1  SU_T115U6  -1
    X_T114U7  COST  13.1965  DEM_T114  1
    X_T114U7  SU_T114U7  1  SU_T115U7  -1
    X_T114U8  COST  17.7938  DEM_T114  1
    X_T114U8  SU_T114U8  1  SU_T115U8  -1
    X_T114U9  COST  39.9459  DEM_T114  1
    X_T114U9  SU_T114U9  1  SU_T115U9  -1
    X_T114U10  COST  14.4418  DEM_T114  1
    X_T114U10  SU_T114U10  1  SU_T115U10  -1
    X_T114U11  COST  27.3942  DEM_T114  1
    X_T114U11  SU_T114U11  1  SU_T115U11  -1
    X_T114U12  COST  20.9568  DEM_T114  1
    X_T114U12  SU_T114U12  1  SU_T115U12  -1
    X_T114U13  COST  33.652  DEM_T114  1
    X_T114U13  SU_T114U13  1  SU_T115U13  -1
    X_T114U14  COST  38.7374  DEM_T114  1
    X_T114U14  SU_T114U14  1  SU_T115U14  -1
    X_T114U15  COST  26.9452  DEM_T114  1
    X_T114U15  SU_T114U15  1  SU_T115U15  -1
    X_T114U16  COST  12.9929  DEM_T114  1
    X_T114U16  SU_T114U16  1  SU_T115U16  -1
    X_T114U17  COST  29.9958  DEM_T114  1
    X_T114U17  SU_T114U17  1  SU_T115U17  -1
    X_T114U18  COST  25.2605  DEM_T114  1
    X_T114U18  SU_T114U18  1  SU_T115U18  -1
    X_T114U19  COST  26.0641  DEM_T114  1
    X_T114U19  SU_T114U19  1  SU_T115U19  -1
    X_T114U20  COST  27.9284  DEM_T114  1
    X_T114U20  SU_T114U20  1  SU_T115U20  -1
    X_T114U21  COST  34.0046  DEM_T114  1
    X_T114U21  SU_T114U21  1  SU_T115U21  -1
    X_T114U22  COST  33.1069  DEM_T114  1
    X_T114U22  SU_T114U22  1  SU_T115U22  -1
    X_T114U23  COST  17.0231  DEM_T114  1
    X_T114U23  SU_T114U23  1  SU_T115U23  -1
    X_T114U24  COST  25.528  DEM_T114  1
    X_T114U24  SU_T114U24  1  SU_T115U24  -1
    X_T114U25  COST  38.8659  DEM_T114  1
    X_T114U25  SU_T114U25  1  SU_T115U25  -1
    X_T114U26  COST  35.5883  DEM_T114  1
    X_T114U26  SU_T114U26  1  SU_T115U26  -1
    X_T114U27  COST  19.6958  DEM_T114  1
    X_T114U27  SU_T114U27  1  SU_T115U27  -1
    X_T114U28  COST  20.8997  DEM_T114  1
    X_T114U28  SU_T114U28  1  SU_T115U28  -1
    X_T114U29  COST  13.1828  DEM_T114  1
    X_T114U29  SU_T114U29  1  SU_T115U29  -1
    X_T114U30  COST  18.6652  DEM_T114  1
    X_T114U30  SU_T114U30  1  SU_T115U30  -1
    X_T115U1  COST  27.7406  DEM_T115  1
    X_T115U1  SU_T115U1  1  SU_T116U1  -1
    X_T115U2  COST  32.3572  DEM_T115  1
    X_T115U2  SU_T115U2  1  SU_T116U2  -1
    X_T115U3  COST  19.9298  DEM_T115  1
    X_T115U3  SU_T115U3  1  SU_T116U3  -1
    X_T115U4  COST  19.296  DEM_T115  1
    X_T115U4  SU_T115U4  1  SU_T116U4  -1
    X_T115U5  COST  22.0376  DEM_T115  1
    X_T115U5  SU_T115U5  1  SU_T116U5  -1
    X_T115U6  COST  22.9576  DEM_T115  1
    X_T115U6  SU_T115U6  1  SU_T116U6  -1
    X_T115U7  COST  30.6947  DEM_T115  1
    X_T115U7  SU_T115U7  1  SU_T116U7  -1
    X_T115U8  COST  13.2174  DEM_T115  1
    X_T115U8  SU_T115U8  1  SU_T116U8  -1
    X_T115U9  COST  32.0644  DEM_T115  1
    X_T115U9  SU_T115U9  1  SU_T116U9  -1
    X_T115U10  COST  28.8744  DEM_T115  1
    X_T115U10  SU_T115U10  1  SU_T116U10  -1
    X_T115U11  COST  16.7845  DEM_T115  1
    X_T115U11  SU_T115U11  1  SU_T116U11  -1
    X_T115U12  COST  34.437  DEM_T115  1
    X_T115U12  SU_T115U12  1  SU_T116U12  -1
    X_T115U13  COST  16.019  DEM_T115  1
    X_T115U13  SU_T115U13  1  SU_T116U13  -1
    X_T115U14  COST  19.4486  DEM_T115  1
    X_T115U14  SU_T115U14  1  SU_T116U14  -1
    X_T115U15  COST  14.5687  DEM_T115  1
    X_T115U15  SU_T115U15  1  SU_T116U15  -1
    X_T115U16  COST  22.8252  DEM_T115  1
    X_T115U16  SU_T115U16  1  SU_T116U16  -1
    X_T115U17  COST  20.0892  DEM_T115  1
    X_T115U17  SU_T115U17  1  SU_T116U17  -1
    X_T115U18  COST  18.5474  DEM_T115  1
    X_T115U18  SU_T115U18  1  SU_T116U18  -1
    X_T115U19  COST  15.4191  DEM_T115  1
    X_T115U19  SU_T115U19  1  SU_T116U19  -1
    X_T115U20  COST  31.1253  DEM_T115  1
    X_T115U20  SU_T115U20  1  SU_T116U20  -1
    X_T115U21  COST  10.2934  DEM_T115  1
    X_T115U21  SU_T115U21  1  SU_T116U21  -1
    X_T115U22  COST  26.0698  DEM_T115  1
    X_T115U22  SU_T115U22  1  SU_T116U22  -1
    X_T115U23  COST  10.1465  DEM_T115  1
    X_T115U23  SU_T115U23  1  SU_T116U23  -1
    X_T115U24  COST  13.1884  DEM_T115  1
    X_T115U24  SU_T115U24  1  SU_T116U24  -1
    X_T115U25  COST  24.4856  DEM_T115  1
    X_T115U25  SU_T115U25  1  SU_T116U25  -1
    X_T115U26  COST  25.3205  DEM_T115  1
    X_T115U26  SU_T115U26  1  SU_T116U26  -1
    X_T115U27  COST  35.047  DEM_T115  1
    X_T115U27  SU_T115U27  1  SU_T116U27  -1
    X_T115U28  COST  24.5021  DEM_T115  1
    X_T115U28  SU_T115U28  1  SU_T116U28  -1
    X_T115U29  COST  13.4621  DEM_T115  1
    X_T115U29  SU_T115U29  1  SU_T116U29  -1
    X_T115U30  COST  25.8817  DEM_T115  1
    X_T115U30  SU_T115U30  1  SU_T116U30  -1
    X_T116U1  COST  30.417  DEM_T116  1
    X_T116U1  SU_T116U1  1  SU_T117U1  -1
    X_T116U2  COST  28.8662  DEM_T116  1
    X_T116U2  SU_T116U2  1  SU_T117U2  -1
    X_T116U3  COST  32.9581  DEM_T116  1
    X_T116U3  SU_T116U3  1  SU_T117U3  -1
    X_T116U4  COST  18.2225  DEM_T116  1
    X_T116U4  SU_T116U4  1  SU_T117U4  -1
    X_T116U5  COST  21.3154  DEM_T116  1
    X_T116U5  SU_T116U5  1  SU_T117U5  -1
    X_T116U6  COST  12.0907  DEM_T116  1
    X_T116U6  SU_T116U6  1  SU_T117U6  -1
    X_T116U7  COST  37.8101  DEM_T116  1
    X_T116U7  SU_T116U7  1  SU_T117U7  -1
    X_T116U8  COST  21.388  DEM_T116  1
    X_T116U8  SU_T116U8  1  SU_T117U8  -1
    X_T116U9  COST  30.1698  DEM_T116  1
    X_T116U9  SU_T116U9  1  SU_T117U9  -1
    X_T116U10  COST  12.9662  DEM_T116  1
    X_T116U10  SU_T116U10  1  SU_T117U10  -1
    X_T116U11  COST  35.9807  DEM_T116  1
    X_T116U11  SU_T116U11  1  SU_T117U11  -1
    X_T116U12  COST  35.5153  DEM_T116  1
    X_T116U12  SU_T116U12  1  SU_T117U12  -1
    X_T116U13  COST  26.4829  DEM_T116  1
    X_T116U13  SU_T116U13  1  SU_T117U13  -1
    X_T116U14  COST  21.4671  DEM_T116  1
    X_T116U14  SU_T116U14  1  SU_T117U14  -1
    X_T116U15  COST  31.6595  DEM_T116  1
    X_T116U15  SU_T116U15  1  SU_T117U15  -1
    X_T116U16  COST  29.6223  DEM_T116  1
    X_T116U16  SU_T116U16  1  SU_T117U16  -1
    X_T116U17  COST  14.7677  DEM_T116  1
    X_T116U17  SU_T116U17  1  SU_T117U17  -1
    X_T116U18  COST  23.3708  DEM_T116  1
    X_T116U18  SU_T116U18  1  SU_T117U18  -1
    X_T116U19  COST  27.08  DEM_T116  1
    X_T116U19  SU_T116U19  1  SU_T117U19  -1
    X_T116U20  COST  32.7157  DEM_T116  1
    X_T116U20  SU_T116U20  1  SU_T117U20  -1
    X_T116U21  COST  27.7895  DEM_T116  1
    X_T116U21  SU_T116U21  1  SU_T117U21  -1
    X_T116U22  COST  10.1414  DEM_T116  1
    X_T116U22  SU_T116U22  1  SU_T117U22  -1
    X_T116U23  COST  18.711  DEM_T116  1
    X_T116U23  SU_T116U23  1  SU_T117U23  -1
    X_T116U24  COST  14.4104  DEM_T116  1
    X_T116U24  SU_T116U24  1  SU_T117U24  -1
    X_T116U25  COST  39.201  DEM_T116  1
    X_T116U25  SU_T116U25  1  SU_T117U25  -1
    X_T116U26  COST  17.2884  DEM_T116  1
    X_T116U26  SU_T116U26  1  SU_T117U26  -1
    X_T116U27  COST  12.7932  DEM_T116  1
    X_T116U27  SU_T116U27  1  SU_T117U27  -1
    X_T116U28  COST  36.6263  DEM_T116  1
    X_T116U28  SU_T116U28  1  SU_T117U28  -1
    X_T116U29  COST  22.4093  DEM_T116  1
    X_T116U29  SU_T116U29  1  SU_T117U29  -1
    X_T116U30  COST  21.253  DEM_T116  1
    X_T116U30  SU_T116U30  1  SU_T117U30  -1
    X_T117U1  COST  19.5713  DEM_T117  1
    X_T117U1  SU_T117U1  1  SU_T118U1  -1
    X_T117U2  COST  37.9923  DEM_T117  1
    X_T117U2  SU_T117U2  1  SU_T118U2  -1
    X_T117U3  COST  22.6549  DEM_T117  1
    X_T117U3  SU_T117U3  1  SU_T118U3  -1
    X_T117U4  COST  37.0849  DEM_T117  1
    X_T117U4  SU_T117U4  1  SU_T118U4  -1
    X_T117U5  COST  22.4298  DEM_T117  1
    X_T117U5  SU_T117U5  1  SU_T118U5  -1
    X_T117U6  COST  12.2689  DEM_T117  1
    X_T117U6  SU_T117U6  1  SU_T118U6  -1
    X_T117U7  COST  29.2788  DEM_T117  1
    X_T117U7  SU_T117U7  1  SU_T118U7  -1
    X_T117U8  COST  18.7755  DEM_T117  1
    X_T117U8  SU_T117U8  1  SU_T118U8  -1
    X_T117U9  COST  21.3702  DEM_T117  1
    X_T117U9  SU_T117U9  1  SU_T118U9  -1
    X_T117U10  COST  13.9741  DEM_T117  1
    X_T117U10  SU_T117U10  1  SU_T118U10  -1
    X_T117U11  COST  25.2608  DEM_T117  1
    X_T117U11  SU_T117U11  1  SU_T118U11  -1
    X_T117U12  COST  20.5807  DEM_T117  1
    X_T117U12  SU_T117U12  1  SU_T118U12  -1
    X_T117U13  COST  24.1773  DEM_T117  1
    X_T117U13  SU_T117U13  1  SU_T118U13  -1
    X_T117U14  COST  11.2084  DEM_T117  1
    X_T117U14  SU_T117U14  1  SU_T118U14  -1
    X_T117U15  COST  21.0696  DEM_T117  1
    X_T117U15  SU_T117U15  1  SU_T118U15  -1
    X_T117U16  COST  34.0661  DEM_T117  1
    X_T117U16  SU_T117U16  1  SU_T118U16  -1
    X_T117U17  COST  30.8163  DEM_T117  1
    X_T117U17  SU_T117U17  1  SU_T118U17  -1
    X_T117U18  COST  36.8884  DEM_T117  1
    X_T117U18  SU_T117U18  1  SU_T118U18  -1
    X_T117U19  COST  23.6688  DEM_T117  1
    X_T117U19  SU_T117U19  1  SU_T118U19  -1
    X_T117U20  COST  34.6252  DEM_T117  1
    X_T117U20  SU_T117U20  1  SU_T118U20  -1
    X_T117U21  COST  29.8405  DEM_T117  1
    X_T117U21  SU_T117U21  1  SU_T118U21  -1
    X_T117U22  COST  21.0611  DEM_T117  1
    X_T117U22  SU_T117U22  1  SU_T118U22  -1
    X_T117U23  COST  21.6155  DEM_T117  1
    X_T117U23  SU_T117U23  1  SU_T118U23  -1
    X_T117U24  COST  35.0767  DEM_T117  1
    X_T117U24  SU_T117U24  1  SU_T118U24  -1
    X_T117U25  COST  30.2768  DEM_T117  1
    X_T117U25  SU_T117U25  1  SU_T118U25  -1
    X_T117U26  COST  10.4649  DEM_T117  1
    X_T117U26  SU_T117U26  1  SU_T118U26  -1
    X_T117U27  COST  28.1998  DEM_T117  1
    X_T117U27  SU_T117U27  1  SU_T118U27  -1
    X_T117U28  COST  10.6317  DEM_T117  1
    X_T117U28  SU_T117U28  1  SU_T118U28  -1
    X_T117U29  COST  37.0763  DEM_T117  1
    X_T117U29  SU_T117U29  1  SU_T118U29  -1
    X_T117U30  COST  36.8255  DEM_T117  1
    X_T117U30  SU_T117U30  1  SU_T118U30  -1
    X_T118U1  COST  32.2005  DEM_T118  1
    X_T118U1  SU_T118U1  1  SU_T119U1  -1
    X_T118U2  COST  35.7626  DEM_T118  1
    X_T118U2  SU_T118U2  1  SU_T119U2  -1
    X_T118U3  COST  22.0544  DEM_T118  1
    X_T118U3  SU_T118U3  1  SU_T119U3  -1
    X_T118U4  COST  31.981  DEM_T118  1
    X_T118U4  SU_T118U4  1  SU_T119U4  -1
    X_T118U5  COST  10.0874  DEM_T118  1
    X_T118U5  SU_T118U5  1  SU_T119U5  -1
    X_T118U6  COST  34.2638  DEM_T118  1
    X_T118U6  SU_T118U6  1  SU_T119U6  -1
    X_T118U7  COST  29.084  DEM_T118  1
    X_T118U7  SU_T118U7  1  SU_T119U7  -1
    X_T118U8  COST  35.9029  DEM_T118  1
    X_T118U8  SU_T118U8  1  SU_T119U8  -1
    X_T118U9  COST  39.9042  DEM_T118  1
    X_T118U9  SU_T118U9  1  SU_T119U9  -1
    X_T118U10  COST  35.8889  DEM_T118  1
    X_T118U10  SU_T118U10  1  SU_T119U10  -1
    X_T118U11  COST  27.7245  DEM_T118  1
    X_T118U11  SU_T118U11  1  SU_T119U11  -1
    X_T118U12  COST  10.5396  DEM_T118  1
    X_T118U12  SU_T118U12  1  SU_T119U12  -1
    X_T118U13  COST  12.3498  DEM_T118  1
    X_T118U13  SU_T118U13  1  SU_T119U13  -1
    X_T118U14  COST  33.5502  DEM_T118  1
    X_T118U14  SU_T118U14  1  SU_T119U14  -1
    X_T118U15  COST  14.0648  DEM_T118  1
    X_T118U15  SU_T118U15  1  SU_T119U15  -1
    X_T118U16  COST  34.8829  DEM_T118  1
    X_T118U16  SU_T118U16  1  SU_T119U16  -1
    X_T118U17  COST  24.0325  DEM_T118  1
    X_T118U17  SU_T118U17  1  SU_T119U17  -1
    X_T118U18  COST  23.9065  DEM_T118  1
    X_T118U18  SU_T118U18  1  SU_T119U18  -1
    X_T118U19  COST  23.6537  DEM_T118  1
    X_T118U19  SU_T118U19  1  SU_T119U19  -1
    X_T118U20  COST  22.1193  DEM_T118  1
    X_T118U20  SU_T118U20  1  SU_T119U20  -1
    X_T118U21  COST  10.4552  DEM_T118  1
    X_T118U21  SU_T118U21  1  SU_T119U21  -1
    X_T118U22  COST  23.0975  DEM_T118  1
    X_T118U22  SU_T118U22  1  SU_T119U22  -1
    X_T118U23  COST  23.5016  DEM_T118  1
    X_T118U23  SU_T118U23  1  SU_T119U23  -1
    X_T118U24  COST  21.643  DEM_T118  1
    X_T118U24  SU_T118U24  1  SU_T119U24  -1
    X_T118U25  COST  37.7348  DEM_T118  1
    X_T118U25  SU_T118U25  1  SU_T119U25  -1
    X_T118U26  COST  10.4023  DEM_T118  1
    X_T118U26  SU_T118U26  1  SU_T119U26  -1
    X_T118U27  COST  39.1888  DEM_T118  1
    X_T118U27  SU_T118U27  1  SU_T119U27  -1
    X_T118U28  COST  34.1682  DEM_T118  1
    X_T118U28  SU_T118U28  1  SU_T119U28  -1
    X_T118U29  COST  37.6349  DEM_T118  1
    X_T118U29  SU_T118U29  1  SU_T119U29  -1
    X_T118U30  COST  27.1328  DEM_T118  1
    X_T118U30  SU_T118U30  1  SU_T119U30  -1
    X_T119U1  COST  17.7343  DEM_T119  1
    X_T119U1  SU_T119U1  1  SU_T120U1  -1
    X_T119U2  COST  23.8019  DEM_T119  1
    X_T119U2  SU_T119U2  1  SU_T120U2  -1
    X_T119U3  COST  10.9884  DEM_T119  1
    X_T119U3  SU_T119U3  1  SU_T120U3  -1
    X_T119U4  COST  25.7246  DEM_T119  1
    X_T119U4  SU_T119U4  1  SU_T120U4  -1
    X_T119U5  COST  11.1393  DEM_T119  1
    X_T119U5  SU_T119U5  1  SU_T120U5  -1
    X_T119U6  COST  24.4596  DEM_T119  1
    X_T119U6  SU_T119U6  1  SU_T120U6  -1
    X_T119U7  COST  23.5694  DEM_T119  1
    X_T119U7  SU_T119U7  1  SU_T120U7  -1
    X_T119U8  COST  19.288  DEM_T119  1
    X_T119U8  SU_T119U8  1  SU_T120U8  -1
    X_T119U9  COST  35.1506  DEM_T119  1
    X_T119U9  SU_T119U9  1  SU_T120U9  -1
    X_T119U10  COST  18.2629  DEM_T119  1
    X_T119U10  SU_T119U10  1  SU_T120U10  -1
    X_T119U11  COST  19.6463  DEM_T119  1
    X_T119U11  SU_T119U11  1  SU_T120U11  -1
    X_T119U12  COST  39.8849  DEM_T119  1
    X_T119U12  SU_T119U12  1  SU_T120U12  -1
    X_T119U13  COST  19.3822  DEM_T119  1
    X_T119U13  SU_T119U13  1  SU_T120U13  -1
    X_T119U14  COST  29.923  DEM_T119  1
    X_T119U14  SU_T119U14  1  SU_T120U14  -1
    X_T119U15  COST  39.0832  DEM_T119  1
    X_T119U15  SU_T119U15  1  SU_T120U15  -1
    X_T119U16  COST  16.3613  DEM_T119  1
    X_T119U16  SU_T119U16  1  SU_T120U16  -1
    X_T119U17  COST  30.652  DEM_T119  1
    X_T119U17  SU_T119U17  1  SU_T120U17  -1
    X_T119U18  COST  33.6303  DEM_T119  1
    X_T119U18  SU_T119U18  1  SU_T120U18  -1
    X_T119U19  COST  19.8068  DEM_T119  1
    X_T119U19  SU_T119U19  1  SU_T120U19  -1
    X_T119U20  COST  31.0303  DEM_T119  1
    X_T119U20  SU_T119U20  1  SU_T120U20  -1
    X_T119U21  COST  33.1864  DEM_T119  1
    X_T119U21  SU_T119U21  1  SU_T120U21  -1
    X_T119U22  COST  33.5284  DEM_T119  1
    X_T119U22  SU_T119U22  1  SU_T120U22  -1
    X_T119U23  COST  12.473  DEM_T119  1
    X_T119U23  SU_T119U23  1  SU_T120U23  -1
    X_T119U24  COST  12.094  DEM_T119  1
    X_T119U24  SU_T119U24  1  SU_T120U24  -1
    X_T119U25  COST  15.1705  DEM_T119  1
    X_T119U25  SU_T119U25  1  SU_T120U25  -1
    X_T119U26  COST  37.3477  DEM_T119  1
    X_T119U26  SU_T119U26  1  SU_T120U26  -1
    X_T119U27  COST  25.8144  DEM_T119  1
    X_T119U27  SU_T119U27  1  SU_T120U27  -1
    X_T119U28  COST  10.1524  DEM_T119  1
    X_T119U28  SU_T119U28  1  SU_T120U28  -1
    X_T119U29  COST  15.9235  DEM_T119  1
    X_T119U29  SU_T119U29  1  SU_T120U29  -1
    X_T119U30  COST  32.0876  DEM_T119  1
    X_T119U30  SU_T119U30  1  SU_T120U30  -1
    X_T120U1  COST  29.6861  DEM_T120  1
    X_T120U1  SU_T120U1  1  SU_T121U1  -1
    X_T120U2  COST  27.1488  DEM_T120  1
    X_T120U2  SU_T120U2  1  SU_T121U2  -1
    X_T120U3  COST  28.7188  DEM_T120  1
    X_T120U3  SU_T120U3  1  SU_T121U3  -1
    X_T120U4  COST  36.736  DEM_T120  1
    X_T120U4  SU_T120U4  1  SU_T121U4  -1
    X_T120U5  COST  12.3143  DEM_T120  1
    X_T120U5  SU_T120U5  1  SU_T121U5  -1
    X_T120U6  COST  29.6689  DEM_T120  1
    X_T120U6  SU_T120U6  1  SU_T121U6  -1
    X_T120U7  COST  18.4158  DEM_T120  1
    X_T120U7  SU_T120U7  1  SU_T121U7  -1
    X_T120U8  COST  27.5296  DEM_T120  1
    X_T120U8  SU_T120U8  1  SU_T121U8  -1
    X_T120U9  COST  19.5536  DEM_T120  1
    X_T120U9  SU_T120U9  1  SU_T121U9  -1
    X_T120U10  COST  18.6316  DEM_T120  1
    X_T120U10  SU_T120U10  1  SU_T121U10  -1
    X_T120U11  COST  12.103  DEM_T120  1
    X_T120U11  SU_T120U11  1  SU_T121U11  -1
    X_T120U12  COST  24.987  DEM_T120  1
    X_T120U12  SU_T120U12  1  SU_T121U12  -1
    X_T120U13  COST  28.3307  DEM_T120  1
    X_T120U13  SU_T120U13  1  SU_T121U13  -1
    X_T120U14  COST  13.9611  DEM_T120  1
    X_T120U14  SU_T120U14  1  SU_T121U14  -1
    X_T120U15  COST  18.2778  DEM_T120  1
    X_T120U15  SU_T120U15  1  SU_T121U15  -1
    X_T120U16  COST  34.5355  DEM_T120  1
    X_T120U16  SU_T120U16  1  SU_T121U16  -1
    X_T120U17  COST  34.2322  DEM_T120  1
    X_T120U17  SU_T120U17  1  SU_T121U17  -1
    X_T120U18  COST  13.0284  DEM_T120  1
    X_T120U18  SU_T120U18  1  SU_T121U18  -1
    X_T120U19  COST  29.5781  DEM_T120  1
    X_T120U19  SU_T120U19  1  SU_T121U19  -1
    X_T120U20  COST  21.9332  DEM_T120  1
    X_T120U20  SU_T120U20  1  SU_T121U20  -1
    X_T120U21  COST  39.4434  DEM_T120  1
    X_T120U21  SU_T120U21  1  SU_T121U21  -1
    X_T120U22  COST  19.4442  DEM_T120  1
    X_T120U22  SU_T120U22  1  SU_T121U22  -1
    X_T120U23  COST  24.34  DEM_T120  1
    X_T120U23  SU_T120U23  1  SU_T121U23  -1
    X_T120U24  COST  15.2735  DEM_T120  1
    X_T120U24  SU_T120U24  1  SU_T121U24  -1
    X_T120U25  COST  17.643  DEM_T120  1
    X_T120U25  SU_T120U25  1  SU_T121U25  -1
    X_T120U26  COST  13.3916  DEM_T120  1
    X_T120U26  SU_T120U26  1  SU_T121U26  -1
    X_T120U27  COST  32.7265  DEM_T120  1
    X_T120U27  SU_T120U27  1  SU_T121U27  -1
    X_T120U28  COST  36.5985  DEM_T120  1
    X_T120U28  SU_T120U28  1  SU_T121U28  -1
    X_T120U29  COST  16.7368  DEM_T120  1
    X_T120U29  SU_T120U29  1  SU_T121U29  -1
    X_T120U30  COST  17.9527  DEM_T120  1
    X_T120U30  SU_T120U30  1  SU_T121U30  -1
    X_T121U1  COST  29.0782  DEM_T121  1
    X_T121U1  SU_T121U1  1  SU_T122U1  -1
    X_T121U2  COST  12.4821  DEM_T121  1
    X_T121U2  SU_T121U2  1  SU_T122U2  -1
    X_T121U3  COST  18.8005  DEM_T121  1
    X_T121U3  SU_T121U3  1  SU_T122U3  -1
    X_T121U4  COST  23.1583  DEM_T121  1
    X_T121U4  SU_T121U4  1  SU_T122U4  -1
    X_T121U5  COST  22.61  DEM_T121  1
    X_T121U5  SU_T121U5  1  SU_T122U5  -1
    X_T121U6  COST  37.076  DEM_T121  1
    X_T121U6  SU_T121U6  1  SU_T122U6  -1
    X_T121U7  COST  12.1377  DEM_T121  1
    X_T121U7  SU_T121U7  1  SU_T122U7  -1
    X_T121U8  COST  33.4491  DEM_T121  1
    X_T121U8  SU_T121U8  1  SU_T122U8  -1
    X_T121U9  COST  13.2224  DEM_T121  1
    X_T121U9  SU_T121U9  1  SU_T122U9  -1
    X_T121U10  COST  10.34  DEM_T121  1
    X_T121U10  SU_T121U10  1  SU_T122U10  -1
    X_T121U11  COST  39.2018  DEM_T121  1
    X_T121U11  SU_T121U11  1  SU_T122U11  -1
    X_T121U12  COST  26.2227  DEM_T121  1
    X_T121U12  SU_T121U12  1  SU_T122U12  -1
    X_T121U13  COST  17.6555  DEM_T121  1
    X_T121U13  SU_T121U13  1  SU_T122U13  -1
    X_T121U14  COST  26.3917  DEM_T121  1
    X_T121U14  SU_T121U14  1  SU_T122U14  -1
    X_T121U15  COST  20.2952  DEM_T121  1
    X_T121U15  SU_T121U15  1  SU_T122U15  -1
    X_T121U16  COST  12.1943  DEM_T121  1
    X_T121U16  SU_T121U16  1  SU_T122U16  -1
    X_T121U17  COST  18.5406  DEM_T121  1
    X_T121U17  SU_T121U17  1  SU_T122U17  -1
    X_T121U18  COST  21.0355  DEM_T121  1
    X_T121U18  SU_T121U18  1  SU_T122U18  -1
    X_T121U19  COST  30.8764  DEM_T121  1
    X_T121U19  SU_T121U19  1  SU_T122U19  -1
    X_T121U20  COST  32.6104  DEM_T121  1
    X_T121U20  SU_T121U20  1  SU_T122U20  -1
    X_T121U21  COST  33.3866  DEM_T121  1
    X_T121U21  SU_T121U21  1  SU_T122U21  -1
    X_T121U22  COST  27.9966  DEM_T121  1
    X_T121U22  SU_T121U22  1  SU_T122U22  -1
    X_T121U23  COST  34.7637  DEM_T121  1
    X_T121U23  SU_T121U23  1  SU_T122U23  -1
    X_T121U24  COST  24.4032  DEM_T121  1
    X_T121U24  SU_T121U24  1  SU_T122U24  -1
    X_T121U25  COST  15.0737  DEM_T121  1
    X_T121U25  SU_T121U25  1  SU_T122U25  -1
    X_T121U26  COST  23.2067  DEM_T121  1
    X_T121U26  SU_T121U26  1  SU_T122U26  -1
    X_T121U27  COST  37.8822  DEM_T121  1
    X_T121U27  SU_T121U27  1  SU_T122U27  -1
    X_T121U28  COST  21.8484  DEM_T121  1
    X_T121U28  SU_T121U28  1  SU_T122U28  -1
    X_T121U29  COST  39.4641  DEM_T121  1
    X_T121U29  SU_T121U29  1  SU_T122U29  -1
    X_T121U30  COST  37.7493  DEM_T121  1
    X_T121U30  SU_T121U30  1  SU_T122U30  -1
    X_T122U1  COST  19.7734  DEM_T122  1
    X_T122U1  SU_T122U1  1  SU_T123U1  -1
    X_T122U2  COST  22.2638  DEM_T122  1
    X_T122U2  SU_T122U2  1  SU_T123U2  -1
    X_T122U3  COST  32.346  DEM_T122  1
    X_T122U3  SU_T122U3  1  SU_T123U3  -1
    X_T122U4  COST  11.4569  DEM_T122  1
    X_T122U4  SU_T122U4  1  SU_T123U4  -1
    X_T122U5  COST  23.3692  DEM_T122  1
    X_T122U5  SU_T122U5  1  SU_T123U5  -1
    X_T122U6  COST  13.7846  DEM_T122  1
    X_T122U6  SU_T122U6  1  SU_T123U6  -1
    X_T122U7  COST  14.4236  DEM_T122  1
    X_T122U7  SU_T122U7  1  SU_T123U7  -1
    X_T122U8  COST  12.152  DEM_T122  1
    X_T122U8  SU_T122U8  1  SU_T123U8  -1
    X_T122U9  COST  22.9475  DEM_T122  1
    X_T122U9  SU_T122U9  1  SU_T123U9  -1
    X_T122U10  COST  39.7779  DEM_T122  1
    X_T122U10  SU_T122U10  1  SU_T123U10  -1
    X_T122U11  COST  11.5137  DEM_T122  1
    X_T122U11  SU_T122U11  1  SU_T123U11  -1
    X_T122U12  COST  36.4301  DEM_T122  1
    X_T122U12  SU_T122U12  1  SU_T123U12  -1
    X_T122U13  COST  34.7451  DEM_T122  1
    X_T122U13  SU_T122U13  1  SU_T123U13  -1
    X_T122U14  COST  37.8302  DEM_T122  1
    X_T122U14  SU_T122U14  1  SU_T123U14  -1
    X_T122U15  COST  26.6448  DEM_T122  1
    X_T122U15  SU_T122U15  1  SU_T123U15  -1
    X_T122U16  COST  38.8559  DEM_T122  1
    X_T122U16  SU_T122U16  1  SU_T123U16  -1
    X_T122U17  COST  11.9276  DEM_T122  1
    X_T122U17  SU_T122U17  1  SU_T123U17  -1
    X_T122U18  COST  27.6305  DEM_T122  1
    X_T122U18  SU_T122U18  1  SU_T123U18  -1
    X_T122U19  COST  29.5956  DEM_T122  1
    X_T122U19  SU_T122U19  1  SU_T123U19  -1
    X_T122U20  COST  38.9868  DEM_T122  1
    X_T122U20  SU_T122U20  1  SU_T123U20  -1
    X_T122U21  COST  28.9125  DEM_T122  1
    X_T122U21  SU_T122U21  1  SU_T123U21  -1
    X_T122U22  COST  21.2062  DEM_T122  1
    X_T122U22  SU_T122U22  1  SU_T123U22  -1
    X_T122U23  COST  12.1594  DEM_T122  1
    X_T122U23  SU_T122U23  1  SU_T123U23  -1
    X_T122U24  COST  31.417  DEM_T122  1
    X_T122U24  SU_T122U24  1  SU_T123U24  -1
    X_T122U25  COST  22.0718  DEM_T122  1
    X_T122U25  SU_T122U25  1  SU_T123U25  -1
    X_T122U26  COST  23.2555  DEM_T122  1
    X_T122U26  SU_T122U26  1  SU_T123U26  -1
    X_T122U27  COST  17.9204  DEM_T122  1
    X_T122U27  SU_T122U27  1  SU_T123U27  -1
    X_T122U28  COST  30.0551  DEM_T122  1
    X_T122U28  SU_T122U28  1  SU_T123U28  -1
    X_T122U29  COST  28.2048  DEM_T122  1
    X_T122U29  SU_T122U29  1  SU_T123U29  -1
    X_T122U30  COST  19.622  DEM_T122  1
    X_T122U30  SU_T122U30  1  SU_T123U30  -1
    X_T123U1  COST  16.977  DEM_T123  1
    X_T123U1  SU_T123U1  1  SU_T124U1  -1
    X_T123U2  COST  22.0801  DEM_T123  1
    X_T123U2  SU_T123U2  1  SU_T124U2  -1
    X_T123U3  COST  34.4022  DEM_T123  1
    X_T123U3  SU_T123U3  1  SU_T124U3  -1
    X_T123U4  COST  29.8477  DEM_T123  1
    X_T123U4  SU_T123U4  1  SU_T124U4  -1
    X_T123U5  COST  12.9357  DEM_T123  1
    X_T123U5  SU_T123U5  1  SU_T124U5  -1
    X_T123U6  COST  26.6103  DEM_T123  1
    X_T123U6  SU_T123U6  1  SU_T124U6  -1
    X_T123U7  COST  11.6874  DEM_T123  1
    X_T123U7  SU_T123U7  1  SU_T124U7  -1
    X_T123U8  COST  39.7831  DEM_T123  1
    X_T123U8  SU_T123U8  1  SU_T124U8  -1
    X_T123U9  COST  37.6596  DEM_T123  1
    X_T123U9  SU_T123U9  1  SU_T124U9  -1
    X_T123U10  COST  38.8171  DEM_T123  1
    X_T123U10  SU_T123U10  1  SU_T124U10  -1
    X_T123U11  COST  25.2725  DEM_T123  1
    X_T123U11  SU_T123U11  1  SU_T124U11  -1
    X_T123U12  COST  20.4941  DEM_T123  1
    X_T123U12  SU_T123U12  1  SU_T124U12  -1
    X_T123U13  COST  13.8456  DEM_T123  1
    X_T123U13  SU_T123U13  1  SU_T124U13  -1
    X_T123U14  COST  28.587  DEM_T123  1
    X_T123U14  SU_T123U14  1  SU_T124U14  -1
    X_T123U15  COST  33.32  DEM_T123  1
    X_T123U15  SU_T123U15  1  SU_T124U15  -1
    X_T123U16  COST  29.3728  DEM_T123  1
    X_T123U16  SU_T123U16  1  SU_T124U16  -1
    X_T123U17  COST  14.8651  DEM_T123  1
    X_T123U17  SU_T123U17  1  SU_T124U17  -1
    X_T123U18  COST  12.2798  DEM_T123  1
    X_T123U18  SU_T123U18  1  SU_T124U18  -1
    X_T123U19  COST  15.2825  DEM_T123  1
    X_T123U19  SU_T123U19  1  SU_T124U19  -1
    X_T123U20  COST  31.1797  DEM_T123  1
    X_T123U20  SU_T123U20  1  SU_T124U20  -1
    X_T123U21  COST  18.089  DEM_T123  1
    X_T123U21  SU_T123U21  1  SU_T124U21  -1
    X_T123U22  COST  21.7026  DEM_T123  1
    X_T123U22  SU_T123U22  1  SU_T124U22  -1
    X_T123U23  COST  31.9504  DEM_T123  1
    X_T123U23  SU_T123U23  1  SU_T124U23  -1
    X_T123U24  COST  35.6693  DEM_T123  1
    X_T123U24  SU_T123U24  1  SU_T124U24  -1
    X_T123U25  COST  13.171  DEM_T123  1
    X_T123U25  SU_T123U25  1  SU_T124U25  -1
    X_T123U26  COST  25.5749  DEM_T123  1
    X_T123U26  SU_T123U26  1  SU_T124U26  -1
    X_T123U27  COST  22.6762  DEM_T123  1
    X_T123U27  SU_T123U27  1  SU_T124U27  -1
    X_T123U28  COST  17.8908  DEM_T123  1
    X_T123U28  SU_T123U28  1  SU_T124U28  -1
    X_T123U29  COST  20.883  DEM_T123  1
    X_T123U29  SU_T123U29  1  SU_T124U29  -1
    X_T123U30  COST  30.503  DEM_T123  1
    X_T123U30  SU_T123U30  1  SU_T124U30  -1
    X_T124U1  COST  25.0552  DEM_T124  1
    X_T124U1  SU_T124U1  1  SU_T125U1  -1
    X_T124U2  COST  35.2402  DEM_T124  1
    X_T124U2  SU_T124U2  1  SU_T125U2  -1
    X_T124U3  COST  28.5681  DEM_T124  1
    X_T124U3  SU_T124U3  1  SU_T125U3  -1
    X_T124U4  COST  36.8461  DEM_T124  1
    X_T124U4  SU_T124U4  1  SU_T125U4  -1
    X_T124U5  COST  20.4581  DEM_T124  1
    X_T124U5  SU_T124U5  1  SU_T125U5  -1
    X_T124U6  COST  12.4027  DEM_T124  1
    X_T124U6  SU_T124U6  1  SU_T125U6  -1
    X_T124U7  COST  27.6786  DEM_T124  1
    X_T124U7  SU_T124U7  1  SU_T125U7  -1
    X_T124U8  COST  32.1678  DEM_T124  1
    X_T124U8  SU_T124U8  1  SU_T125U8  -1
    X_T124U9  COST  13.8574  DEM_T124  1
    X_T124U9  SU_T124U9  1  SU_T125U9  -1
    X_T124U10  COST  30.6892  DEM_T124  1
    X_T124U10  SU_T124U10  1  SU_T125U10  -1
    X_T124U11  COST  28.7795  DEM_T124  1
    X_T124U11  SU_T124U11  1  SU_T125U11  -1
    X_T124U12  COST  24.0712  DEM_T124  1
    X_T124U12  SU_T124U12  1  SU_T125U12  -1
    X_T124U13  COST  27.5523  DEM_T124  1
    X_T124U13  SU_T124U13  1  SU_T125U13  -1
    X_T124U14  COST  24.8707  DEM_T124  1
    X_T124U14  SU_T124U14  1  SU_T125U14  -1
    X_T124U15  COST  12.1354  DEM_T124  1
    X_T124U15  SU_T124U15  1  SU_T125U15  -1
    X_T124U16  COST  23.0133  DEM_T124  1
    X_T124U16  SU_T124U16  1  SU_T125U16  -1
    X_T124U17  COST  25.484  DEM_T124  1
    X_T124U17  SU_T124U17  1  SU_T125U17  -1
    X_T124U18  COST  30.6373  DEM_T124  1
    X_T124U18  SU_T124U18  1  SU_T125U18  -1
    X_T124U19  COST  18.9659  DEM_T124  1
    X_T124U19  SU_T124U19  1  SU_T125U19  -1
    X_T124U20  COST  13.4854  DEM_T124  1
    X_T124U20  SU_T124U20  1  SU_T125U20  -1
    X_T124U21  COST  23.3157  DEM_T124  1
    X_T124U21  SU_T124U21  1  SU_T125U21  -1
    X_T124U22  COST  29.5941  DEM_T124  1
    X_T124U22  SU_T124U22  1  SU_T125U22  -1
    X_T124U23  COST  26.629  DEM_T124  1
    X_T124U23  SU_T124U23  1  SU_T125U23  -1
    X_T124U24  COST  32.0268  DEM_T124  1
    X_T124U24  SU_T124U24  1  SU_T125U24  -1
    X_T124U25  COST  36.6362  DEM_T124  1
    X_T124U25  SU_T124U25  1  SU_T125U25  -1
    X_T124U26  COST  16.4838  DEM_T124  1
    X_T124U26  SU_T124U26  1  SU_T125U26  -1
    X_T124U27  COST  22.9498  DEM_T124  1
    X_T124U27  SU_T124U27  1  SU_T125U27  -1
    X_T124U28  COST  35.2885  DEM_T124  1
    X_T124U28  SU_T124U28  1  SU_T125U28  -1
    X_T124U29  COST  35.8243  DEM_T124  1
    X_T124U29  SU_T124U29  1  SU_T125U29  -1
    X_T124U30  COST  11.0552  DEM_T124  1
    X_T124U30  SU_T124U30  1  SU_T125U30  -1
    X_T125U1  COST  33.26  DEM_T125  1
    X_T125U1  SU_T125U1  1  SU_T126U1  -1
    X_T125U2  COST  32.6083  DEM_T125  1
    X_T125U2  SU_T125U2  1  SU_T126U2  -1
    X_T125U3  COST  33.1627  DEM_T125  1
    X_T125U3  SU_T125U3  1  SU_T126U3  -1
    X_T125U4  COST  32.8182  DEM_T125  1
    X_T125U4  SU_T125U4  1  SU_T126U4  -1
    X_T125U5  COST  35.0072  DEM_T125  1
    X_T125U5  SU_T125U5  1  SU_T126U5  -1
    X_T125U6  COST  36.7783  DEM_T125  1
    X_T125U6  SU_T125U6  1  SU_T126U6  -1
    X_T125U7  COST  30.3093  DEM_T125  1
    X_T125U7  SU_T125U7  1  SU_T126U7  -1
    X_T125U8  COST  12.8197  DEM_T125  1
    X_T125U8  SU_T125U8  1  SU_T126U8  -1
    X_T125U9  COST  39.512  DEM_T125  1
    X_T125U9  SU_T125U9  1  SU_T126U9  -1
    X_T125U10  COST  19.6146  DEM_T125  1
    X_T125U10  SU_T125U10  1  SU_T126U10  -1
    X_T125U11  COST  35.3665  DEM_T125  1
    X_T125U11  SU_T125U11  1  SU_T126U11  -1
    X_T125U12  COST  11.2037  DEM_T125  1
    X_T125U12  SU_T125U12  1  SU_T126U12  -1
    X_T125U13  COST  26.7229  DEM_T125  1
    X_T125U13  SU_T125U13  1  SU_T126U13  -1
    X_T125U14  COST  35.0329  DEM_T125  1
    X_T125U14  SU_T125U14  1  SU_T126U14  -1
    X_T125U15  COST  30.9452  DEM_T125  1
    X_T125U15  SU_T125U15  1  SU_T126U15  -1
    X_T125U16  COST  20.0848  DEM_T125  1
    X_T125U16  SU_T125U16  1  SU_T126U16  -1
    X_T125U17  COST  10.6014  DEM_T125  1
    X_T125U17  SU_T125U17  1  SU_T126U17  -1
    X_T125U18  COST  30.965  DEM_T125  1
    X_T125U18  SU_T125U18  1  SU_T126U18  -1
    X_T125U19  COST  14.205  DEM_T125  1
    X_T125U19  SU_T125U19  1  SU_T126U19  -1
    X_T125U20  COST  10.2402  DEM_T125  1
    X_T125U20  SU_T125U20  1  SU_T126U20  -1
    X_T125U21  COST  11.6264  DEM_T125  1
    X_T125U21  SU_T125U21  1  SU_T126U21  -1
    X_T125U22  COST  12.4318  DEM_T125  1
    X_T125U22  SU_T125U22  1  SU_T126U22  -1
    X_T125U23  COST  17.4887  DEM_T125  1
    X_T125U23  SU_T125U23  1  SU_T126U23  -1
    X_T125U24  COST  34.3945  DEM_T125  1
    X_T125U24  SU_T125U24  1  SU_T126U24  -1
    X_T125U25  COST  36.5129  DEM_T125  1
    X_T125U25  SU_T125U25  1  SU_T126U25  -1
    X_T125U26  COST  35.7623  DEM_T125  1
    X_T125U26  SU_T125U26  1  SU_T126U26  -1
    X_T125U27  COST  15.1078  DEM_T125  1
    X_T125U27  SU_T125U27  1  SU_T126U27  -1
    X_T125U28  COST  16.3818  DEM_T125  1
    X_T125U28  SU_T125U28  1  SU_T126U28  -1
    X_T125U29  COST  25.1086  DEM_T125  1
    X_T125U29  SU_T125U29  1  SU_T126U29  -1
    X_T125U30  COST  38.5802  DEM_T125  1
    X_T125U30  SU_T125U30  1  SU_T126U30  -1
    X_T126U1  COST  25.1905  DEM_T126  1
    X_T126U1  SU_T126U1  1  SU_T127U1  -1
    X_T126U2  COST  18.2872  DEM_T126  1
    X_T126U2  SU_T126U2  1  SU_T127U2  -1
    X_T126U3  COST  16.7572  DEM_T126  1
    X_T126U3  SU_T126U3  1  SU_T127U3  -1
    X_T126U4  COST  17.6085  DEM_T126  1
    X_T126U4  SU_T126U4  1  SU_T127U4  -1
    X_T126U5  COST  26.8443  DEM_T126  1
    X_T126U5  SU_T126U5  1  SU_T127U5  -1
    X_T126U6  COST  16.7311  DEM_T126  1
    X_T126U6  SU_T126U6  1  SU_T127U6  -1
    X_T126U7  COST  38.8481  DEM_T126  1
    X_T126U7  SU_T126U7  1  SU_T127U7  -1
    X_T126U8  COST  24.6493  DEM_T126  1
    X_T126U8  SU_T126U8  1  SU_T127U8  -1
    X_T126U9  COST  26.4781  DEM_T126  1
    X_T126U9  SU_T126U9  1  SU_T127U9  -1
    X_T126U10  COST  33.5179  DEM_T126  1
    X_T126U10  SU_T126U10  1  SU_T127U10  -1
    X_T126U11  COST  31.6348  DEM_T126  1
    X_T126U11  SU_T126U11  1  SU_T127U11  -1
    X_T126U12  COST  38.7734  DEM_T126  1
    X_T126U12  SU_T126U12  1  SU_T127U12  -1
    X_T126U13  COST  33.6814  DEM_T126  1
    X_T126U13  SU_T126U13  1  SU_T127U13  -1
    X_T126U14  COST  18.2212  DEM_T126  1
    X_T126U14  SU_T126U14  1  SU_T127U14  -1
    X_T126U15  COST  22.8252  DEM_T126  1
    X_T126U15  SU_T126U15  1  SU_T127U15  -1
    X_T126U16  COST  21.5248  DEM_T126  1
    X_T126U16  SU_T126U16  1  SU_T127U16  -1
    X_T126U17  COST  14.459  DEM_T126  1
    X_T126U17  SU_T126U17  1  SU_T127U17  -1
    X_T126U18  COST  24.7707  DEM_T126  1
    X_T126U18  SU_T126U18  1  SU_T127U18  -1
    X_T126U19  COST  15.8724  DEM_T126  1
    X_T126U19  SU_T126U19  1  SU_T127U19  -1
    X_T126U20  COST  34.923  DEM_T126  1
    X_T126U20  SU_T126U20  1  SU_T127U20  -1
    X_T126U21  COST  36.2469  DEM_T126  1
    X_T126U21  SU_T126U21  1  SU_T127U21  -1
    X_T126U22  COST  22.5372  DEM_T126  1
    X_T126U22  SU_T126U22  1  SU_T127U22  -1
    X_T126U23  COST  38.84  DEM_T126  1
    X_T126U23  SU_T126U23  1  SU_T127U23  -1
    X_T126U24  COST  17.1528  DEM_T126  1
    X_T126U24  SU_T126U24  1  SU_T127U24  -1
    X_T126U25  COST  28.1123  DEM_T126  1
    X_T126U25  SU_T126U25  1  SU_T127U25  -1
    X_T126U26  COST  27.1805  DEM_T126  1
    X_T126U26  SU_T126U26  1  SU_T127U26  -1
    X_T126U27  COST  35.6677  DEM_T126  1
    X_T126U27  SU_T126U27  1  SU_T127U27  -1
    X_T126U28  COST  17.657  DEM_T126  1
    X_T126U28  SU_T126U28  1  SU_T127U28  -1
    X_T126U29  COST  26.2773  DEM_T126  1
    X_T126U29  SU_T126U29  1  SU_T127U29  -1
    X_T126U30  COST  27.2088  DEM_T126  1
    X_T126U30  SU_T126U30  1  SU_T127U30  -1
    X_T127U1  COST  10.8571  DEM_T127  1
    X_T127U1  SU_T127U1  1  SU_T128U1  -1
    X_T127U2  COST  20.4876  DEM_T127  1
    X_T127U2  SU_T127U2  1  SU_T128U2  -1
    X_T127U3  COST  21.7776  DEM_T127  1
    X_T127U3  SU_T127U3  1  SU_T128U3  -1
    X_T127U4  COST  34.9672  DEM_T127  1
    X_T127U4  SU_T127U4  1  SU_T128U4  -1
    X_T127U5  COST  31.9946  DEM_T127  1
    X_T127U5  SU_T127U5  1  SU_T128U5  -1
    X_T127U6  COST  38.5419  DEM_T127  1
    X_T127U6  SU_T127U6  1  SU_T128U6  -1
    X_T127U7  COST  31.2016  DEM_T127  1
    X_T127U7  SU_T127U7  1  SU_T128U7  -1
    X_T127U8  COST  22.3629  DEM_T127  1
    X_T127U8  SU_T127U8  1  SU_T128U8  -1
    X_T127U9  COST  37.9761  DEM_T127  1
    X_T127U9  SU_T127U9  1  SU_T128U9  -1
    X_T127U10  COST  28.9134  DEM_T127  1
    X_T127U10  SU_T127U10  1  SU_T128U10  -1
    X_T127U11  COST  21.1332  DEM_T127  1
    X_T127U11  SU_T127U11  1  SU_T128U11  -1
    X_T127U12  COST  30.2798  DEM_T127  1
    X_T127U12  SU_T127U12  1  SU_T128U12  -1
    X_T127U13  COST  24.6769  DEM_T127  1
    X_T127U13  SU_T127U13  1  SU_T128U13  -1
    X_T127U14  COST  16.6625  DEM_T127  1
    X_T127U14  SU_T127U14  1  SU_T128U14  -1
    X_T127U15  COST  28.2505  DEM_T127  1
    X_T127U15  SU_T127U15  1  SU_T128U15  -1
    X_T127U16  COST  38.3199  DEM_T127  1
    X_T127U16  SU_T127U16  1  SU_T128U16  -1
    X_T127U17  COST  35.5052  DEM_T127  1
    X_T127U17  SU_T127U17  1  SU_T128U17  -1
    X_T127U18  COST  36.6083  DEM_T127  1
    X_T127U18  SU_T127U18  1  SU_T128U18  -1
    X_T127U19  COST  21.2292  DEM_T127  1
    X_T127U19  SU_T127U19  1  SU_T128U19  -1
    X_T127U20  COST  32.0455  DEM_T127  1
    X_T127U20  SU_T127U20  1  SU_T128U20  -1
    X_T127U21  COST  15.2812  DEM_T127  1
    X_T127U21  SU_T127U21  1  SU_T128U21  -1
    X_T127U22  COST  19.3763  DEM_T127  1
    X_T127U22  SU_T127U22  1  SU_T128U22  -1
    X_T127U23  COST  35.219  DEM_T127  1
    X_T127U23  SU_T127U23  1  SU_T128U23  -1
    X_T127U24  COST  33.1471  DEM_T127  1
    X_T127U24  SU_T127U24  1  SU_T128U24  -1
    X_T127U25  COST  34.1724  DEM_T127  1
    X_T127U25  SU_T127U25  1  SU_T128U25  -1
    X_T127U26  COST  18.8747  DEM_T127  1
    X_T127U26  SU_T127U26  1  SU_T128U26  -1
    X_T127U27  COST  35.2181  DEM_T127  1
    X_T127U27  SU_T127U27  1  SU_T128U27  -1
    X_T127U28  COST  11.1724  DEM_T127  1
    X_T127U28  SU_T127U28  1  SU_T128U28  -1
    X_T127U29  COST  11.5179  DEM_T127  1
    X_T127U29  SU_T127U29  1  SU_T128U29  -1
    X_T127U30  COST  38.8489  DEM_T127  1
    X_T127U30  SU_T127U30  1  SU_T128U30  -1
    X_T128U1  COST  30.2917  DEM_T128  1
    X_T128U1  SU_T128U1  1  SU_T129U1  -1
    X_T128U2  COST  31.8855  DEM_T128  1
    X_T128U2  SU_T128U2  1  SU_T129U2  -1
    X_T128U3  COST  30.4315  DEM_T128  1
    X_T128U3  SU_T128U3  1  SU_T129U3  -1
    X_T128U4  COST  14.367  DEM_T128  1
    X_T128U4  SU_T128U4  1  SU_T129U4  -1
    X_T128U5  COST  13.3802  DEM_T128  1
    X_T128U5  SU_T128U5  1  SU_T129U5  -1
    X_T128U6  COST  11.2285  DEM_T128  1
    X_T128U6  SU_T128U6  1  SU_T129U6  -1
    X_T128U7  COST  36.5911  DEM_T128  1
    X_T128U7  SU_T128U7  1  SU_T129U7  -1
    X_T128U8  COST  36.4835  DEM_T128  1
    X_T128U8  SU_T128U8  1  SU_T129U8  -1
    X_T128U9  COST  13.1358  DEM_T128  1
    X_T128U9  SU_T128U9  1  SU_T129U9  -1
    X_T128U10  COST  26.7102  DEM_T128  1
    X_T128U10  SU_T128U10  1  SU_T129U10  -1
    X_T128U11  COST  39.2305  DEM_T128  1
    X_T128U11  SU_T128U11  1  SU_T129U11  -1
    X_T128U12  COST  20.6732  DEM_T128  1
    X_T128U12  SU_T128U12  1  SU_T129U12  -1
    X_T128U13  COST  32.679  DEM_T128  1
    X_T128U13  SU_T128U13  1  SU_T129U13  -1
    X_T128U14  COST  13.5966  DEM_T128  1
    X_T128U14  SU_T128U14  1  SU_T129U14  -1
    X_T128U15  COST  30.5632  DEM_T128  1
    X_T128U15  SU_T128U15  1  SU_T129U15  -1
    X_T128U16  COST  10.6016  DEM_T128  1
    X_T128U16  SU_T128U16  1  SU_T129U16  -1
    X_T128U17  COST  27.0784  DEM_T128  1
    X_T128U17  SU_T128U17  1  SU_T129U17  -1
    X_T128U18  COST  34.2381  DEM_T128  1
    X_T128U18  SU_T128U18  1  SU_T129U18  -1
    X_T128U19  COST  13.3052  DEM_T128  1
    X_T128U19  SU_T128U19  1  SU_T129U19  -1
    X_T128U20  COST  14.6928  DEM_T128  1
    X_T128U20  SU_T128U20  1  SU_T129U20  -1
    X_T128U21  COST  31.7857  DEM_T128  1
    X_T128U21  SU_T128U21  1  SU_T129U21  -1
    X_T128U22  COST  18.9704  DEM_T128  1
    X_T128U22  SU_T128U22  1  SU_T129U22  -1
    X_T128U23  COST  30.1366  DEM_T128  1
    X_T128U23  SU_T128U23  1  SU_T129U23  -1
    X_T128U24  COST  31.7949  DEM_T128  1
    X_T128U24  SU_T128U24  1  SU_T129U24  -1
    X_T128U25  COST  22.4549  DEM_T128  1
    X_T128U25  SU_T128U25  1  SU_T129U25  -1
    X_T128U26  COST  15.2383  DEM_T128  1
    X_T128U26  SU_T128U26  1  SU_T129U26  -1
    X_T128U27  COST  39.2291  DEM_T128  1
    X_T128U27  SU_T128U27  1  SU_T129U27  -1
    X_T128U28  COST  25.3782  DEM_T128  1
    X_T128U28  SU_T128U28  1  SU_T129U28  -1
    X_T128U29  COST  25.6819  DEM_T128  1
    X_T128U29  SU_T128U29  1  SU_T129U29  -1
    X_T128U30  COST  18.007  DEM_T128  1
    X_T128U30  SU_T128U30  1  SU_T129U30  -1
    X_T129U1  COST  15.1734  DEM_T129  1
    X_T129U1  SU_T129U1  1  SU_T130U1  -1
    X_T129U2  COST  26.6658  DEM_T129  1
    X_T129U2  SU_T129U2  1  SU_T130U2  -1
    X_T129U3  COST  24.9773  DEM_T129  1
    X_T129U3  SU_T129U3  1  SU_T130U3  -1
    X_T129U4  COST  15.0819  DEM_T129  1
    X_T129U4  SU_T129U4  1  SU_T130U4  -1
    X_T129U5  COST  31.5697  DEM_T129  1
    X_T129U5  SU_T129U5  1  SU_T130U5  -1
    X_T129U6  COST  32.1505  DEM_T129  1
    X_T129U6  SU_T129U6  1  SU_T130U6  -1
    X_T129U7  COST  36.4741  DEM_T129  1
    X_T129U7  SU_T129U7  1  SU_T130U7  -1
    X_T129U8  COST  13.8053  DEM_T129  1
    X_T129U8  SU_T129U8  1  SU_T130U8  -1
    X_T129U9  COST  35.3438  DEM_T129  1
    X_T129U9  SU_T129U9  1  SU_T130U9  -1
    X_T129U10  COST  17.9395  DEM_T129  1
    X_T129U10  SU_T129U10  1  SU_T130U10  -1
    X_T129U11  COST  12.9996  DEM_T129  1
    X_T129U11  SU_T129U11  1  SU_T130U11  -1
    X_T129U12  COST  26.812  DEM_T129  1
    X_T129U12  SU_T129U12  1  SU_T130U12  -1
    X_T129U13  COST  33.8736  DEM_T129  1
    X_T129U13  SU_T129U13  1  SU_T130U13  -1
    X_T129U14  COST  10.1958  DEM_T129  1
    X_T129U14  SU_T129U14  1  SU_T130U14  -1
    X_T129U15  COST  10.4756  DEM_T129  1
    X_T129U15  SU_T129U15  1  SU_T130U15  -1
    X_T129U16  COST  19.8007  DEM_T129  1
    X_T129U16  SU_T129U16  1  SU_T130U16  -1
    X_T129U17  COST  18.3841  DEM_T129  1
    X_T129U17  SU_T129U17  1  SU_T130U17  -1
    X_T129U18  COST  11.6605  DEM_T129  1
    X_T129U18  SU_T129U18  1  SU_T130U18  -1
    X_T129U19  COST  30.8578  DEM_T129  1
    X_T129U19  SU_T129U19  1  SU_T130U19  -1
    X_T129U20  COST  29.1933  DEM_T129  1
    X_T129U20  SU_T129U20  1  SU_T130U20  -1
    X_T129U21  COST  22.2215  DEM_T129  1
    X_T129U21  SU_T129U21  1  SU_T130U21  -1
    X_T129U22  COST  13.2891  DEM_T129  1
    X_T129U22  SU_T129U22  1  SU_T130U22  -1
    X_T129U23  COST  37.8501  DEM_T129  1
    X_T129U23  SU_T129U23  1  SU_T130U23  -1
    X_T129U24  COST  22.6466  DEM_T129  1
    X_T129U24  SU_T129U24  1  SU_T130U24  -1
    X_T129U25  COST  23.8806  DEM_T129  1
    X_T129U25  SU_T129U25  1  SU_T130U25  -1
    X_T129U26  COST  15.3894  DEM_T129  1
    X_T129U26  SU_T129U26  1  SU_T130U26  -1
    X_T129U27  COST  21.5549  DEM_T129  1
    X_T129U27  SU_T129U27  1  SU_T130U27  -1
    X_T129U28  COST  36.2382  DEM_T129  1
    X_T129U28  SU_T129U28  1  SU_T130U28  -1
    X_T129U29  COST  25.4933  DEM_T129  1
    X_T129U29  SU_T129U29  1  SU_T130U29  -1
    X_T129U30  COST  27.395  DEM_T129  1
    X_T129U30  SU_T129U30  1  SU_T130U30  -1
    X_T130U1  COST  30.2259  DEM_T130  1
    X_T130U1  SU_T130U1  1  SU_T131U1  -1
    X_T130U2  COST  34.1757  DEM_T130  1
    X_T130U2  SU_T130U2  1  SU_T131U2  -1
    X_T130U3  COST  21.3216  DEM_T130  1
    X_T130U3  SU_T130U3  1  SU_T131U3  -1
    X_T130U4  COST  11.393  DEM_T130  1
    X_T130U4  SU_T130U4  1  SU_T131U4  -1
    X_T130U5  COST  37.6426  DEM_T130  1
    X_T130U5  SU_T130U5  1  SU_T131U5  -1
    X_T130U6  COST  23.3734  DEM_T130  1
    X_T130U6  SU_T130U6  1  SU_T131U6  -1
    X_T130U7  COST  36.6796  DEM_T130  1
    X_T130U7  SU_T130U7  1  SU_T131U7  -1
    X_T130U8  COST  26.951  DEM_T130  1
    X_T130U8  SU_T130U8  1  SU_T131U8  -1
    X_T130U9  COST  38.8415  DEM_T130  1
    X_T130U9  SU_T130U9  1  SU_T131U9  -1
    X_T130U10  COST  26.7843  DEM_T130  1
    X_T130U10  SU_T130U10  1  SU_T131U10  -1
    X_T130U11  COST  12.4285  DEM_T130  1
    X_T130U11  SU_T130U11  1  SU_T131U11  -1
    X_T130U12  COST  38.0872  DEM_T130  1
    X_T130U12  SU_T130U12  1  SU_T131U12  -1
    X_T130U13  COST  39.4774  DEM_T130  1
    X_T130U13  SU_T130U13  1  SU_T131U13  -1
    X_T130U14  COST  33.6379  DEM_T130  1
    X_T130U14  SU_T130U14  1  SU_T131U14  -1
    X_T130U15  COST  29.4409  DEM_T130  1
    X_T130U15  SU_T130U15  1  SU_T131U15  -1
    X_T130U16  COST  24.0994  DEM_T130  1
    X_T130U16  SU_T130U16  1  SU_T131U16  -1
    X_T130U17  COST  18.9564  DEM_T130  1
    X_T130U17  SU_T130U17  1  SU_T131U17  -1
    X_T130U18  COST  16.8942  DEM_T130  1
    X_T130U18  SU_T130U18  1  SU_T131U18  -1
    X_T130U19  COST  28.9168  DEM_T130  1
    X_T130U19  SU_T130U19  1  SU_T131U19  -1
    X_T130U20  COST  23.1204  DEM_T130  1
    X_T130U20  SU_T130U20  1  SU_T131U20  -1
    X_T130U21  COST  28.9742  DEM_T130  1
    X_T130U21  SU_T130U21  1  SU_T131U21  -1
    X_T130U22  COST  29.1537  DEM_T130  1
    X_T130U22  SU_T130U22  1  SU_T131U22  -1
    X_T130U23  COST  18.809  DEM_T130  1
    X_T130U23  SU_T130U23  1  SU_T131U23  -1
    X_T130U24  COST  35.5729  DEM_T130  1
    X_T130U24  SU_T130U24  1  SU_T131U24  -1
    X_T130U25  COST  30.367  DEM_T130  1
    X_T130U25  SU_T130U25  1  SU_T131U25  -1
    X_T130U26  COST  17.9082  DEM_T130  1
    X_T130U26  SU_T130U26  1  SU_T131U26  -1
    X_T130U27  COST  28.1074  DEM_T130  1
    X_T130U27  SU_T130U27  1  SU_T131U27  -1
    X_T130U28  COST  16.1024  DEM_T130  1
    X_T130U28  SU_T130U28  1  SU_T131U28  -1
    X_T130U29  COST  35.6747  DEM_T130  1
    X_T130U29  SU_T130U29  1  SU_T131U29  -1
    X_T130U30  COST  15.5974  DEM_T130  1
    X_T130U30  SU_T130U30  1  SU_T131U30  -1
    X_T131U1  COST  34.0199  DEM_T131  1
    X_T131U1  SU_T131U1  1  SU_T132U1  -1
    X_T131U2  COST  30.1162  DEM_T131  1
    X_T131U2  SU_T131U2  1  SU_T132U2  -1
    X_T131U3  COST  21.4369  DEM_T131  1
    X_T131U3  SU_T131U3  1  SU_T132U3  -1
    X_T131U4  COST  17.4285  DEM_T131  1
    X_T131U4  SU_T131U4  1  SU_T132U4  -1
    X_T131U5  COST  35.3321  DEM_T131  1
    X_T131U5  SU_T131U5  1  SU_T132U5  -1
    X_T131U6  COST  22.4564  DEM_T131  1
    X_T131U6  SU_T131U6  1  SU_T132U6  -1
    X_T131U7  COST  24.4356  DEM_T131  1
    X_T131U7  SU_T131U7  1  SU_T132U7  -1
    X_T131U8  COST  20.8753  DEM_T131  1
    X_T131U8  SU_T131U8  1  SU_T132U8  -1
    X_T131U9  COST  28.7312  DEM_T131  1
    X_T131U9  SU_T131U9  1  SU_T132U9  -1
    X_T131U10  COST  12.111  DEM_T131  1
    X_T131U10  SU_T131U10  1  SU_T132U10  -1
    X_T131U11  COST  38.5971  DEM_T131  1
    X_T131U11  SU_T131U11  1  SU_T132U11  -1
    X_T131U12  COST  31.458  DEM_T131  1
    X_T131U12  SU_T131U12  1  SU_T132U12  -1
    X_T131U13  COST  35.6422  DEM_T131  1
    X_T131U13  SU_T131U13  1  SU_T132U13  -1
    X_T131U14  COST  15.5266  DEM_T131  1
    X_T131U14  SU_T131U14  1  SU_T132U14  -1
    X_T131U15  COST  21.7715  DEM_T131  1
    X_T131U15  SU_T131U15  1  SU_T132U15  -1
    X_T131U16  COST  13.7657  DEM_T131  1
    X_T131U16  SU_T131U16  1  SU_T132U16  -1
    X_T131U17  COST  11.073  DEM_T131  1
    X_T131U17  SU_T131U17  1  SU_T132U17  -1
    X_T131U18  COST  29.8564  DEM_T131  1
    X_T131U18  SU_T131U18  1  SU_T132U18  -1
    X_T131U19  COST  37.1755  DEM_T131  1
    X_T131U19  SU_T131U19  1  SU_T132U19  -1
    X_T131U20  COST  24.1325  DEM_T131  1
    X_T131U20  SU_T131U20  1  SU_T132U20  -1
    X_T131U21  COST  17.097  DEM_T131  1
    X_T131U21  SU_T131U21  1  SU_T132U21  -1
    X_T131U22  COST  13.9523  DEM_T131  1
    X_T131U22  SU_T131U22  1  SU_T132U22  -1
    X_T131U23  COST  35.2737  DEM_T131  1
    X_T131U23  SU_T131U23  1  SU_T132U23  -1
    X_T131U24  COST  35.9928  DEM_T131  1
    X_T131U24  SU_T131U24  1  SU_T132U24  -1
    X_T131U25  COST  37.3836  DEM_T131  1
    X_T131U25  SU_T131U25  1  SU_T132U25  -1
    X_T131U26  COST  29.3728  DEM_T131  1
    X_T131U26  SU_T131U26  1  SU_T132U26  -1
    X_T131U27  COST  35.0966  DEM_T131  1
    X_T131U27  SU_T131U27  1  SU_T132U27  -1
    X_T131U28  COST  14.0572  DEM_T131  1
    X_T131U28  SU_T131U28  1  SU_T132U28  -1
    X_T131U29  COST  22.2365  DEM_T131  1
    X_T131U29  SU_T131U29  1  SU_T132U29  -1
    X_T131U30  COST  36.4571  DEM_T131  1
    X_T131U30  SU_T131U30  1  SU_T132U30  -1
    X_T132U1  COST  18.6964  DEM_T132  1
    X_T132U1  SU_T132U1  1  SU_T133U1  -1
    X_T132U2  COST  27.2452  DEM_T132  1
    X_T132U2  SU_T132U2  1  SU_T133U2  -1
    X_T132U3  COST  21.2395  DEM_T132  1
    X_T132U3  SU_T132U3  1  SU_T133U3  -1
    X_T132U4  COST  22.9017  DEM_T132  1
    X_T132U4  SU_T132U4  1  SU_T133U4  -1
    X_T132U5  COST  18.9326  DEM_T132  1
    X_T132U5  SU_T132U5  1  SU_T133U5  -1
    X_T132U6  COST  33.2946  DEM_T132  1
    X_T132U6  SU_T132U6  1  SU_T133U6  -1
    X_T132U7  COST  19.8632  DEM_T132  1
    X_T132U7  SU_T132U7  1  SU_T133U7  -1
    X_T132U8  COST  36.1379  DEM_T132  1
    X_T132U8  SU_T132U8  1  SU_T133U8  -1
    X_T132U9  COST  23.072  DEM_T132  1
    X_T132U9  SU_T132U9  1  SU_T133U9  -1
    X_T132U10  COST  21.659  DEM_T132  1
    X_T132U10  SU_T132U10  1  SU_T133U10  -1
    X_T132U11  COST  32.4001  DEM_T132  1
    X_T132U11  SU_T132U11  1  SU_T133U11  -1
    X_T132U12  COST  25.3775  DEM_T132  1
    X_T132U12  SU_T132U12  1  SU_T133U12  -1
    X_T132U13  COST  24.8247  DEM_T132  1
    X_T132U13  SU_T132U13  1  SU_T133U13  -1
    X_T132U14  COST  21.5137  DEM_T132  1
    X_T132U14  SU_T132U14  1  SU_T133U14  -1
    X_T132U15  COST  24.4541  DEM_T132  1
    X_T132U15  SU_T132U15  1  SU_T133U15  -1
    X_T132U16  COST  34.7659  DEM_T132  1
    X_T132U16  SU_T132U16  1  SU_T133U16  -1
    X_T132U17  COST  12.2561  DEM_T132  1
    X_T132U17  SU_T132U17  1  SU_T133U17  -1
    X_T132U18  COST  24.4904  DEM_T132  1
    X_T132U18  SU_T132U18  1  SU_T133U18  -1
    X_T132U19  COST  39.4804  DEM_T132  1
    X_T132U19  SU_T132U19  1  SU_T133U19  -1
    X_T132U20  COST  22.4632  DEM_T132  1
    X_T132U20  SU_T132U20  1  SU_T133U20  -1
    X_T132U21  COST  19.7366  DEM_T132  1
    X_T132U21  SU_T132U21  1  SU_T133U21  -1
    X_T132U22  COST  32.7699  DEM_T132  1
    X_T132U22  SU_T132U22  1  SU_T133U22  -1
    X_T132U23  COST  11.3398  DEM_T132  1
    X_T132U23  SU_T132U23  1  SU_T133U23  -1
    X_T132U24  COST  18.7691  DEM_T132  1
    X_T132U24  SU_T132U24  1  SU_T133U24  -1
    X_T132U25  COST  12.6273  DEM_T132  1
    X_T132U25  SU_T132U25  1  SU_T133U25  -1
    X_T132U26  COST  30.0755  DEM_T132  1
    X_T132U26  SU_T132U26  1  SU_T133U26  -1
    X_T132U27  COST  22.9664  DEM_T132  1
    X_T132U27  SU_T132U27  1  SU_T133U27  -1
    X_T132U28  COST  28.2709  DEM_T132  1
    X_T132U28  SU_T132U28  1  SU_T133U28  -1
    X_T132U29  COST  23.4031  DEM_T132  1
    X_T132U29  SU_T132U29  1  SU_T133U29  -1
    X_T132U30  COST  29.3073  DEM_T132  1
    X_T132U30  SU_T132U30  1  SU_T133U30  -1
    X_T133U1  COST  23.0873  DEM_T133  1
    X_T133U1  SU_T133U1  1  SU_T134U1  -1
    X_T133U2  COST  11.1266  DEM_T133  1
    X_T133U2  SU_T133U2  1  SU_T134U2  -1
    X_T133U3  COST  19.4233  DEM_T133  1
    X_T133U3  SU_T133U3  1  SU_T134U3  -1
    X_T133U4  COST  13.174  DEM_T133  1
    X_T133U4  SU_T133U4  1  SU_T134U4  -1
    X_T133U5  COST  12.8512  DEM_T133  1
    X_T133U5  SU_T133U5  1  SU_T134U5  -1
    X_T133U6  COST  31.8455  DEM_T133  1
    X_T133U6  SU_T133U6  1  SU_T134U6  -1
    X_T133U7  COST  39.3227  DEM_T133  1
    X_T133U7  SU_T133U7  1  SU_T134U7  -1
    X_T133U8  COST  23.3532  DEM_T133  1
    X_T133U8  SU_T133U8  1  SU_T134U8  -1
    X_T133U9  COST  20.5414  DEM_T133  1
    X_T133U9  SU_T133U9  1  SU_T134U9  -1
    X_T133U10  COST  36.6653  DEM_T133  1
    X_T133U10  SU_T133U10  1  SU_T134U10  -1
    X_T133U11  COST  26.8977  DEM_T133  1
    X_T133U11  SU_T133U11  1  SU_T134U11  -1
    X_T133U12  COST  16.286  DEM_T133  1
    X_T133U12  SU_T133U12  1  SU_T134U12  -1
    X_T133U13  COST  37.1314  DEM_T133  1
    X_T133U13  SU_T133U13  1  SU_T134U13  -1
    X_T133U14  COST  39.7568  DEM_T133  1
    X_T133U14  SU_T133U14  1  SU_T134U14  -1
    X_T133U15  COST  29.9051  DEM_T133  1
    X_T133U15  SU_T133U15  1  SU_T134U15  -1
    X_T133U16  COST  15.1419  DEM_T133  1
    X_T133U16  SU_T133U16  1  SU_T134U16  -1
    X_T133U17  COST  30.7989  DEM_T133  1
    X_T133U17  SU_T133U17  1  SU_T134U17  -1
    X_T133U18  COST  34.7936  DEM_T133  1
    X_T133U18  SU_T133U18  1  SU_T134U18  -1
    X_T133U19  COST  36.3979  DEM_T133  1
    X_T133U19  SU_T133U19  1  SU_T134U19  -1
    X_T133U20  COST  17.3219  DEM_T133  1
    X_T133U20  SU_T133U20  1  SU_T134U20  -1
    X_T133U21  COST  27.5938  DEM_T133  1
    X_T133U21  SU_T133U21  1  SU_T134U21  -1
    X_T133U22  COST  39.4572  DEM_T133  1
    X_T133U22  SU_T133U22  1  SU_T134U22  -1
    X_T133U23  COST  13.8555  DEM_T133  1
    X_T133U23  SU_T133U23  1  SU_T134U23  -1
    X_T133U24  COST  30.6499  DEM_T133  1
    X_T133U24  SU_T133U24  1  SU_T134U24  -1
    X_T133U25  COST  38.0745  DEM_T133  1
    X_T133U25  SU_T133U25  1  SU_T134U25  -1
    X_T133U26  COST  12.5316  DEM_T133  1
    X_T133U26  SU_T133U26  1  SU_T134U26  -1
    X_T133U27  COST  10.5678  DEM_T133  1
    X_T133U27  SU_T133U27  1  SU_T134U27  -1
    X_T133U28  COST  37.4457  DEM_T133  1
    X_T133U28  SU_T133U28  1  SU_T134U28  -1
    X_T133U29  COST  22.3243  DEM_T133  1
    X_T133U29  SU_T133U29  1  SU_T134U29  -1
    X_T133U30  COST  18.1157  DEM_T133  1
    X_T133U30  SU_T133U30  1  SU_T134U30  -1
    X_T134U1  COST  28.4647  DEM_T134  1
    X_T134U1  SU_T134U1  1  SU_T135U1  -1
    X_T134U2  COST  23.4164  DEM_T134  1
    X_T134U2  SU_T134U2  1  SU_T135U2  -1
    X_T134U3  COST  24.4843  DEM_T134  1
    X_T134U3  SU_T134U3  1  SU_T135U3  -1
    X_T134U4  COST  35.1691  DEM_T134  1
    X_T134U4  SU_T134U4  1  SU_T135U4  -1
    X_T134U5  COST  29.7929  DEM_T134  1
    X_T134U5  SU_T134U5  1  SU_T135U5  -1
    X_T134U6  COST  30.606  DEM_T134  1
    X_T134U6  SU_T134U6  1  SU_T135U6  -1
    X_T134U7  COST  28.2575  DEM_T134  1
    X_T134U7  SU_T134U7  1  SU_T135U7  -1
    X_T134U8  COST  38.8335  DEM_T134  1
    X_T134U8  SU_T134U8  1  SU_T135U8  -1
    X_T134U9  COST  17.7865  DEM_T134  1
    X_T134U9  SU_T134U9  1  SU_T135U9  -1
    X_T134U10  COST  31.1592  DEM_T134  1
    X_T134U10  SU_T134U10  1  SU_T135U10  -1
    X_T134U11  COST  19.1049  DEM_T134  1
    X_T134U11  SU_T134U11  1  SU_T135U11  -1
    X_T134U12  COST  39.7317  DEM_T134  1
    X_T134U12  SU_T134U12  1  SU_T135U12  -1
    X_T134U13  COST  22.1394  DEM_T134  1
    X_T134U13  SU_T134U13  1  SU_T135U13  -1
    X_T134U14  COST  34.6324  DEM_T134  1
    X_T134U14  SU_T134U14  1  SU_T135U14  -1
    X_T134U15  COST  30.2202  DEM_T134  1
    X_T134U15  SU_T134U15  1  SU_T135U15  -1
    X_T134U16  COST  30.1857  DEM_T134  1
    X_T134U16  SU_T134U16  1  SU_T135U16  -1
    X_T134U17  COST  21.9646  DEM_T134  1
    X_T134U17  SU_T134U17  1  SU_T135U17  -1
    X_T134U18  COST  22.0463  DEM_T134  1
    X_T134U18  SU_T134U18  1  SU_T135U18  -1
    X_T134U19  COST  34.0979  DEM_T134  1
    X_T134U19  SU_T134U19  1  SU_T135U19  -1
    X_T134U20  COST  31.6883  DEM_T134  1
    X_T134U20  SU_T134U20  1  SU_T135U20  -1
    X_T134U21  COST  17.4956  DEM_T134  1
    X_T134U21  SU_T134U21  1  SU_T135U21  -1
    X_T134U22  COST  27.6747  DEM_T134  1
    X_T134U22  SU_T134U22  1  SU_T135U22  -1
    X_T134U23  COST  32.3543  DEM_T134  1
    X_T134U23  SU_T134U23  1  SU_T135U23  -1
    X_T134U24  COST  10.3202  DEM_T134  1
    X_T134U24  SU_T134U24  1  SU_T135U24  -1
    X_T134U25  COST  34.6495  DEM_T134  1
    X_T134U25  SU_T134U25  1  SU_T135U25  -1
    X_T134U26  COST  28.3272  DEM_T134  1
    X_T134U26  SU_T134U26  1  SU_T135U26  -1
    X_T134U27  COST  33.8169  DEM_T134  1
    X_T134U27  SU_T134U27  1  SU_T135U27  -1
    X_T134U28  COST  35.5301  DEM_T134  1
    X_T134U28  SU_T134U28  1  SU_T135U28  -1
    X_T134U29  COST  18.0716  DEM_T134  1
    X_T134U29  SU_T134U29  1  SU_T135U29  -1
    X_T134U30  COST  26.0044  DEM_T134  1
    X_T134U30  SU_T134U30  1  SU_T135U30  -1
    X_T135U1  COST  23.7082  DEM_T135  1
    X_T135U1  SU_T135U1  1  SU_T136U1  -1
    X_T135U2  COST  36.6358  DEM_T135  1
    X_T135U2  SU_T135U2  1  SU_T136U2  -1
    X_T135U3  COST  32.3238  DEM_T135  1
    X_T135U3  SU_T135U3  1  SU_T136U3  -1
    X_T135U4  COST  18.1416  DEM_T135  1
    X_T135U4  SU_T135U4  1  SU_T136U4  -1
    X_T135U5  COST  31.3296  DEM_T135  1
    X_T135U5  SU_T135U5  1  SU_T136U5  -1
    X_T135U6  COST  13.3839  DEM_T135  1
    X_T135U6  SU_T135U6  1  SU_T136U6  -1
    X_T135U7  COST  37.3492  DEM_T135  1
    X_T135U7  SU_T135U7  1  SU_T136U7  -1
    X_T135U8  COST  33.214  DEM_T135  1
    X_T135U8  SU_T135U8  1  SU_T136U8  -1
    X_T135U9  COST  15.4959  DEM_T135  1
    X_T135U9  SU_T135U9  1  SU_T136U9  -1
    X_T135U10  COST  19.8331  DEM_T135  1
    X_T135U10  SU_T135U10  1  SU_T136U10  -1
    X_T135U11  COST  13.6788  DEM_T135  1
    X_T135U11  SU_T135U11  1  SU_T136U11  -1
    X_T135U12  COST  21.9018  DEM_T135  1
    X_T135U12  SU_T135U12  1  SU_T136U12  -1
    X_T135U13  COST  14.594  DEM_T135  1
    X_T135U13  SU_T135U13  1  SU_T136U13  -1
    X_T135U14  COST  17.1426  DEM_T135  1
    X_T135U14  SU_T135U14  1  SU_T136U14  -1
    X_T135U15  COST  16.2797  DEM_T135  1
    X_T135U15  SU_T135U15  1  SU_T136U15  -1
    X_T135U16  COST  13.897  DEM_T135  1
    X_T135U16  SU_T135U16  1  SU_T136U16  -1
    X_T135U17  COST  12.0752  DEM_T135  1
    X_T135U17  SU_T135U17  1  SU_T136U17  -1
    X_T135U18  COST  18.475  DEM_T135  1
    X_T135U18  SU_T135U18  1  SU_T136U18  -1
    X_T135U19  COST  31.9125  DEM_T135  1
    X_T135U19  SU_T135U19  1  SU_T136U19  -1
    X_T135U20  COST  37.9308  DEM_T135  1
    X_T135U20  SU_T135U20  1  SU_T136U20  -1
    X_T135U21  COST  20.844  DEM_T135  1
    X_T135U21  SU_T135U21  1  SU_T136U21  -1
    X_T135U22  COST  32.164  DEM_T135  1
    X_T135U22  SU_T135U22  1  SU_T136U22  -1
    X_T135U23  COST  23.4383  DEM_T135  1
    X_T135U23  SU_T135U23  1  SU_T136U23  -1
    X_T135U24  COST  22.4732  DEM_T135  1
    X_T135U24  SU_T135U24  1  SU_T136U24  -1
    X_T135U25  COST  16.8911  DEM_T135  1
    X_T135U25  SU_T135U25  1  SU_T136U25  -1
    X_T135U26  COST  21.1782  DEM_T135  1
    X_T135U26  SU_T135U26  1  SU_T136U26  -1
    X_T135U27  COST  26.8302  DEM_T135  1
    X_T135U27  SU_T135U27  1  SU_T136U27  -1
    X_T135U28  COST  19.6056  DEM_T135  1
    X_T135U28  SU_T135U28  1  SU_T136U28  -1
    X_T135U29  COST  22.2768  DEM_T135  1
    X_T135U29  SU_T135U29  1  SU_T136U29  -1
    X_T135U30  COST  13.4039  DEM_T135  1
    X_T135U30  SU_T135U30  1  SU_T136U30  -1
    X_T136U1  COST  34.2204  DEM_T136  1
    X_T136U1  SU_T136U1  1  SU_T137U1  -1
    X_T136U2  COST  21.5847  DEM_T136  1
    X_T136U2  SU_T136U2  1  SU_T137U2  -1
    X_T136U3  COST  37.3193  DEM_T136  1
    X_T136U3  SU_T136U3  1  SU_T137U3  -1
    X_T136U4  COST  22.8374  DEM_T136  1
    X_T136U4  SU_T136U4  1  SU_T137U4  -1
    X_T136U5  COST  28.7998  DEM_T136  1
    X_T136U5  SU_T136U5  1  SU_T137U5  -1
    X_T136U6  COST  13.7633  DEM_T136  1
    X_T136U6  SU_T136U6  1  SU_T137U6  -1
    X_T136U7  COST  10.5418  DEM_T136  1
    X_T136U7  SU_T136U7  1  SU_T137U7  -1
    X_T136U8  COST  19.9305  DEM_T136  1
    X_T136U8  SU_T136U8  1  SU_T137U8  -1
    X_T136U9  COST  19.3828  DEM_T136  1
    X_T136U9  SU_T136U9  1  SU_T137U9  -1
    X_T136U10  COST  27.8486  DEM_T136  1
    X_T136U10  SU_T136U10  1  SU_T137U10  -1
    X_T136U11  COST  39.6802  DEM_T136  1
    X_T136U11  SU_T136U11  1  SU_T137U11  -1
    X_T136U12  COST  39.5485  DEM_T136  1
    X_T136U12  SU_T136U12  1  SU_T137U12  -1
    X_T136U13  COST  20.1442  DEM_T136  1
    X_T136U13  SU_T136U13  1  SU_T137U13  -1
    X_T136U14  COST  17.8691  DEM_T136  1
    X_T136U14  SU_T136U14  1  SU_T137U14  -1
    X_T136U15  COST  10.9697  DEM_T136  1
    X_T136U15  SU_T136U15  1  SU_T137U15  -1
    X_T136U16  COST  27.0139  DEM_T136  1
    X_T136U16  SU_T136U16  1  SU_T137U16  -1
    X_T136U17  COST  24.2589  DEM_T136  1
    X_T136U17  SU_T136U17  1  SU_T137U17  -1
    X_T136U18  COST  14.0063  DEM_T136  1
    X_T136U18  SU_T136U18  1  SU_T137U18  -1
    X_T136U19  COST  28.4718  DEM_T136  1
    X_T136U19  SU_T136U19  1  SU_T137U19  -1
    X_T136U20  COST  22.1245  DEM_T136  1
    X_T136U20  SU_T136U20  1  SU_T137U20  -1
    X_T136U21  COST  22.4648  DEM_T136  1
    X_T136U21  SU_T136U21  1  SU_T137U21  -1
    X_T136U22  COST  11.0862  DEM_T136  1
    X_T136U22  SU_T136U22  1  SU_T137U22  -1
    X_T136U23  COST  31.2604  DEM_T136  1
    X_T136U23  SU_T136U23  1  SU_T137U23  -1
    X_T136U24  COST  19.163  DEM_T136  1
    X_T136U24  SU_T136U24  1  SU_T137U24  -1
    X_T136U25  COST  20.9776  DEM_T136  1
    X_T136U25  SU_T136U25  1  SU_T137U25  -1
    X_T136U26  COST  30.166  DEM_T136  1
    X_T136U26  SU_T136U26  1  SU_T137U26  -1
    X_T136U27  COST  36.8696  DEM_T136  1
    X_T136U27  SU_T136U27  1  SU_T137U27  -1
    X_T136U28  COST  31.1965  DEM_T136  1
    X_T136U28  SU_T136U28  1  SU_T137U28  -1
    X_T136U29  COST  36.0979  DEM_T136  1
    X_T136U29  SU_T136U29  1  SU_T137U29  -1
    X_T136U30  COST  30.3368  DEM_T136  1
    X_T136U30  SU_T136U30  1  SU_T137U30  -1
    X_T137U1  COST  24.4027  DEM_T137  1
    X_T137U1  SU_T137U1  1  SU_T138U1  -1
    X_T137U2  COST  31.6593  DEM_T137  1
    X_T137U2  SU_T137U2  1  SU_T138U2  -1
    X_T137U3  COST  12.7375  DEM_T137  1
    X_T137U3  SU_T137U3  1  SU_T138U3  -1
    X_T137U4  COST  34.1711  DEM_T137  1
    X_T137U4  SU_T137U4  1  SU_T138U4  -1
    X_T137U5  COST  39.6009  DEM_T137  1
    X_T137U5  SU_T137U5  1  SU_T138U5  -1
    X_T137U6  COST  29.526  DEM_T137  1
    X_T137U6  SU_T137U6  1  SU_T138U6  -1
    X_T137U7  COST  17.2094  DEM_T137  1
    X_T137U7  SU_T137U7  1  SU_T138U7  -1
    X_T137U8  COST  37.2918  DEM_T137  1
    X_T137U8  SU_T137U8  1  SU_T138U8  -1
    X_T137U9  COST  15.9409  DEM_T137  1
    X_T137U9  SU_T137U9  1  SU_T138U9  -1
    X_T137U10  COST  11.692  DEM_T137  1
    X_T137U10  SU_T137U10  1  SU_T138U10  -1
    X_T137U11  COST  18.8414  DEM_T137  1
    X_T137U11  SU_T137U11  1  SU_T138U11  -1
    X_T137U12  COST  16.7145  DEM_T137  1
    X_T137U12  SU_T137U12  1  SU_T138U12  -1
    X_T137U13  COST  39.7296  DEM_T137  1
    X_T137U13  SU_T137U13  1  SU_T138U13  -1
    X_T137U14  COST  16.1414  DEM_T137  1
    X_T137U14  SU_T137U14  1  SU_T138U14  -1
    X_T137U15  COST  19.9092  DEM_T137  1
    X_T137U15  SU_T137U15  1  SU_T138U15  -1
    X_T137U16  COST  14.0555  DEM_T137  1
    X_T137U16  SU_T137U16  1  SU_T138U16  -1
    X_T137U17  COST  13.6075  DEM_T137  1
    X_T137U17  SU_T137U17  1  SU_T138U17  -1
    X_T137U18  COST  20.5221  DEM_T137  1
    X_T137U18  SU_T137U18  1  SU_T138U18  -1
    X_T137U19  COST  27.472  DEM_T137  1
    X_T137U19  SU_T137U19  1  SU_T138U19  -1
    X_T137U20  COST  27.0104  DEM_T137  1
    X_T137U20  SU_T137U20  1  SU_T138U20  -1
    X_T137U21  COST  10.0853  DEM_T137  1
    X_T137U21  SU_T137U21  1  SU_T138U21  -1
    X_T137U22  COST  13.3276  DEM_T137  1
    X_T137U22  SU_T137U22  1  SU_T138U22  -1
    X_T137U23  COST  33.1312  DEM_T137  1
    X_T137U23  SU_T137U23  1  SU_T138U23  -1
    X_T137U24  COST  38.4053  DEM_T137  1
    X_T137U24  SU_T137U24  1  SU_T138U24  -1
    X_T137U25  COST  36.2482  DEM_T137  1
    X_T137U25  SU_T137U25  1  SU_T138U25  -1
    X_T137U26  COST  39.4296  DEM_T137  1
    X_T137U26  SU_T137U26  1  SU_T138U26  -1
    X_T137U27  COST  36.9437  DEM_T137  1
    X_T137U27  SU_T137U27  1  SU_T138U27  -1
    X_T137U28  COST  21.0099  DEM_T137  1
    X_T137U28  SU_T137U28  1  SU_T138U28  -1
    X_T137U29  COST  30.6594  DEM_T137  1
    X_T137U29  SU_T137U29  1  SU_T138U29  -1
    X_T137U30  COST  31.7981  DEM_T137  1
    X_T137U30  SU_T137U30  1  SU_T138U30  -1
    X_T138U1  COST  34.1291  DEM_T138  1
    X_T138U1  SU_T138U1  1  SU_T139U1  -1
    X_T138U2  COST  17.4761  DEM_T138  1
    X_T138U2  SU_T138U2  1  SU_T139U2  -1
    X_T138U3  COST  15.0478  DEM_T138  1
    X_T138U3  SU_T138U3  1  SU_T139U3  -1
    X_T138U4  COST  39.2635  DEM_T138  1
    X_T138U4  SU_T138U4  1  SU_T139U4  -1
    X_T138U5  COST  22.7016  DEM_T138  1
    X_T138U5  SU_T138U5  1  SU_T139U5  -1
    X_T138U6  COST  19.3983  DEM_T138  1
    X_T138U6  SU_T138U6  1  SU_T139U6  -1
    X_T138U7  COST  19.7275  DEM_T138  1
    X_T138U7  SU_T138U7  1  SU_T139U7  -1
    X_T138U8  COST  23.2829  DEM_T138  1
    X_T138U8  SU_T138U8  1  SU_T139U8  -1
    X_T138U9  COST  37.277  DEM_T138  1
    X_T138U9  SU_T138U9  1  SU_T139U9  -1
    X_T138U10  COST  11.4746  DEM_T138  1
    X_T138U10  SU_T138U10  1  SU_T139U10  -1
    X_T138U11  COST  19.8421  DEM_T138  1
    X_T138U11  SU_T138U11  1  SU_T139U11  -1
    X_T138U12  COST  31.9124  DEM_T138  1
    X_T138U12  SU_T138U12  1  SU_T139U12  -1
    X_T138U13  COST  30.5299  DEM_T138  1
    X_T138U13  SU_T138U13  1  SU_T139U13  -1
    X_T138U14  COST  30.0342  DEM_T138  1
    X_T138U14  SU_T138U14  1  SU_T139U14  -1
    X_T138U15  COST  21.7226  DEM_T138  1
    X_T138U15  SU_T138U15  1  SU_T139U15  -1
    X_T138U16  COST  34.0902  DEM_T138  1
    X_T138U16  SU_T138U16  1  SU_T139U16  -1
    X_T138U17  COST  16.1272  DEM_T138  1
    X_T138U17  SU_T138U17  1  SU_T139U17  -1
    X_T138U18  COST  39.8827  DEM_T138  1
    X_T138U18  SU_T138U18  1  SU_T139U18  -1
    X_T138U19  COST  15.4199  DEM_T138  1
    X_T138U19  SU_T138U19  1  SU_T139U19  -1
    X_T138U20  COST  19.8296  DEM_T138  1
    X_T138U20  SU_T138U20  1  SU_T139U20  -1
    X_T138U21  COST  24.9306  DEM_T138  1
    X_T138U21  SU_T138U21  1  SU_T139U21  -1
    X_T138U22  COST  37.0452  DEM_T138  1
    X_T138U22  SU_T138U22  1  SU_T139U22  -1
    X_T138U23  COST  19.5964  DEM_T138  1
    X_T138U23  SU_T138U23  1  SU_T139U23  -1
    X_T138U24  COST  28.1441  DEM_T138  1
    X_T138U24  SU_T138U24  1  SU_T139U24  -1
    X_T138U25  COST  34.47  DEM_T138  1
    X_T138U25  SU_T138U25  1  SU_T139U25  -1
    X_T138U26  COST  34.4646  DEM_T138  1
    X_T138U26  SU_T138U26  1  SU_T139U26  -1
    X_T138U27  COST  14.0128  DEM_T138  1
    X_T138U27  SU_T138U27  1  SU_T139U27  -1
    X_T138U28  COST  29.4769  DEM_T138  1
    X_T138U28  SU_T138U28  1  SU_T139U28  -1
    X_T138U29  COST  11.0095  DEM_T138  1
    X_T138U29  SU_T138U29  1  SU_T139U29  -1
    X_T138U30  COST  28.2639  DEM_T138  1
    X_T138U30  SU_T138U30  1  SU_T139U30  -1
    X_T139U1  COST  16.7729  DEM_T139  1
    X_T139U1  SU_T139U1  1  SU_T140U1  -1
    X_T139U2  COST  31.6879  DEM_T139  1
    X_T139U2  SU_T139U2  1  SU_T140U2  -1
    X_T139U3  COST  33.9054  DEM_T139  1
    X_T139U3  SU_T139U3  1  SU_T140U3  -1
    X_T139U4  COST  37.099  DEM_T139  1
    X_T139U4  SU_T139U4  1  SU_T140U4  -1
    X_T139U5  COST  36.9259  DEM_T139  1
    X_T139U5  SU_T139U5  1  SU_T140U5  -1
    X_T139U6  COST  23.1086  DEM_T139  1
    X_T139U6  SU_T139U6  1  SU_T140U6  -1
    X_T139U7  COST  12.7989  DEM_T139  1
    X_T139U7  SU_T139U7  1  SU_T140U7  -1
    X_T139U8  COST  35.0915  DEM_T139  1
    X_T139U8  SU_T139U8  1  SU_T140U8  -1
    X_T139U9  COST  38.684  DEM_T139  1
    X_T139U9  SU_T139U9  1  SU_T140U9  -1
    X_T139U10  COST  16.2331  DEM_T139  1
    X_T139U10  SU_T139U10  1  SU_T140U10  -1
    X_T139U11  COST  24.3825  DEM_T139  1
    X_T139U11  SU_T139U11  1  SU_T140U11  -1
    X_T139U12  COST  17.2079  DEM_T139  1
    X_T139U12  SU_T139U12  1  SU_T140U12  -1
    X_T139U13  COST  27.5862  DEM_T139  1
    X_T139U13  SU_T139U13  1  SU_T140U13  -1
    X_T139U14  COST  39.7946  DEM_T139  1
    X_T139U14  SU_T139U14  1  SU_T140U14  -1
    X_T139U15  COST  33.809  DEM_T139  1
    X_T139U15  SU_T139U15  1  SU_T140U15  -1
    X_T139U16  COST  39.5777  DEM_T139  1
    X_T139U16  SU_T139U16  1  SU_T140U16  -1
    X_T139U17  COST  35.8076  DEM_T139  1
    X_T139U17  SU_T139U17  1  SU_T140U17  -1
    X_T139U18  COST  37.8958  DEM_T139  1
    X_T139U18  SU_T139U18  1  SU_T140U18  -1
    X_T139U19  COST  12.3599  DEM_T139  1
    X_T139U19  SU_T139U19  1  SU_T140U19  -1
    X_T139U20  COST  11.7767  DEM_T139  1
    X_T139U20  SU_T139U20  1  SU_T140U20  -1
    X_T139U21  COST  15.5395  DEM_T139  1
    X_T139U21  SU_T139U21  1  SU_T140U21  -1
    X_T139U22  COST  26.3062  DEM_T139  1
    X_T139U22  SU_T139U22  1  SU_T140U22  -1
    X_T139U23  COST  16.3278  DEM_T139  1
    X_T139U23  SU_T139U23  1  SU_T140U23  -1
    X_T139U24  COST  31.1278  DEM_T139  1
    X_T139U24  SU_T139U24  1  SU_T140U24  -1
    X_T139U25  COST  37.1085  DEM_T139  1
    X_T139U25  SU_T139U25  1  SU_T140U25  -1
    X_T139U26  COST  15.3136  DEM_T139  1
    X_T139U26  SU_T139U26  1  SU_T140U26  -1
    X_T139U27  COST  13.8014  DEM_T139  1
    X_T139U27  SU_T139U27  1  SU_T140U27  -1
    X_T139U28  COST  21.952  DEM_T139  1
    X_T139U28  SU_T139U28  1  SU_T140U28  -1
    X_T139U29  COST  15.0997  DEM_T139  1
    X_T139U29  SU_T139U29  1  SU_T140U29  -1
    X_T139U30  COST  28.2388  DEM_T139  1
    X_T139U30  SU_T139U30  1  SU_T140U30  -1
    X_T140U1  COST  14.9087  DEM_T140  1
    X_T140U1  SU_T140U1  1  SU_T141U1  -1
    X_T140U2  COST  10.8003  DEM_T140  1
    X_T140U2  SU_T140U2  1  SU_T141U2  -1
    X_T140U3  COST  36.3943  DEM_T140  1
    X_T140U3  SU_T140U3  1  SU_T141U3  -1
    X_T140U4  COST  31.9366  DEM_T140  1
    X_T140U4  SU_T140U4  1  SU_T141U4  -1
    X_T140U5  COST  12.9417  DEM_T140  1
    X_T140U5  SU_T140U5  1  SU_T141U5  -1
    X_T140U6  COST  38.8691  DEM_T140  1
    X_T140U6  SU_T140U6  1  SU_T141U6  -1
    X_T140U7  COST  24.6911  DEM_T140  1
    X_T140U7  SU_T140U7  1  SU_T141U7  -1
    X_T140U8  COST  35.0013  DEM_T140  1
    X_T140U8  SU_T140U8  1  SU_T141U8  -1
    X_T140U9  COST  36.7646  DEM_T140  1
    X_T140U9  SU_T140U9  1  SU_T141U9  -1
    X_T140U10  COST  25.8342  DEM_T140  1
    X_T140U10  SU_T140U10  1  SU_T141U10  -1
    X_T140U11  COST  35.2991  DEM_T140  1
    X_T140U11  SU_T140U11  1  SU_T141U11  -1
    X_T140U12  COST  10.3104  DEM_T140  1
    X_T140U12  SU_T140U12  1  SU_T141U12  -1
    X_T140U13  COST  31.1174  DEM_T140  1
    X_T140U13  SU_T140U13  1  SU_T141U13  -1
    X_T140U14  COST  39.0359  DEM_T140  1
    X_T140U14  SU_T140U14  1  SU_T141U14  -1
    X_T140U15  COST  23.465  DEM_T140  1
    X_T140U15  SU_T140U15  1  SU_T141U15  -1
    X_T140U16  COST  24.2818  DEM_T140  1
    X_T140U16  SU_T140U16  1  SU_T141U16  -1
    X_T140U17  COST  28.2313  DEM_T140  1
    X_T140U17  SU_T140U17  1  SU_T141U17  -1
    X_T140U18  COST  24.0646  DEM_T140  1
    X_T140U18  SU_T140U18  1  SU_T141U18  -1
    X_T140U19  COST  18.3204  DEM_T140  1
    X_T140U19  SU_T140U19  1  SU_T141U19  -1
    X_T140U20  COST  14.8181  DEM_T140  1
    X_T140U20  SU_T140U20  1  SU_T141U20  -1
    X_T140U21  COST  19.7194  DEM_T140  1
    X_T140U21  SU_T140U21  1  SU_T141U21  -1
    X_T140U22  COST  12.0005  DEM_T140  1
    X_T140U22  SU_T140U22  1  SU_T141U22  -1
    X_T140U23  COST  26.8714  DEM_T140  1
    X_T140U23  SU_T140U23  1  SU_T141U23  -1
    X_T140U24  COST  31.0928  DEM_T140  1
    X_T140U24  SU_T140U24  1  SU_T141U24  -1
    X_T140U25  COST  24.1111  DEM_T140  1
    X_T140U25  SU_T140U25  1  SU_T141U25  -1
    X_T140U26  COST  33.0012  DEM_T140  1
    X_T140U26  SU_T140U26  1  SU_T141U26  -1
    X_T140U27  COST  32.3876  DEM_T140  1
    X_T140U27  SU_T140U27  1  SU_T141U27  -1
    X_T140U28  COST  11.9361  DEM_T140  1
    X_T140U28  SU_T140U28  1  SU_T141U28  -1
    X_T140U29  COST  20.7344  DEM_T140  1
    X_T140U29  SU_T140U29  1  SU_T141U29  -1
    X_T140U30  COST  34.2163  DEM_T140  1
    X_T140U30  SU_T140U30  1  SU_T141U30  -1
    X_T141U1  COST  19.51  DEM_T141  1
    X_T141U1  SU_T141U1  1  SU_T142U1  -1
    X_T141U2  COST  35.3886  DEM_T141  1
    X_T141U2  SU_T141U2  1  SU_T142U2  -1
    X_T141U3  COST  34.975  DEM_T141  1
    X_T141U3  SU_T141U3  1  SU_T142U3  -1
    X_T141U4  COST  22.7179  DEM_T141  1
    X_T141U4  SU_T141U4  1  SU_T142U4  -1
    X_T141U5  COST  10.0475  DEM_T141  1
    X_T141U5  SU_T141U5  1  SU_T142U5  -1
    X_T141U6  COST  20.3223  DEM_T141  1
    X_T141U6  SU_T141U6  1  SU_T142U6  -1
    X_T141U7  COST  33.1723  DEM_T141  1
    X_T141U7  SU_T141U7  1  SU_T142U7  -1
    X_T141U8  COST  38.6573  DEM_T141  1
    X_T141U8  SU_T141U8  1  SU_T142U8  -1
    X_T141U9  COST  19.5456  DEM_T141  1
    X_T141U9  SU_T141U9  1  SU_T142U9  -1
    X_T141U10  COST  32.3768  DEM_T141  1
    X_T141U10  SU_T141U10  1  SU_T142U10  -1
    X_T141U11  COST  24.1952  DEM_T141  1
    X_T141U11  SU_T141U11  1  SU_T142U11  -1
    X_T141U12  COST  37.2362  DEM_T141  1
    X_T141U12  SU_T141U12  1  SU_T142U12  -1
    X_T141U13  COST  33.4995  DEM_T141  1
    X_T141U13  SU_T141U13  1  SU_T142U13  -1
    X_T141U14  COST  30.9392  DEM_T141  1
    X_T141U14  SU_T141U14  1  SU_T142U14  -1
    X_T141U15  COST  36.1452  DEM_T141  1
    X_T141U15  SU_T141U15  1  SU_T142U15  -1
    X_T141U16  COST  31.3826  DEM_T141  1
    X_T141U16  SU_T141U16  1  SU_T142U16  -1
    X_T141U17  COST  17.9874  DEM_T141  1
    X_T141U17  SU_T141U17  1  SU_T142U17  -1
    X_T141U18  COST  22.5982  DEM_T141  1
    X_T141U18  SU_T141U18  1  SU_T142U18  -1
    X_T141U19  COST  20.0144  DEM_T141  1
    X_T141U19  SU_T141U19  1  SU_T142U19  -1
    X_T141U20  COST  30.0777  DEM_T141  1
    X_T141U20  SU_T141U20  1  SU_T142U20  -1
    X_T141U21  COST  32.4195  DEM_T141  1
    X_T141U21  SU_T141U21  1  SU_T142U21  -1
    X_T141U22  COST  26.2878  DEM_T141  1
    X_T141U22  SU_T141U22  1  SU_T142U22  -1
    X_T141U23  COST  27.6307  DEM_T141  1
    X_T141U23  SU_T141U23  1  SU_T142U23  -1
    X_T141U24  COST  39.5487  DEM_T141  1
    X_T141U24  SU_T141U24  1  SU_T142U24  -1
    X_T141U25  COST  17.2588  DEM_T141  1
    X_T141U25  SU_T141U25  1  SU_T142U25  -1
    X_T141U26  COST  36.8942  DEM_T141  1
    X_T141U26  SU_T141U26  1  SU_T142U26  -1
    X_T141U27  COST  31.9205  DEM_T141  1
    X_T141U27  SU_T141U27  1  SU_T142U27  -1
    X_T141U28  COST  37.3562  DEM_T141  1
    X_T141U28  SU_T141U28  1  SU_T142U28  -1
    X_T141U29  COST  15.9347  DEM_T141  1
    X_T141U29  SU_T141U29  1  SU_T142U29  -1
    X_T141U30  COST  16.1133  DEM_T141  1
    X_T141U30  SU_T141U30  1  SU_T142U30  -1
    X_T142U1  COST  30.5681  DEM_T142  1
    X_T142U1  SU_T142U1  1  SU_T143U1  -1
    X_T142U2  COST  25.9806  DEM_T142  1
    X_T142U2  SU_T142U2  1  SU_T143U2  -1
    X_T142U3  COST  38.5996  DEM_T142  1
    X_T142U3  SU_T142U3  1  SU_T143U3  -1
    X_T142U4  COST  19.2654  DEM_T142  1
    X_T142U4  SU_T142U4  1  SU_T143U4  -1
    X_T142U5  COST  38.9216  DEM_T142  1
    X_T142U5  SU_T142U5  1  SU_T143U5  -1
    X_T142U6  COST  10.6765  DEM_T142  1
    X_T142U6  SU_T142U6  1  SU_T143U6  -1
    X_T142U7  COST  11.5722  DEM_T142  1
    X_T142U7  SU_T142U7  1  SU_T143U7  -1
    X_T142U8  COST  31.6377  DEM_T142  1
    X_T142U8  SU_T142U8  1  SU_T143U8  -1
    X_T142U9  COST  25.6772  DEM_T142  1
    X_T142U9  SU_T142U9  1  SU_T143U9  -1
    X_T142U10  COST  14.6694  DEM_T142  1
    X_T142U10  SU_T142U10  1  SU_T143U10  -1
    X_T142U11  COST  24.7001  DEM_T142  1
    X_T142U11  SU_T142U11  1  SU_T143U11  -1
    X_T142U12  COST  22.5854  DEM_T142  1
    X_T142U12  SU_T142U12  1  SU_T143U12  -1
    X_T142U13  COST  11.0675  DEM_T142  1
    X_T142U13  SU_T142U13  1  SU_T143U13  -1
    X_T142U14  COST  32.9211  DEM_T142  1
    X_T142U14  SU_T142U14  1  SU_T143U14  -1
    X_T142U15  COST  38.0276  DEM_T142  1
    X_T142U15  SU_T142U15  1  SU_T143U15  -1
    X_T142U16  COST  33.9771  DEM_T142  1
    X_T142U16  SU_T142U16  1  SU_T143U16  -1
    X_T142U17  COST  38.2341  DEM_T142  1
    X_T142U17  SU_T142U17  1  SU_T143U17  -1
    X_T142U18  COST  18.6265  DEM_T142  1
    X_T142U18  SU_T142U18  1  SU_T143U18  -1
    X_T142U19  COST  22.7964  DEM_T142  1
    X_T142U19  SU_T142U19  1  SU_T143U19  -1
    X_T142U20  COST  10.6682  DEM_T142  1
    X_T142U20  SU_T142U20  1  SU_T143U20  -1
    X_T142U21  COST  26.6239  DEM_T142  1
    X_T142U21  SU_T142U21  1  SU_T143U21  -1
    X_T142U22  COST  37.8097  DEM_T142  1
    X_T142U22  SU_T142U22  1  SU_T143U22  -1
    X_T142U23  COST  30.7256  DEM_T142  1
    X_T142U23  SU_T142U23  1  SU_T143U23  -1
    X_T142U24  COST  13.4905  DEM_T142  1
    X_T142U24  SU_T142U24  1  SU_T143U24  -1
    X_T142U25  COST  39.0462  DEM_T142  1
    X_T142U25  SU_T142U25  1  SU_T143U25  -1
    X_T142U26  COST  36.5223  DEM_T142  1
    X_T142U26  SU_T142U26  1  SU_T143U26  -1
    X_T142U27  COST  35.7158  DEM_T142  1
    X_T142U27  SU_T142U27  1  SU_T143U27  -1
    X_T142U28  COST  14.4555  DEM_T142  1
    X_T142U28  SU_T142U28  1  SU_T143U28  -1
    X_T142U29  COST  24.5018  DEM_T142  1
    X_T142U29  SU_T142U29  1  SU_T143U29  -1
    X_T142U30  COST  20.6943  DEM_T142  1
    X_T142U30  SU_T142U30  1  SU_T143U30  -1
    X_T143U1  COST  24.674  DEM_T143  1
    X_T143U1  SU_T143U1  1  SU_T144U1  -1
    X_T143U2  COST  29.8408  DEM_T143  1
    X_T143U2  SU_T143U2  1  SU_T144U2  -1
    X_T143U3  COST  24.6274  DEM_T143  1
    X_T143U3  SU_T143U3  1  SU_T144U3  -1
    X_T143U4  COST  25.8969  DEM_T143  1
    X_T143U4  SU_T143U4  1  SU_T144U4  -1
    X_T143U5  COST  28.6574  DEM_T143  1
    X_T143U5  SU_T143U5  1  SU_T144U5  -1
    X_T143U6  COST  12.8472  DEM_T143  1
    X_T143U6  SU_T143U6  1  SU_T144U6  -1
    X_T143U7  COST  22.1982  DEM_T143  1
    X_T143U7  SU_T143U7  1  SU_T144U7  -1
    X_T143U8  COST  14.5652  DEM_T143  1
    X_T143U8  SU_T143U8  1  SU_T144U8  -1
    X_T143U9  COST  18.5608  DEM_T143  1
    X_T143U9  SU_T143U9  1  SU_T144U9  -1
    X_T143U10  COST  32.0233  DEM_T143  1
    X_T143U10  SU_T143U10  1  SU_T144U10  -1
    X_T143U11  COST  34.5087  DEM_T143  1
    X_T143U11  SU_T143U11  1  SU_T144U11  -1
    X_T143U12  COST  35.78  DEM_T143  1
    X_T143U12  SU_T143U12  1  SU_T144U12  -1
    X_T143U13  COST  20.0599  DEM_T143  1
    X_T143U13  SU_T143U13  1  SU_T144U13  -1
    X_T143U14  COST  34.0769  DEM_T143  1
    X_T143U14  SU_T143U14  1  SU_T144U14  -1
    X_T143U15  COST  13.4655  DEM_T143  1
    X_T143U15  SU_T143U15  1  SU_T144U15  -1
    X_T143U16  COST  38.7888  DEM_T143  1
    X_T143U16  SU_T143U16  1  SU_T144U16  -1
    X_T143U17  COST  11.9768  DEM_T143  1
    X_T143U17  SU_T143U17  1  SU_T144U17  -1
    X_T143U18  COST  39.7849  DEM_T143  1
    X_T143U18  SU_T143U18  1  SU_T144U18  -1
    X_T143U19  COST  20.6987  DEM_T143  1
    X_T143U19  SU_T143U19  1  SU_T144U19  -1
    X_T143U20  COST  17.7098  DEM_T143  1
    X_T143U20  SU_T143U20  1  SU_T144U20  -1
    X_T143U21  COST  22.5816  DEM_T143  1
    X_T143U21  SU_T143U21  1  SU_T144U21  -1
    X_T143U22  COST  30.5153  DEM_T143  1
    X_T143U22  SU_T143U22  1  SU_T144U22  -1
    X_T143U23  COST  18.7822  DEM_T143  1
    X_T143U23  SU_T143U23  1  SU_T144U23  -1
    X_T143U24  COST  24.6347  DEM_T143  1
    X_T143U24  SU_T143U24  1  SU_T144U24  -1
    X_T143U25  COST  16.0625  DEM_T143  1
    X_T143U25  SU_T143U25  1  SU_T144U25  -1
    X_T143U26  COST  23.3196  DEM_T143  1
    X_T143U26  SU_T143U26  1  SU_T144U26  -1
    X_T143U27  COST  15.9595  DEM_T143  1
    X_T143U27  SU_T143U27  1  SU_T144U27  -1
    X_T143U28  COST  39.9795  DEM_T143  1
    X_T143U28  SU_T143U28  1  SU_T144U28  -1
    X_T143U29  COST  19.8641  DEM_T143  1
    X_T143U29  SU_T143U29  1  SU_T144U29  -1
    X_T143U30  COST  18.8188  DEM_T143  1
    X_T143U30  SU_T143U30  1  SU_T144U30  -1
    X_T144U1  COST  14.7591  DEM_T144  1
    X_T144U1  SU_T144U1  1  SU_T145U1  -1
    X_T144U2  COST  13.1775  DEM_T144  1
    X_T144U2  SU_T144U2  1  SU_T145U2  -1
    X_T144U3  COST  34.1393  DEM_T144  1
    X_T144U3  SU_T144U3  1  SU_T145U3  -1
    X_T144U4  COST  33.2793  DEM_T144  1
    X_T144U4  SU_T144U4  1  SU_T145U4  -1
    X_T144U5  COST  26.1376  DEM_T144  1
    X_T144U5  SU_T144U5  1  SU_T145U5  -1
    X_T144U6  COST  14.351  DEM_T144  1
    X_T144U6  SU_T144U6  1  SU_T145U6  -1
    X_T144U7  COST  28.0416  DEM_T144  1
    X_T144U7  SU_T144U7  1  SU_T145U7  -1
    X_T144U8  COST  10.2601  DEM_T144  1
    X_T144U8  SU_T144U8  1  SU_T145U8  -1
    X_T144U9  COST  11.9887  DEM_T144  1
    X_T144U9  SU_T144U9  1  SU_T145U9  -1
    X_T144U10  COST  22.0813  DEM_T144  1
    X_T144U10  SU_T144U10  1  SU_T145U10  -1
    X_T144U11  COST  24.9127  DEM_T144  1
    X_T144U11  SU_T144U11  1  SU_T145U11  -1
    X_T144U12  COST  34.6981  DEM_T144  1
    X_T144U12  SU_T144U12  1  SU_T145U12  -1
    X_T144U13  COST  24.6316  DEM_T144  1
    X_T144U13  SU_T144U13  1  SU_T145U13  -1
    X_T144U14  COST  12.3856  DEM_T144  1
    X_T144U14  SU_T144U14  1  SU_T145U14  -1
    X_T144U15  COST  14.6445  DEM_T144  1
    X_T144U15  SU_T144U15  1  SU_T145U15  -1
    X_T144U16  COST  19.8792  DEM_T144  1
    X_T144U16  SU_T144U16  1  SU_T145U16  -1
    X_T144U17  COST  27.1491  DEM_T144  1
    X_T144U17  SU_T144U17  1  SU_T145U17  -1
    X_T144U18  COST  21.8345  DEM_T144  1
    X_T144U18  SU_T144U18  1  SU_T145U18  -1
    X_T144U19  COST  32.7708  DEM_T144  1
    X_T144U19  SU_T144U19  1  SU_T145U19  -1
    X_T144U20  COST  29.3208  DEM_T144  1
    X_T144U20  SU_T144U20  1  SU_T145U20  -1
    X_T144U21  COST  35.3356  DEM_T144  1
    X_T144U21  SU_T144U21  1  SU_T145U21  -1
    X_T144U22  COST  39.582  DEM_T144  1
    X_T144U22  SU_T144U22  1  SU_T145U22  -1
    X_T144U23  COST  35.0233  DEM_T144  1
    X_T144U23  SU_T144U23  1  SU_T145U23  -1
    X_T144U24  COST  20.3638  DEM_T144  1
    X_T144U24  SU_T144U24  1  SU_T145U24  -1
    X_T144U25  COST  22.9148  DEM_T144  1
    X_T144U25  SU_T144U25  1  SU_T145U25  -1
    X_T144U26  COST  17.2025  DEM_T144  1
    X_T144U26  SU_T144U26  1  SU_T145U26  -1
    X_T144U27  COST  26.2764  DEM_T144  1
    X_T144U27  SU_T144U27  1  SU_T145U27  -1
    X_T144U28  COST  34.3005  DEM_T144  1
    X_T144U28  SU_T144U28  1  SU_T145U28  -1
    X_T144U29  COST  38.4112  DEM_T144  1
    X_T144U29  SU_T144U29  1  SU_T145U29  -1
    X_T144U30  COST  36.6132  DEM_T144  1
    X_T144U30  SU_T144U30  1  SU_T145U30  -1
    X_T145U1  COST  21.3593  DEM_T145  1
    X_T145U1  SU_T145U1  1  SU_T146U1  -1
    X_T145U2  COST  26.3988  DEM_T145  1
    X_T145U2  SU_T145U2  1  SU_T146U2  -1
    X_T145U3  COST  24.892  DEM_T145  1
    X_T145U3  SU_T145U3  1  SU_T146U3  -1
    X_T145U4  COST  37.8162  DEM_T145  1
    X_T145U4  SU_T145U4  1  SU_T146U4  -1
    X_T145U5  COST  22.2322  DEM_T145  1
    X_T145U5  SU_T145U5  1  SU_T146U5  -1
    X_T145U6  COST  33.039  DEM_T145  1
    X_T145U6  SU_T145U6  1  SU_T146U6  -1
    X_T145U7  COST  24.9865  DEM_T145  1
    X_T145U7  SU_T145U7  1  SU_T146U7  -1
    X_T145U8  COST  23.223  DEM_T145  1
    X_T145U8  SU_T145U8  1  SU_T146U8  -1
    X_T145U9  COST  36.9098  DEM_T145  1
    X_T145U9  SU_T145U9  1  SU_T146U9  -1
    X_T145U10  COST  38.5997  DEM_T145  1
    X_T145U10  SU_T145U10  1  SU_T146U10  -1
    X_T145U11  COST  39.2134  DEM_T145  1
    X_T145U11  SU_T145U11  1  SU_T146U11  -1
    X_T145U12  COST  36.9645  DEM_T145  1
    X_T145U12  SU_T145U12  1  SU_T146U12  -1
    X_T145U13  COST  38.8306  DEM_T145  1
    X_T145U13  SU_T145U13  1  SU_T146U13  -1
    X_T145U14  COST  15.151  DEM_T145  1
    X_T145U14  SU_T145U14  1  SU_T146U14  -1
    X_T145U15  COST  10.7642  DEM_T145  1
    X_T145U15  SU_T145U15  1  SU_T146U15  -1
    X_T145U16  COST  16.6324  DEM_T145  1
    X_T145U16  SU_T145U16  1  SU_T146U16  -1
    X_T145U17  COST  26.3771  DEM_T145  1
    X_T145U17  SU_T145U17  1  SU_T146U17  -1
    X_T145U18  COST  15.111  DEM_T145  1
    X_T145U18  SU_T145U18  1  SU_T146U18  -1
    X_T145U19  COST  27.8182  DEM_T145  1
    X_T145U19  SU_T145U19  1  SU_T146U19  -1
    X_T145U20  COST  21.9652  DEM_T145  1
    X_T145U20  SU_T145U20  1  SU_T146U20  -1
    X_T145U21  COST  39.967  DEM_T145  1
    X_T145U21  SU_T145U21  1  SU_T146U21  -1
    X_T145U22  COST  36.4502  DEM_T145  1
    X_T145U22  SU_T145U22  1  SU_T146U22  -1
    X_T145U23  COST  30.5972  DEM_T145  1
    X_T145U23  SU_T145U23  1  SU_T146U23  -1
    X_T145U24  COST  29.4558  DEM_T145  1
    X_T145U24  SU_T145U24  1  SU_T146U24  -1
    X_T145U25  COST  28.1861  DEM_T145  1
    X_T145U25  SU_T145U25  1  SU_T146U25  -1
    X_T145U26  COST  10.7344  DEM_T145  1
    X_T145U26  SU_T145U26  1  SU_T146U26  -1
    X_T145U27  COST  10.3569  DEM_T145  1
    X_T145U27  SU_T145U27  1  SU_T146U27  -1
    X_T145U28  COST  10.1777  DEM_T145  1
    X_T145U28  SU_T145U28  1  SU_T146U28  -1
    X_T145U29  COST  11.8948  DEM_T145  1
    X_T145U29  SU_T145U29  1  SU_T146U29  -1
    X_T145U30  COST  22.4704  DEM_T145  1
    X_T145U30  SU_T145U30  1  SU_T146U30  -1
    X_T146U1  COST  20.4955  DEM_T146  1
    X_T146U1  SU_T146U1  1  SU_T147U1  -1
    X_T146U2  COST  33.5322  DEM_T146  1
    X_T146U2  SU_T146U2  1  SU_T147U2  -1
    X_T146U3  COST  32.4462  DEM_T146  1
    X_T146U3  SU_T146U3  1  SU_T147U3  -1
    X_T146U4  COST  35.9064  DEM_T146  1
    X_T146U4  SU_T146U4  1  SU_T147U4  -1
    X_T146U5  COST  16.4391  DEM_T146  1
    X_T146U5  SU_T146U5  1  SU_T147U5  -1
    X_T146U6  COST  25.1825  DEM_T146  1
    X_T146U6  SU_T146U6  1  SU_T147U6  -1
    X_T146U7  COST  34.9879  DEM_T146  1
    X_T146U7  SU_T146U7  1  SU_T147U7  -1
    X_T146U8  COST  35.3968  DEM_T146  1
    X_T146U8  SU_T146U8  1  SU_T147U8  -1
    X_T146U9  COST  10.9486  DEM_T146  1
    X_T146U9  SU_T146U9  1  SU_T147U9  -1
    X_T146U10  COST  37.02  DEM_T146  1
    X_T146U10  SU_T146U10  1  SU_T147U10  -1
    X_T146U11  COST  30.4818  DEM_T146  1
    X_T146U11  SU_T146U11  1  SU_T147U11  -1
    X_T146U12  COST  31.8001  DEM_T146  1
    X_T146U12  SU_T146U12  1  SU_T147U12  -1
    X_T146U13  COST  34.9657  DEM_T146  1
    X_T146U13  SU_T146U13  1  SU_T147U13  -1
    X_T146U14  COST  29.9715  DEM_T146  1
    X_T146U14  SU_T146U14  1  SU_T147U14  -1
    X_T146U15  COST  29.7196  DEM_T146  1
    X_T146U15  SU_T146U15  1  SU_T147U15  -1
    X_T146U16  COST  14.5889  DEM_T146  1
    X_T146U16  SU_T146U16  1  SU_T147U16  -1
    X_T146U17  COST  25.3074  DEM_T146  1
    X_T146U17  SU_T146U17  1  SU_T147U17  -1
    X_T146U18  COST  18.4504  DEM_T146  1
    X_T146U18  SU_T146U18  1  SU_T147U18  -1
    X_T146U19  COST  23.4399  DEM_T146  1
    X_T146U19  SU_T146U19  1  SU_T147U19  -1
    X_T146U20  COST  22.7835  DEM_T146  1
    X_T146U20  SU_T146U20  1  SU_T147U20  -1
    X_T146U21  COST  14.8096  DEM_T146  1
    X_T146U21  SU_T146U21  1  SU_T147U21  -1
    X_T146U22  COST  16.9976  DEM_T146  1
    X_T146U22  SU_T146U22  1  SU_T147U22  -1
    X_T146U23  COST  10.9233  DEM_T146  1
    X_T146U23  SU_T146U23  1  SU_T147U23  -1
    X_T146U24  COST  32.8198  DEM_T146  1
    X_T146U24  SU_T146U24  1  SU_T147U24  -1
    X_T146U25  COST  37.9469  DEM_T146  1
    X_T146U25  SU_T146U25  1  SU_T147U25  -1
    X_T146U26  COST  32.4377  DEM_T146  1
    X_T146U26  SU_T146U26  1  SU_T147U26  -1
    X_T146U27  COST  33.3189  DEM_T146  1
    X_T146U27  SU_T146U27  1  SU_T147U27  -1
    X_T146U28  COST  20.838  DEM_T146  1
    X_T146U28  SU_T146U28  1  SU_T147U28  -1
    X_T146U29  COST  21.5515  DEM_T146  1
    X_T146U29  SU_T146U29  1  SU_T147U29  -1
    X_T146U30  COST  22.5292  DEM_T146  1
    X_T146U30  SU_T146U30  1  SU_T147U30  -1
    X_T147U1  COST  13.4069  DEM_T147  1
    X_T147U1  SU_T147U1  1  SU_T148U1  -1
    X_T147U2  COST  17.5962  DEM_T147  1
    X_T147U2  SU_T147U2  1  SU_T148U2  -1
    X_T147U3  COST  27.7114  DEM_T147  1
    X_T147U3  SU_T147U3  1  SU_T148U3  -1
    X_T147U4  COST  10.7889  DEM_T147  1
    X_T147U4  SU_T147U4  1  SU_T148U4  -1
    X_T147U5  COST  26.142  DEM_T147  1
    X_T147U5  SU_T147U5  1  SU_T148U5  -1
    X_T147U6  COST  35.3931  DEM_T147  1
    X_T147U6  SU_T147U6  1  SU_T148U6  -1
    X_T147U7  COST  11.1116  DEM_T147  1
    X_T147U7  SU_T147U7  1  SU_T148U7  -1
    X_T147U8  COST  31.1439  DEM_T147  1
    X_T147U8  SU_T147U8  1  SU_T148U8  -1
    X_T147U9  COST  13.3319  DEM_T147  1
    X_T147U9  SU_T147U9  1  SU_T148U9  -1
    X_T147U10  COST  33.1477  DEM_T147  1
    X_T147U10  SU_T147U10  1  SU_T148U10  -1
    X_T147U11  COST  34.3594  DEM_T147  1
    X_T147U11  SU_T147U11  1  SU_T148U11  -1
    X_T147U12  COST  14.9067  DEM_T147  1
    X_T147U12  SU_T147U12  1  SU_T148U12  -1
    X_T147U13  COST  23.5682  DEM_T147  1
    X_T147U13  SU_T147U13  1  SU_T148U13  -1
    X_T147U14  COST  13.5114  DEM_T147  1
    X_T147U14  SU_T147U14  1  SU_T148U14  -1
    X_T147U15  COST  13.4076  DEM_T147  1
    X_T147U15  SU_T147U15  1  SU_T148U15  -1
    X_T147U16  COST  38.9387  DEM_T147  1
    X_T147U16  SU_T147U16  1  SU_T148U16  -1
    X_T147U17  COST  28.8267  DEM_T147  1
    X_T147U17  SU_T147U17  1  SU_T148U17  -1
    X_T147U18  COST  19.7046  DEM_T147  1
    X_T147U18  SU_T147U18  1  SU_T148U18  -1
    X_T147U19  COST  25.01  DEM_T147  1
    X_T147U19  SU_T147U19  1  SU_T148U19  -1
    X_T147U20  COST  14.7349  DEM_T147  1
    X_T147U20  SU_T147U20  1  SU_T148U20  -1
    X_T147U21  COST  24.7802  DEM_T147  1
    X_T147U21  SU_T147U21  1  SU_T148U21  -1
    X_T147U22  COST  14.4073  DEM_T147  1
    X_T147U22  SU_T147U22  1  SU_T148U22  -1
    X_T147U23  COST  32.5845  DEM_T147  1
    X_T147U23  SU_T147U23  1  SU_T148U23  -1
    X_T147U24  COST  16.5638  DEM_T147  1
    X_T147U24  SU_T147U24  1  SU_T148U24  -1
    X_T147U25  COST  14.6603  DEM_T147  1
    X_T147U25  SU_T147U25  1  SU_T148U25  -1
    X_T147U26  COST  28.1603  DEM_T147  1
    X_T147U26  SU_T147U26  1  SU_T148U26  -1
    X_T147U27  COST  11.0956  DEM_T147  1
    X_T147U27  SU_T147U27  1  SU_T148U27  -1
    X_T147U28  COST  18.8288  DEM_T147  1
    X_T147U28  SU_T147U28  1  SU_T148U28  -1
    X_T147U29  COST  32.7829  DEM_T147  1
    X_T147U29  SU_T147U29  1  SU_T148U29  -1
    X_T147U30  COST  23.788  DEM_T147  1
    X_T147U30  SU_T147U30  1  SU_T148U30  -1
    X_T148U1  COST  28.8195  DEM_T148  1
    X_T148U1  SU_T148U1  1  SU_T149U1  -1
    X_T148U2  COST  39.0406  DEM_T148  1
    X_T148U2  SU_T148U2  1  SU_T149U2  -1
    X_T148U3  COST  14.1017  DEM_T148  1
    X_T148U3  SU_T148U3  1  SU_T149U3  -1
    X_T148U4  COST  21.5626  DEM_T148  1
    X_T148U4  SU_T148U4  1  SU_T149U4  -1
    X_T148U5  COST  35.2579  DEM_T148  1
    X_T148U5  SU_T148U5  1  SU_T149U5  -1
    X_T148U6  COST  11.8467  DEM_T148  1
    X_T148U6  SU_T148U6  1  SU_T149U6  -1
    X_T148U7  COST  10.248  DEM_T148  1
    X_T148U7  SU_T148U7  1  SU_T149U7  -1
    X_T148U8  COST  29.9991  DEM_T148  1
    X_T148U8  SU_T148U8  1  SU_T149U8  -1
    X_T148U9  COST  18.7733  DEM_T148  1
    X_T148U9  SU_T148U9  1  SU_T149U9  -1
    X_T148U10  COST  33.5001  DEM_T148  1
    X_T148U10  SU_T148U10  1  SU_T149U10  -1
    X_T148U11  COST  18.9684  DEM_T148  1
    X_T148U11  SU_T148U11  1  SU_T149U11  -1
    X_T148U12  COST  10.251  DEM_T148  1
    X_T148U12  SU_T148U12  1  SU_T149U12  -1
    X_T148U13  COST  13.7851  DEM_T148  1
    X_T148U13  SU_T148U13  1  SU_T149U13  -1
    X_T148U14  COST  25.3605  DEM_T148  1
    X_T148U14  SU_T148U14  1  SU_T149U14  -1
    X_T148U15  COST  29.5784  DEM_T148  1
    X_T148U15  SU_T148U15  1  SU_T149U15  -1
    X_T148U16  COST  25.7674  DEM_T148  1
    X_T148U16  SU_T148U16  1  SU_T149U16  -1
    X_T148U17  COST  14.325  DEM_T148  1
    X_T148U17  SU_T148U17  1  SU_T149U17  -1
    X_T148U18  COST  23.223  DEM_T148  1
    X_T148U18  SU_T148U18  1  SU_T149U18  -1
    X_T148U19  COST  22.6022  DEM_T148  1
    X_T148U19  SU_T148U19  1  SU_T149U19  -1
    X_T148U20  COST  13.1429  DEM_T148  1
    X_T148U20  SU_T148U20  1  SU_T149U20  -1
    X_T148U21  COST  17.163  DEM_T148  1
    X_T148U21  SU_T148U21  1  SU_T149U21  -1
    X_T148U22  COST  33.5176  DEM_T148  1
    X_T148U22  SU_T148U22  1  SU_T149U22  -1
    X_T148U23  COST  31.7083  DEM_T148  1
    X_T148U23  SU_T148U23  1  SU_T149U23  -1
    X_T148U24  COST  16.0249  DEM_T148  1
    X_T148U24  SU_T148U24  1  SU_T149U24  -1
    X_T148U25  COST  30.7554  DEM_T148  1
    X_T148U25  SU_T148U25  1  SU_T149U25  -1
    X_T148U26  COST  31.4906  DEM_T148  1
    X_T148U26  SU_T148U26  1  SU_T149U26  -1
    X_T148U27  COST  12.953  DEM_T148  1
    X_T148U27  SU_T148U27  1  SU_T149U27  -1
    X_T148U28  COST  26.8052  DEM_T148  1
    X_T148U28  SU_T148U28  1  SU_T149U28  -1
    X_T148U29  COST  33.8031  DEM_T148  1
    X_T148U29  SU_T148U29  1  SU_T149U29  -1
    X_T148U30  COST  15.0869  DEM_T148  1
    X_T148U30  SU_T148U30  1  SU_T149U30  -1
    X_T149U1  COST  37.9968  DEM_T149  1
    X_T149U1  SU_T149U1  1  SU_T150U1  -1
    X_T149U2  COST  37.4247  DEM_T149  1
    X_T149U2  SU_T149U2  1  SU_T150U2  -1
    X_T149U3  COST  20.6863  DEM_T149  1
    X_T149U3  SU_T149U3  1  SU_T150U3  -1
    X_T149U4  COST  11.8274  DEM_T149  1
    X_T149U4  SU_T149U4  1  SU_T150U4  -1
    X_T149U5  COST  21.9798  DEM_T149  1
    X_T149U5  SU_T149U5  1  SU_T150U5  -1
    X_T149U6  COST  21.8644  DEM_T149  1
    X_T149U6  SU_T149U6  1  SU_T150U6  -1
    X_T149U7  COST  35.4637  DEM_T149  1
    X_T149U7  SU_T149U7  1  SU_T150U7  -1
    X_T149U8  COST  27.9569  DEM_T149  1
    X_T149U8  SU_T149U8  1  SU_T150U8  -1
    X_T149U9  COST  11.5565  DEM_T149  1
    X_T149U9  SU_T149U9  1  SU_T150U9  -1
    X_T149U10  COST  25.8168  DEM_T149  1
    X_T149U10  SU_T149U10  1  SU_T150U10  -1
    X_T149U11  COST  14.7438  DEM_T149  1
    X_T149U11  SU_T149U11  1  SU_T150U11  -1
    X_T149U12  COST  10.6153  DEM_T149  1
    X_T149U12  SU_T149U12  1  SU_T150U12  -1
    X_T149U13  COST  25.9446  DEM_T149  1
    X_T149U13  SU_T149U13  1  SU_T150U13  -1
    X_T149U14  COST  30.6212  DEM_T149  1
    X_T149U14  SU_T149U14  1  SU_T150U14  -1
    X_T149U15  COST  14.4324  DEM_T149  1
    X_T149U15  SU_T149U15  1  SU_T150U15  -1
    X_T149U16  COST  15.8712  DEM_T149  1
    X_T149U16  SU_T149U16  1  SU_T150U16  -1
    X_T149U17  COST  34.1504  DEM_T149  1
    X_T149U17  SU_T149U17  1  SU_T150U17  -1
    X_T149U18  COST  34.9207  DEM_T149  1
    X_T149U18  SU_T149U18  1  SU_T150U18  -1
    X_T149U19  COST  39.2404  DEM_T149  1
    X_T149U19  SU_T149U19  1  SU_T150U19  -1
    X_T149U20  COST  32.0495  DEM_T149  1
    X_T149U20  SU_T149U20  1  SU_T150U20  -1
    X_T149U21  COST  35.8631  DEM_T149  1
    X_T149U21  SU_T149U21  1  SU_T150U21  -1
    X_T149U22  COST  29.5898  DEM_T149  1
    X_T149U22  SU_T149U22  1  SU_T150U22  -1
    X_T149U23  COST  31.6447  DEM_T149  1
    X_T149U23  SU_T149U23  1  SU_T150U23  -1
    X_T149U24  COST  27.7732  DEM_T149  1
    X_T149U24  SU_T149U24  1  SU_T150U24  -1
    X_T149U25  COST  20.707  DEM_T149  1
    X_T149U25  SU_T149U25  1  SU_T150U25  -1
    X_T149U26  COST  22.6263  DEM_T149  1
    X_T149U26  SU_T149U26  1  SU_T150U26  -1
    X_T149U27  COST  13.219  DEM_T149  1
    X_T149U27  SU_T149U27  1  SU_T150U27  -1
    X_T149U28  COST  14.4266  DEM_T149  1
    X_T149U28  SU_T149U28  1  SU_T150U28  -1
    X_T149U29  COST  11.8868  DEM_T149  1
    X_T149U29  SU_T149U29  1  SU_T150U29  -1
    X_T149U30  COST  20.9937  DEM_T149  1
    X_T149U30  SU_T149U30  1  SU_T150U30  -1
    X_T150U1  COST  38.9315  DEM_T150  1
    X_T150U1  SU_T150U1  1  SU_T151U1  -1
    X_T150U2  COST  19.4316  DEM_T150  1
    X_T150U2  SU_T150U2  1  SU_T151U2  -1
    X_T150U3  COST  17.9848  DEM_T150  1
    X_T150U3  SU_T150U3  1  SU_T151U3  -1
    X_T150U4  COST  34.7613  DEM_T150  1
    X_T150U4  SU_T150U4  1  SU_T151U4  -1
    X_T150U5  COST  26.7064  DEM_T150  1
    X_T150U5  SU_T150U5  1  SU_T151U5  -1
    X_T150U6  COST  21.957  DEM_T150  1
    X_T150U6  SU_T150U6  1  SU_T151U6  -1
    X_T150U7  COST  32.8566  DEM_T150  1
    X_T150U7  SU_T150U7  1  SU_T151U7  -1
    X_T150U8  COST  36.2536  DEM_T150  1
    X_T150U8  SU_T150U8  1  SU_T151U8  -1
    X_T150U9  COST  26.8594  DEM_T150  1
    X_T150U9  SU_T150U9  1  SU_T151U9  -1
    X_T150U10  COST  20.2265  DEM_T150  1
    X_T150U10  SU_T150U10  1  SU_T151U10  -1
    X_T150U11  COST  15.761  DEM_T150  1
    X_T150U11  SU_T150U11  1  SU_T151U11  -1
    X_T150U12  COST  29.637  DEM_T150  1
    X_T150U12  SU_T150U12  1  SU_T151U12  -1
    X_T150U13  COST  33.2548  DEM_T150  1
    X_T150U13  SU_T150U13  1  SU_T151U13  -1
    X_T150U14  COST  25.948  DEM_T150  1
    X_T150U14  SU_T150U14  1  SU_T151U14  -1
    X_T150U15  COST  22.7669  DEM_T150  1
    X_T150U15  SU_T150U15  1  SU_T151U15  -1
    X_T150U16  COST  30.3526  DEM_T150  1
    X_T150U16  SU_T150U16  1  SU_T151U16  -1
    X_T150U17  COST  21.8193  DEM_T150  1
    X_T150U17  SU_T150U17  1  SU_T151U17  -1
    X_T150U18  COST  15.0469  DEM_T150  1
    X_T150U18  SU_T150U18  1  SU_T151U18  -1
    X_T150U19  COST  29.362  DEM_T150  1
    X_T150U19  SU_T150U19  1  SU_T151U19  -1
    X_T150U20  COST  21.1758  DEM_T150  1
    X_T150U20  SU_T150U20  1  SU_T151U20  -1
    X_T150U21  COST  32.7916  DEM_T150  1
    X_T150U21  SU_T150U21  1  SU_T151U21  -1
    X_T150U22  COST  23.6685  DEM_T150  1
    X_T150U22  SU_T150U22  1  SU_T151U22  -1
    X_T150U23  COST  21.2056  DEM_T150  1
    X_T150U23  SU_T150U23  1  SU_T151U23  -1
    X_T150U24  COST  35.0716  DEM_T150  1
    X_T150U24  SU_T150U24  1  SU_T151U24  -1
    X_T150U25  COST  25.3775  DEM_T150  1
    X_T150U25  SU_T150U25  1  SU_T151U25  -1
    X_T150U26  COST  29.2696  DEM_T150  1
    X_T150U26  SU_T150U26  1  SU_T151U26  -1
    X_T150U27  COST  26.7619  DEM_T150  1
    X_T150U27  SU_T150U27  1  SU_T151U27  -1
    X_T150U28  COST  12.8977  DEM_T150  1
    X_T150U28  SU_T150U28  1  SU_T151U28  -1
    X_T150U29  COST  33.7232  DEM_T150  1
    X_T150U29  SU_T150U29  1  SU_T151U29  -1
    X_T150U30  COST  26.8844  DEM_T150  1
    X_T150U30  SU_T150U30  1  SU_T151U30  -1
    X_T151U1  COST  11.2368  DEM_T151  1
    X_T151U1  SU_T151U1  1  SU_T152U1  -1
    X_T151U2  COST  30.691  DEM_T151  1
    X_T151U2  SU_T151U2  1  SU_T152U2  -1
    X_T151U3  COST  26.7756  DEM_T151  1
    X_T151U3  SU_T151U3  1  SU_T152U3  -1
    X_T151U4  COST  22.0693  DEM_T151  1
    X_T151U4  SU_T151U4  1  SU_T152U4  -1
    X_T151U5  COST  13.5506  DEM_T151  1
    X_T151U5  SU_T151U5  1  SU_T152U5  -1
    X_T151U6  COST  37.8251  DEM_T151  1
    X_T151U6  SU_T151U6  1  SU_T152U6  -1
    X_T151U7  COST  29.7834  DEM_T151  1
    X_T151U7  SU_T151U7  1  SU_T152U7  -1
    X_T151U8  COST  12.7034  DEM_T151  1
    X_T151U8  SU_T151U8  1  SU_T152U8  -1
    X_T151U9  COST  28.5045  DEM_T151  1
    X_T151U9  SU_T151U9  1  SU_T152U9  -1
    X_T151U10  COST  18.7762  DEM_T151  1
    X_T151U10  SU_T151U10  1  SU_T152U10  -1
    X_T151U11  COST  33.8439  DEM_T151  1
    X_T151U11  SU_T151U11  1  SU_T152U11  -1
    X_T151U12  COST  26.0056  DEM_T151  1
    X_T151U12  SU_T151U12  1  SU_T152U12  -1
    X_T151U13  COST  36.1772  DEM_T151  1
    X_T151U13  SU_T151U13  1  SU_T152U13  -1
    X_T151U14  COST  34.239  DEM_T151  1
    X_T151U14  SU_T151U14  1  SU_T152U14  -1
    X_T151U15  COST  13.7523  DEM_T151  1
    X_T151U15  SU_T151U15  1  SU_T152U15  -1
    X_T151U16  COST  18.4453  DEM_T151  1
    X_T151U16  SU_T151U16  1  SU_T152U16  -1
    X_T151U17  COST  26.8106  DEM_T151  1
    X_T151U17  SU_T151U17  1  SU_T152U17  -1
    X_T151U18  COST  25.6171  DEM_T151  1
    X_T151U18  SU_T151U18  1  SU_T152U18  -1
    X_T151U19  COST  27.3137  DEM_T151  1
    X_T151U19  SU_T151U19  1  SU_T152U19  -1
    X_T151U20  COST  29.0228  DEM_T151  1
    X_T151U20  SU_T151U20  1  SU_T152U20  -1
    X_T151U21  COST  14.148  DEM_T151  1
    X_T151U21  SU_T151U21  1  SU_T152U21  -1
    X_T151U22  COST  22.7449  DEM_T151  1
    X_T151U22  SU_T151U22  1  SU_T152U22  -1
    X_T151U23  COST  29.914  DEM_T151  1
    X_T151U23  SU_T151U23  1  SU_T152U23  -1
    X_T151U24  COST  25.523  DEM_T151  1
    X_T151U24  SU_T151U24  1  SU_T152U24  -1
    X_T151U25  COST  39.751  DEM_T151  1
    X_T151U25  SU_T151U25  1  SU_T152U25  -1
    X_T151U26  COST  19.2317  DEM_T151  1
    X_T151U26  SU_T151U26  1  SU_T152U26  -1
    X_T151U27  COST  35.1929  DEM_T151  1
    X_T151U27  SU_T151U27  1  SU_T152U27  -1
    X_T151U28  COST  18.7783  DEM_T151  1
    X_T151U28  SU_T151U28  1  SU_T152U28  -1
    X_T151U29  COST  38.249  DEM_T151  1
    X_T151U29  SU_T151U29  1  SU_T152U29  -1
    X_T151U30  COST  18.8692  DEM_T151  1
    X_T151U30  SU_T151U30  1  SU_T152U30  -1
    X_T152U1  COST  38.3269  DEM_T152  1
    X_T152U1  SU_T152U1  1  SU_T153U1  -1
    X_T152U2  COST  32.255  DEM_T152  1
    X_T152U2  SU_T152U2  1  SU_T153U2  -1
    X_T152U3  COST  15.3406  DEM_T152  1
    X_T152U3  SU_T152U3  1  SU_T153U3  -1
    X_T152U4  COST  18.2836  DEM_T152  1
    X_T152U4  SU_T152U4  1  SU_T153U4  -1
    X_T152U5  COST  20.9392  DEM_T152  1
    X_T152U5  SU_T152U5  1  SU_T153U5  -1
    X_T152U6  COST  17.987  DEM_T152  1
    X_T152U6  SU_T152U6  1  SU_T153U6  -1
    X_T152U7  COST  13.2066  DEM_T152  1
    X_T152U7  SU_T152U7  1  SU_T153U7  -1
    X_T152U8  COST  35.0824  DEM_T152  1
    X_T152U8  SU_T152U8  1  SU_T153U8  -1
    X_T152U9  COST  25.6978  DEM_T152  1
    X_T152U9  SU_T152U9  1  SU_T153U9  -1
    X_T152U10  COST  38.0032  DEM_T152  1
    X_T152U10  SU_T152U10  1  SU_T153U10  -1
    X_T152U11  COST  32.3759  DEM_T152  1
    X_T152U11  SU_T152U11  1  SU_T153U11  -1
    X_T152U12  COST  32.4323  DEM_T152  1
    X_T152U12  SU_T152U12  1  SU_T153U12  -1
    X_T152U13  COST  32.0087  DEM_T152  1
    X_T152U13  SU_T152U13  1  SU_T153U13  -1
    X_T152U14  COST  35.6205  DEM_T152  1
    X_T152U14  SU_T152U14  1  SU_T153U14  -1
    X_T152U15  COST  11.2412  DEM_T152  1
    X_T152U15  SU_T152U15  1  SU_T153U15  -1
    X_T152U16  COST  11.0415  DEM_T152  1
    X_T152U16  SU_T152U16  1  SU_T153U16  -1
    X_T152U17  COST  28.0423  DEM_T152  1
    X_T152U17  SU_T152U17  1  SU_T153U17  -1
    X_T152U18  COST  13.5947  DEM_T152  1
    X_T152U18  SU_T152U18  1  SU_T153U18  -1
    X_T152U19  COST  37.3264  DEM_T152  1
    X_T152U19  SU_T152U19  1  SU_T153U19  -1
    X_T152U20  COST  25.59  DEM_T152  1
    X_T152U20  SU_T152U20  1  SU_T153U20  -1
    X_T152U21  COST  25.6808  DEM_T152  1
    X_T152U21  SU_T152U21  1  SU_T153U21  -1
    X_T152U22  COST  13.7421  DEM_T152  1
    X_T152U22  SU_T152U22  1  SU_T153U22  -1
    X_T152U23  COST  20.5277  DEM_T152  1
    X_T152U23  SU_T152U23  1  SU_T153U23  -1
    X_T152U24  COST  33.9904  DEM_T152  1
    X_T152U24  SU_T152U24  1  SU_T153U24  -1
    X_T152U25  COST  24.7923  DEM_T152  1
    X_T152U25  SU_T152U25  1  SU_T153U25  -1
    X_T152U26  COST  31.1306  DEM_T152  1
    X_T152U26  SU_T152U26  1  SU_T153U26  -1
    X_T152U27  COST  17.1671  DEM_T152  1
    X_T152U27  SU_T152U27  1  SU_T153U27  -1
    X_T152U28  COST  28.7167  DEM_T152  1
    X_T152U28  SU_T152U28  1  SU_T153U28  -1
    X_T152U29  COST  22.0639  DEM_T152  1
    X_T152U29  SU_T152U29  1  SU_T153U29  -1
    X_T152U30  COST  26.5184  DEM_T152  1
    X_T152U30  SU_T152U30  1  SU_T153U30  -1
    X_T153U1  COST  21.9319  DEM_T153  1
    X_T153U1  SU_T153U1  1  SU_T154U1  -1
    X_T153U2  COST  36.4074  DEM_T153  1
    X_T153U2  SU_T153U2  1  SU_T154U2  -1
    X_T153U3  COST  36.79  DEM_T153  1
    X_T153U3  SU_T153U3  1  SU_T154U3  -1
    X_T153U4  COST  27.5498  DEM_T153  1
    X_T153U4  SU_T153U4  1  SU_T154U4  -1
    X_T153U5  COST  38.1733  DEM_T153  1
    X_T153U5  SU_T153U5  1  SU_T154U5  -1
    X_T153U6  COST  26.0536  DEM_T153  1
    X_T153U6  SU_T153U6  1  SU_T154U6  -1
    X_T153U7  COST  30.3774  DEM_T153  1
    X_T153U7  SU_T153U7  1  SU_T154U7  -1
    X_T153U8  COST  27.6019  DEM_T153  1
    X_T153U8  SU_T153U8  1  SU_T154U8  -1
    X_T153U9  COST  24.2524  DEM_T153  1
    X_T153U9  SU_T153U9  1  SU_T154U9  -1
    X_T153U10  COST  20.7965  DEM_T153  1
    X_T153U10  SU_T153U10  1  SU_T154U10  -1
    X_T153U11  COST  26.0179  DEM_T153  1
    X_T153U11  SU_T153U11  1  SU_T154U11  -1
    X_T153U12  COST  10.9408  DEM_T153  1
    X_T153U12  SU_T153U12  1  SU_T154U12  -1
    X_T153U13  COST  28.988  DEM_T153  1
    X_T153U13  SU_T153U13  1  SU_T154U13  -1
    X_T153U14  COST  25.2449  DEM_T153  1
    X_T153U14  SU_T153U14  1  SU_T154U14  -1
    X_T153U15  COST  35.0241  DEM_T153  1
    X_T153U15  SU_T153U15  1  SU_T154U15  -1
    X_T153U16  COST  15.5606  DEM_T153  1
    X_T153U16  SU_T153U16  1  SU_T154U16  -1
    X_T153U17  COST  34.5495  DEM_T153  1
    X_T153U17  SU_T153U17  1  SU_T154U17  -1
    X_T153U18  COST  19.3119  DEM_T153  1
    X_T153U18  SU_T153U18  1  SU_T154U18  -1
    X_T153U19  COST  16.3139  DEM_T153  1
    X_T153U19  SU_T153U19  1  SU_T154U19  -1
    X_T153U20  COST  17.2021  DEM_T153  1
    X_T153U20  SU_T153U20  1  SU_T154U20  -1
    X_T153U21  COST  13.2468  DEM_T153  1
    X_T153U21  SU_T153U21  1  SU_T154U21  -1
    X_T153U22  COST  20.0054  DEM_T153  1
    X_T153U22  SU_T153U22  1  SU_T154U22  -1
    X_T153U23  COST  24.8965  DEM_T153  1
    X_T153U23  SU_T153U23  1  SU_T154U23  -1
    X_T153U24  COST  26.0471  DEM_T153  1
    X_T153U24  SU_T153U24  1  SU_T154U24  -1
    X_T153U25  COST  13.962  DEM_T153  1
    X_T153U25  SU_T153U25  1  SU_T154U25  -1
    X_T153U26  COST  23.1532  DEM_T153  1
    X_T153U26  SU_T153U26  1  SU_T154U26  -1
    X_T153U27  COST  33.1193  DEM_T153  1
    X_T153U27  SU_T153U27  1  SU_T154U27  -1
    X_T153U28  COST  28.0408  DEM_T153  1
    X_T153U28  SU_T153U28  1  SU_T154U28  -1
    X_T153U29  COST  27.7094  DEM_T153  1
    X_T153U29  SU_T153U29  1  SU_T154U29  -1
    X_T153U30  COST  10.2571  DEM_T153  1
    X_T153U30  SU_T153U30  1  SU_T154U30  -1
    X_T154U1  COST  15.7448  DEM_T154  1
    X_T154U1  SU_T154U1  1  SU_T155U1  -1
    X_T154U2  COST  15.4358  DEM_T154  1
    X_T154U2  SU_T154U2  1  SU_T155U2  -1
    X_T154U3  COST  23.7845  DEM_T154  1
    X_T154U3  SU_T154U3  1  SU_T155U3  -1
    X_T154U4  COST  16.8066  DEM_T154  1
    X_T154U4  SU_T154U4  1  SU_T155U4  -1
    X_T154U5  COST  39.5272  DEM_T154  1
    X_T154U5  SU_T154U5  1  SU_T155U5  -1
    X_T154U6  COST  24.094  DEM_T154  1
    X_T154U6  SU_T154U6  1  SU_T155U6  -1
    X_T154U7  COST  35.2953  DEM_T154  1
    X_T154U7  SU_T154U7  1  SU_T155U7  -1
    X_T154U8  COST  16.1807  DEM_T154  1
    X_T154U8  SU_T154U8  1  SU_T155U8  -1
    X_T154U9  COST  26.1332  DEM_T154  1
    X_T154U9  SU_T154U9  1  SU_T155U9  -1
    X_T154U10  COST  25.1676  DEM_T154  1
    X_T154U10  SU_T154U10  1  SU_T155U10  -1
    X_T154U11  COST  36.3053  DEM_T154  1
    X_T154U11  SU_T154U11  1  SU_T155U11  -1
    X_T154U12  COST  36.2563  DEM_T154  1
    X_T154U12  SU_T154U12  1  SU_T155U12  -1
    X_T154U13  COST  22.1309  DEM_T154  1
    X_T154U13  SU_T154U13  1  SU_T155U13  -1
    X_T154U14  COST  31.0245  DEM_T154  1
    X_T154U14  SU_T154U14  1  SU_T155U14  -1
    X_T154U15  COST  21.2613  DEM_T154  1
    X_T154U15  SU_T154U15  1  SU_T155U15  -1
    X_T154U16  COST  26.646  DEM_T154  1
    X_T154U16  SU_T154U16  1  SU_T155U16  -1
    X_T154U17  COST  10.113  DEM_T154  1
    X_T154U17  SU_T154U17  1  SU_T155U17  -1
    X_T154U18  COST  27.8955  DEM_T154  1
    X_T154U18  SU_T154U18  1  SU_T155U18  -1
    X_T154U19  COST  23.5427  DEM_T154  1
    X_T154U19  SU_T154U19  1  SU_T155U19  -1
    X_T154U20  COST  33.6966  DEM_T154  1
    X_T154U20  SU_T154U20  1  SU_T155U20  -1
    X_T154U21  COST  25.9813  DEM_T154  1
    X_T154U21  SU_T154U21  1  SU_T155U21  -1
    X_T154U22  COST  18.7415  DEM_T154  1
    X_T154U22  SU_T154U22  1  SU_T155U22  -1
    X_T154U23  COST  23.5422  DEM_T154  1
    X_T154U23  SU_T154U23  1  SU_T155U23  -1
    X_T154U24  COST  25.6249  DEM_T154  1
    X_T154U24  SU_T154U24  1  SU_T155U24  -1
    X_T154U25  COST  17.6827  DEM_T154  1
    X_T154U25  SU_T154U25  1  SU_T155U25  -1
    X_T154U26  COST  12.9561  DEM_T154  1
    X_T154U26  SU_T154U26  1  SU_T155U26  -1
    X_T154U27  COST  16.7058  DEM_T154  1
    X_T154U27  SU_T154U27  1  SU_T155U27  -1
    X_T154U28  COST  33.9255  DEM_T154  1
    X_T154U28  SU_T154U28  1  SU_T155U28  -1
    X_T154U29  COST  28.7544  DEM_T154  1
    X_T154U29  SU_T154U29  1  SU_T155U29  -1
    X_T154U30  COST  13.7944  DEM_T154  1
    X_T154U30  SU_T154U30  1  SU_T155U30  -1
    X_T155U1  COST  10.4443  DEM_T155  1
    X_T155U1  SU_T155U1  1  SU_T156U1  -1
    X_T155U2  COST  25.4049  DEM_T155  1
    X_T155U2  SU_T155U2  1  SU_T156U2  -1
    X_T155U3  COST  17.1094  DEM_T155  1
    X_T155U3  SU_T155U3  1  SU_T156U3  -1
    X_T155U4  COST  15.6661  DEM_T155  1
    X_T155U4  SU_T155U4  1  SU_T156U4  -1
    X_T155U5  COST  26.0316  DEM_T155  1
    X_T155U5  SU_T155U5  1  SU_T156U5  -1
    X_T155U6  COST  22.0552  DEM_T155  1
    X_T155U6  SU_T155U6  1  SU_T156U6  -1
    X_T155U7  COST  36.3005  DEM_T155  1
    X_T155U7  SU_T155U7  1  SU_T156U7  -1
    X_T155U8  COST  34.2158  DEM_T155  1
    X_T155U8  SU_T155U8  1  SU_T156U8  -1
    X_T155U9  COST  20.7081  DEM_T155  1
    X_T155U9  SU_T155U9  1  SU_T156U9  -1
    X_T155U10  COST  17.8772  DEM_T155  1
    X_T155U10  SU_T155U10  1  SU_T156U10  -1
    X_T155U11  COST  33.1678  DEM_T155  1
    X_T155U11  SU_T155U11  1  SU_T156U11  -1
    X_T155U12  COST  19.9238  DEM_T155  1
    X_T155U12  SU_T155U12  1  SU_T156U12  -1
    X_T155U13  COST  32.96  DEM_T155  1
    X_T155U13  SU_T155U13  1  SU_T156U13  -1
    X_T155U14  COST  26.9969  DEM_T155  1
    X_T155U14  SU_T155U14  1  SU_T156U14  -1
    X_T155U15  COST  19.5449  DEM_T155  1
    X_T155U15  SU_T155U15  1  SU_T156U15  -1
    X_T155U16  COST  30.324  DEM_T155  1
    X_T155U16  SU_T155U16  1  SU_T156U16  -1
    X_T155U17  COST  16.7472  DEM_T155  1
    X_T155U17  SU_T155U17  1  SU_T156U17  -1
    X_T155U18  COST  34.3155  DEM_T155  1
    X_T155U18  SU_T155U18  1  SU_T156U18  -1
    X_T155U19  COST  29.3402  DEM_T155  1
    X_T155U19  SU_T155U19  1  SU_T156U19  -1
    X_T155U20  COST  39.9002  DEM_T155  1
    X_T155U20  SU_T155U20  1  SU_T156U20  -1
    X_T155U21  COST  25.4014  DEM_T155  1
    X_T155U21  SU_T155U21  1  SU_T156U21  -1
    X_T155U22  COST  34.4746  DEM_T155  1
    X_T155U22  SU_T155U22  1  SU_T156U22  -1
    X_T155U23  COST  35.2277  DEM_T155  1
    X_T155U23  SU_T155U23  1  SU_T156U23  -1
    X_T155U24  COST  28.2791  DEM_T155  1
    X_T155U24  SU_T155U24  1  SU_T156U24  -1
    X_T155U25  COST  28.7946  DEM_T155  1
    X_T155U25  SU_T155U25  1  SU_T156U25  -1
    X_T155U26  COST  39.0711  DEM_T155  1
    X_T155U26  SU_T155U26  1  SU_T156U26  -1
    X_T155U27  COST  27.2096  DEM_T155  1
    X_T155U27  SU_T155U27  1  SU_T156U27  -1
    X_T155U28  COST  30.0547  DEM_T155  1
    X_T155U28  SU_T155U28  1  SU_T156U28  -1
    X_T155U29  COST  10.535  DEM_T155  1
    X_T155U29  SU_T155U29  1  SU_T156U29  -1
    X_T155U30  COST  12.6546  DEM_T155  1
    X_T155U30  SU_T155U30  1  SU_T156U30  -1
    X_T156U1  COST  33.7359  DEM_T156  1
    X_T156U1  SU_T156U1  1  SU_T157U1  -1
    X_T156U2  COST  20.2197  DEM_T156  1
    X_T156U2  SU_T156U2  1  SU_T157U2  -1
    X_T156U3  COST  15.385  DEM_T156  1
    X_T156U3  SU_T156U3  1  SU_T157U3  -1
    X_T156U4  COST  24.8059  DEM_T156  1
    X_T156U4  SU_T156U4  1  SU_T157U4  -1
    X_T156U5  COST  21.9173  DEM_T156  1
    X_T156U5  SU_T156U5  1  SU_T157U5  -1
    X_T156U6  COST  20.428  DEM_T156  1
    X_T156U6  SU_T156U6  1  SU_T157U6  -1
    X_T156U7  COST  26.6502  DEM_T156  1
    X_T156U7  SU_T156U7  1  SU_T157U7  -1
    X_T156U8  COST  28.0651  DEM_T156  1
    X_T156U8  SU_T156U8  1  SU_T157U8  -1
    X_T156U9  COST  33.5726  DEM_T156  1
    X_T156U9  SU_T156U9  1  SU_T157U9  -1
    X_T156U10  COST  20.6754  DEM_T156  1
    X_T156U10  SU_T156U10  1  SU_T157U10  -1
    X_T156U11  COST  28.4865  DEM_T156  1
    X_T156U11  SU_T156U11  1  SU_T157U11  -1
    X_T156U12  COST  39.6756  DEM_T156  1
    X_T156U12  SU_T156U12  1  SU_T157U12  -1
    X_T156U13  COST  12.2299  DEM_T156  1
    X_T156U13  SU_T156U13  1  SU_T157U13  -1
    X_T156U14  COST  35.3076  DEM_T156  1
    X_T156U14  SU_T156U14  1  SU_T157U14  -1
    X_T156U15  COST  37.1382  DEM_T156  1
    X_T156U15  SU_T156U15  1  SU_T157U15  -1
    X_T156U16  COST  21.3134  DEM_T156  1
    X_T156U16  SU_T156U16  1  SU_T157U16  -1
    X_T156U17  COST  25.9035  DEM_T156  1
    X_T156U17  SU_T156U17  1  SU_T157U17  -1
    X_T156U18  COST  21.0717  DEM_T156  1
    X_T156U18  SU_T156U18  1  SU_T157U18  -1
    X_T156U19  COST  15.2255  DEM_T156  1
    X_T156U19  SU_T156U19  1  SU_T157U19  -1
    X_T156U20  COST  30.8582  DEM_T156  1
    X_T156U20  SU_T156U20  1  SU_T157U20  -1
    X_T156U21  COST  30.8164  DEM_T156  1
    X_T156U21  SU_T156U21  1  SU_T157U21  -1
    X_T156U22  COST  24.1635  DEM_T156  1
    X_T156U22  SU_T156U22  1  SU_T157U22  -1
    X_T156U23  COST  17.5348  DEM_T156  1
    X_T156U23  SU_T156U23  1  SU_T157U23  -1
    X_T156U24  COST  36.3956  DEM_T156  1
    X_T156U24  SU_T156U24  1  SU_T157U24  -1
    X_T156U25  COST  21.8871  DEM_T156  1
    X_T156U25  SU_T156U25  1  SU_T157U25  -1
    X_T156U26  COST  26.8244  DEM_T156  1
    X_T156U26  SU_T156U26  1  SU_T157U26  -1
    X_T156U27  COST  34.6663  DEM_T156  1
    X_T156U27  SU_T156U27  1  SU_T157U27  -1
    X_T156U28  COST  31.1609  DEM_T156  1
    X_T156U28  SU_T156U28  1  SU_T157U28  -1
    X_T156U29  COST  27.5769  DEM_T156  1
    X_T156U29  SU_T156U29  1  SU_T157U29  -1
    X_T156U30  COST  32.0507  DEM_T156  1
    X_T156U30  SU_T156U30  1  SU_T157U30  -1
    X_T157U1  COST  13.4042  DEM_T157  1
    X_T157U1  SU_T157U1  1  SU_T158U1  -1
    X_T157U2  COST  31.2789  DEM_T157  1
    X_T157U2  SU_T157U2  1  SU_T158U2  -1
    X_T157U3  COST  12.0819  DEM_T157  1
    X_T157U3  SU_T157U3  1  SU_T158U3  -1
    X_T157U4  COST  34.271  DEM_T157  1
    X_T157U4  SU_T157U4  1  SU_T158U4  -1
    X_T157U5  COST  28.4568  DEM_T157  1
    X_T157U5  SU_T157U5  1  SU_T158U5  -1
    X_T157U6  COST  28.9809  DEM_T157  1
    X_T157U6  SU_T157U6  1  SU_T158U6  -1
    X_T157U7  COST  12.3957  DEM_T157  1
    X_T157U7  SU_T157U7  1  SU_T158U7  -1
    X_T157U8  COST  24.7909  DEM_T157  1
    X_T157U8  SU_T157U8  1  SU_T158U8  -1
    X_T157U9  COST  29.6179  DEM_T157  1
    X_T157U9  SU_T157U9  1  SU_T158U9  -1
    X_T157U10  COST  11.7016  DEM_T157  1
    X_T157U10  SU_T157U10  1  SU_T158U10  -1
    X_T157U11  COST  15.3479  DEM_T157  1
    X_T157U11  SU_T157U11  1  SU_T158U11  -1
    X_T157U12  COST  31.4523  DEM_T157  1
    X_T157U12  SU_T157U12  1  SU_T158U12  -1
    X_T157U13  COST  11.4112  DEM_T157  1
    X_T157U13  SU_T157U13  1  SU_T158U13  -1
    X_T157U14  COST  34.3827  DEM_T157  1
    X_T157U14  SU_T157U14  1  SU_T158U14  -1
    X_T157U15  COST  20.1739  DEM_T157  1
    X_T157U15  SU_T157U15  1  SU_T158U15  -1
    X_T157U16  COST  27.4012  DEM_T157  1
    X_T157U16  SU_T157U16  1  SU_T158U16  -1
    X_T157U17  COST  12.8272  DEM_T157  1
    X_T157U17  SU_T157U17  1  SU_T158U17  -1
    X_T157U18  COST  18.591  DEM_T157  1
    X_T157U18  SU_T157U18  1  SU_T158U18  -1
    X_T157U19  COST  26.1885  DEM_T157  1
    X_T157U19  SU_T157U19  1  SU_T158U19  -1
    X_T157U20  COST  25.7956  DEM_T157  1
    X_T157U20  SU_T157U20  1  SU_T158U20  -1
    X_T157U21  COST  15.4107  DEM_T157  1
    X_T157U21  SU_T157U21  1  SU_T158U21  -1
    X_T157U22  COST  10.3309  DEM_T157  1
    X_T157U22  SU_T157U22  1  SU_T158U22  -1
    X_T157U23  COST  10.3779  DEM_T157  1
    X_T157U23  SU_T157U23  1  SU_T158U23  -1
    X_T157U24  COST  18.9129  DEM_T157  1
    X_T157U24  SU_T157U24  1  SU_T158U24  -1
    X_T157U25  COST  27.8989  DEM_T157  1
    X_T157U25  SU_T157U25  1  SU_T158U25  -1
    X_T157U26  COST  31.0514  DEM_T157  1
    X_T157U26  SU_T157U26  1  SU_T158U26  -1
    X_T157U27  COST  11.7793  DEM_T157  1
    X_T157U27  SU_T157U27  1  SU_T158U27  -1
    X_T157U28  COST  36.8971  DEM_T157  1
    X_T157U28  SU_T157U28  1  SU_T158U28  -1
    X_T157U29  COST  33.1039  DEM_T157  1
    X_T157U29  SU_T157U29  1  SU_T158U29  -1
    X_T157U30  COST  35.0238  DEM_T157  1
    X_T157U30  SU_T157U30  1  SU_T158U30  -1
    X_T158U1  COST  16.3917  DEM_T158  1
    X_T158U1  SU_T158U1  1  SU_T159U1  -1
    X_T158U2  COST  21.2574  DEM_T158  1
    X_T158U2  SU_T158U2  1  SU_T159U2  -1
    X_T158U3  COST  10.9102  DEM_T158  1
    X_T158U3  SU_T158U3  1  SU_T159U3  -1
    X_T158U4  COST  28.7088  DEM_T158  1
    X_T158U4  SU_T158U4  1  SU_T159U4  -1
    X_T158U5  COST  11.7854  DEM_T158  1
    X_T158U5  SU_T158U5  1  SU_T159U5  -1
    X_T158U6  COST  37.7399  DEM_T158  1
    X_T158U6  SU_T158U6  1  SU_T159U6  -1
    X_T158U7  COST  29.8496  DEM_T158  1
    X_T158U7  SU_T158U7  1  SU_T159U7  -1
    X_T158U8  COST  17.8921  DEM_T158  1
    X_T158U8  SU_T158U8  1  SU_T159U8  -1
    X_T158U9  COST  30.8931  DEM_T158  1
    X_T158U9  SU_T158U9  1  SU_T159U9  -1
    X_T158U10  COST  14.4602  DEM_T158  1
    X_T158U10  SU_T158U10  1  SU_T159U10  -1
    X_T158U11  COST  21.5744  DEM_T158  1
    X_T158U11  SU_T158U11  1  SU_T159U11  -1
    X_T158U12  COST  12.0853  DEM_T158  1
    X_T158U12  SU_T158U12  1  SU_T159U12  -1
    X_T158U13  COST  10.4283  DEM_T158  1
    X_T158U13  SU_T158U13  1  SU_T159U13  -1
    X_T158U14  COST  26.879  DEM_T158  1
    X_T158U14  SU_T158U14  1  SU_T159U14  -1
    X_T158U15  COST  14.5275  DEM_T158  1
    X_T158U15  SU_T158U15  1  SU_T159U15  -1
    X_T158U16  COST  36.6269  DEM_T158  1
    X_T158U16  SU_T158U16  1  SU_T159U16  -1
    X_T158U17  COST  23.1389  DEM_T158  1
    X_T158U17  SU_T158U17  1  SU_T159U17  -1
    X_T158U18  COST  12.1764  DEM_T158  1
    X_T158U18  SU_T158U18  1  SU_T159U18  -1
    X_T158U19  COST  34.7558  DEM_T158  1
    X_T158U19  SU_T158U19  1  SU_T159U19  -1
    X_T158U20  COST  39.7053  DEM_T158  1
    X_T158U20  SU_T158U20  1  SU_T159U20  -1
    X_T158U21  COST  29.8537  DEM_T158  1
    X_T158U21  SU_T158U21  1  SU_T159U21  -1
    X_T158U22  COST  23.3981  DEM_T158  1
    X_T158U22  SU_T158U22  1  SU_T159U22  -1
    X_T158U23  COST  17.7605  DEM_T158  1
    X_T158U23  SU_T158U23  1  SU_T159U23  -1
    X_T158U24  COST  31.6473  DEM_T158  1
    X_T158U24  SU_T158U24  1  SU_T159U24  -1
    X_T158U25  COST  35.0592  DEM_T158  1
    X_T158U25  SU_T158U25  1  SU_T159U25  -1
    X_T158U26  COST  31.7528  DEM_T158  1
    X_T158U26  SU_T158U26  1  SU_T159U26  -1
    X_T158U27  COST  15.061  DEM_T158  1
    X_T158U27  SU_T158U27  1  SU_T159U27  -1
    X_T158U28  COST  27.8162  DEM_T158  1
    X_T158U28  SU_T158U28  1  SU_T159U28  -1
    X_T158U29  COST  21.8907  DEM_T158  1
    X_T158U29  SU_T158U29  1  SU_T159U29  -1
    X_T158U30  COST  21.209  DEM_T158  1
    X_T158U30  SU_T158U30  1  SU_T159U30  -1
    X_T159U1  COST  30.1299  DEM_T159  1
    X_T159U1  SU_T159U1  1  SU_T160U1  -1
    X_T159U2  COST  10.2335  DEM_T159  1
    X_T159U2  SU_T159U2  1  SU_T160U2  -1
    X_T159U3  COST  13.191  DEM_T159  1
    X_T159U3  SU_T159U3  1  SU_T160U3  -1
    X_T159U4  COST  10.081  DEM_T159  1
    X_T159U4  SU_T159U4  1  SU_T160U4  -1
    X_T159U5  COST  25.0979  DEM_T159  1
    X_T159U5  SU_T159U5  1  SU_T160U5  -1
    X_T159U6  COST  18.8819  DEM_T159  1
    X_T159U6  SU_T159U6  1  SU_T160U6  -1
    X_T159U7  COST  15.08  DEM_T159  1
    X_T159U7  SU_T159U7  1  SU_T160U7  -1
    X_T159U8  COST  27.1554  DEM_T159  1
    X_T159U8  SU_T159U8  1  SU_T160U8  -1
    X_T159U9  COST  16.2933  DEM_T159  1
    X_T159U9  SU_T159U9  1  SU_T160U9  -1
    X_T159U10  COST  23.9417  DEM_T159  1
    X_T159U10  SU_T159U10  1  SU_T160U10  -1
    X_T159U11  COST  12.8514  DEM_T159  1
    X_T159U11  SU_T159U11  1  SU_T160U11  -1
    X_T159U12  COST  39.4124  DEM_T159  1
    X_T159U12  SU_T159U12  1  SU_T160U12  -1
    X_T159U13  COST  38.5021  DEM_T159  1
    X_T159U13  SU_T159U13  1  SU_T160U13  -1
    X_T159U14  COST  10.7626  DEM_T159  1
    X_T159U14  SU_T159U14  1  SU_T160U14  -1
    X_T159U15  COST  27.6254  DEM_T159  1
    X_T159U15  SU_T159U15  1  SU_T160U15  -1
    X_T159U16  COST  38.7564  DEM_T159  1
    X_T159U16  SU_T159U16  1  SU_T160U16  -1
    X_T159U17  COST  19.1417  DEM_T159  1
    X_T159U17  SU_T159U17  1  SU_T160U17  -1
    X_T159U18  COST  16.5622  DEM_T159  1
    X_T159U18  SU_T159U18  1  SU_T160U18  -1
    X_T159U19  COST  29.2693  DEM_T159  1
    X_T159U19  SU_T159U19  1  SU_T160U19  -1
    X_T159U20  COST  16.5234  DEM_T159  1
    X_T159U20  SU_T159U20  1  SU_T160U20  -1
    X_T159U21  COST  24.7194  DEM_T159  1
    X_T159U21  SU_T159U21  1  SU_T160U21  -1
    X_T159U22  COST  34.9671  DEM_T159  1
    X_T159U22  SU_T159U22  1  SU_T160U22  -1
    X_T159U23  COST  20.9012  DEM_T159  1
    X_T159U23  SU_T159U23  1  SU_T160U23  -1
    X_T159U24  COST  39.3679  DEM_T159  1
    X_T159U24  SU_T159U24  1  SU_T160U24  -1
    X_T159U25  COST  20.7245  DEM_T159  1
    X_T159U25  SU_T159U25  1  SU_T160U25  -1
    X_T159U26  COST  38.9183  DEM_T159  1
    X_T159U26  SU_T159U26  1  SU_T160U26  -1
    X_T159U27  COST  16.8214  DEM_T159  1
    X_T159U27  SU_T159U27  1  SU_T160U27  -1
    X_T159U28  COST  10.628  DEM_T159  1
    X_T159U28  SU_T159U28  1  SU_T160U28  -1
    X_T159U29  COST  30.1211  DEM_T159  1
    X_T159U29  SU_T159U29  1  SU_T160U29  -1
    X_T159U30  COST  12.1397  DEM_T159  1
    X_T159U30  SU_T159U30  1  SU_T160U30  -1
    X_T160U1  COST  16.3116  DEM_T160  1
    X_T160U1  SU_T160U1  1  SU_T161U1  -1
    X_T160U2  COST  33.5963  DEM_T160  1
    X_T160U2  SU_T160U2  1  SU_T161U2  -1
    X_T160U3  COST  11.3228  DEM_T160  1
    X_T160U3  SU_T160U3  1  SU_T161U3  -1
    X_T160U4  COST  22.4918  DEM_T160  1
    X_T160U4  SU_T160U4  1  SU_T161U4  -1
    X_T160U5  COST  34.8071  DEM_T160  1
    X_T160U5  SU_T160U5  1  SU_T161U5  -1
    X_T160U6  COST  31.1183  DEM_T160  1
    X_T160U6  SU_T160U6  1  SU_T161U6  -1
    X_T160U7  COST  19.2994  DEM_T160  1
    X_T160U7  SU_T160U7  1  SU_T161U7  -1
    X_T160U8  COST  17.4541  DEM_T160  1
    X_T160U8  SU_T160U8  1  SU_T161U8  -1
    X_T160U9  COST  18.2538  DEM_T160  1
    X_T160U9  SU_T160U9  1  SU_T161U9  -1
    X_T160U10  COST  33.5888  DEM_T160  1
    X_T160U10  SU_T160U10  1  SU_T161U10  -1
    X_T160U11  COST  35.1609  DEM_T160  1
    X_T160U11  SU_T160U11  1  SU_T161U11  -1
    X_T160U12  COST  17.4645  DEM_T160  1
    X_T160U12  SU_T160U12  1  SU_T161U12  -1
    X_T160U13  COST  31.2972  DEM_T160  1
    X_T160U13  SU_T160U13  1  SU_T161U13  -1
    X_T160U14  COST  23.1763  DEM_T160  1
    X_T160U14  SU_T160U14  1  SU_T161U14  -1
    X_T160U15  COST  24.6876  DEM_T160  1
    X_T160U15  SU_T160U15  1  SU_T161U15  -1
    X_T160U16  COST  36.1539  DEM_T160  1
    X_T160U16  SU_T160U16  1  SU_T161U16  -1
    X_T160U17  COST  16.1934  DEM_T160  1
    X_T160U17  SU_T160U17  1  SU_T161U17  -1
    X_T160U18  COST  20.5731  DEM_T160  1
    X_T160U18  SU_T160U18  1  SU_T161U18  -1
    X_T160U19  COST  14.7311  DEM_T160  1
    X_T160U19  SU_T160U19  1  SU_T161U19  -1
    X_T160U20  COST  14.6994  DEM_T160  1
    X_T160U20  SU_T160U20  1  SU_T161U20  -1
    X_T160U21  COST  22.1621  DEM_T160  1
    X_T160U21  SU_T160U21  1  SU_T161U21  -1
    X_T160U22  COST  10.4261  DEM_T160  1
    X_T160U22  SU_T160U22  1  SU_T161U22  -1
    X_T160U23  COST  22.6341  DEM_T160  1
    X_T160U23  SU_T160U23  1  SU_T161U23  -1
    X_T160U24  COST  25.3222  DEM_T160  1
    X_T160U24  SU_T160U24  1  SU_T161U24  -1
    X_T160U25  COST  33.015  DEM_T160  1
    X_T160U25  SU_T160U25  1  SU_T161U25  -1
    X_T160U26  COST  23.3784  DEM_T160  1
    X_T160U26  SU_T160U26  1  SU_T161U26  -1
    X_T160U27  COST  31.8059  DEM_T160  1
    X_T160U27  SU_T160U27  1  SU_T161U27  -1
    X_T160U28  COST  14.5989  DEM_T160  1
    X_T160U28  SU_T160U28  1  SU_T161U28  -1
    X_T160U29  COST  11.9322  DEM_T160  1
    X_T160U29  SU_T160U29  1  SU_T161U29  -1
    X_T160U30  COST  15.6205  DEM_T160  1
    X_T160U30  SU_T160U30  1  SU_T161U30  -1
    X_T161U1  COST  25.5999  DEM_T161  1
    X_T161U1  SU_T161U1  1  SU_T162U1  -1
    X_T161U2  COST  16.8353  DEM_T161  1
    X_T161U2  SU_T161U2  1  SU_T162U2  -1
    X_T161U3  COST  20.7487  DEM_T161  1
    X_T161U3  SU_T161U3  1  SU_T162U3  -1
    X_T161U4  COST  10.6781  DEM_T161  1
    X_T161U4  SU_T161U4  1  SU_T162U4  -1
    X_T161U5  COST  14.5772  DEM_T161  1
    X_T161U5  SU_T161U5  1  SU_T162U5  -1
    X_T161U6  COST  24.0263  DEM_T161  1
    X_T161U6  SU_T161U6  1  SU_T162U6  -1
    X_T161U7  COST  23.4845  DEM_T161  1
    X_T161U7  SU_T161U7  1  SU_T162U7  -1
    X_T161U8  COST  35.508  DEM_T161  1
    X_T161U8  SU_T161U8  1  SU_T162U8  -1
    X_T161U9  COST  18.7144  DEM_T161  1
    X_T161U9  SU_T161U9  1  SU_T162U9  -1
    X_T161U10  COST  37.643  DEM_T161  1
    X_T161U10  SU_T161U10  1  SU_T162U10  -1
    X_T161U11  COST  18.3627  DEM_T161  1
    X_T161U11  SU_T161U11  1  SU_T162U11  -1
    X_T161U12  COST  37.5354  DEM_T161  1
    X_T161U12  SU_T161U12  1  SU_T162U12  -1
    X_T161U13  COST  26.8792  DEM_T161  1
    X_T161U13  SU_T161U13  1  SU_T162U13  -1
    X_T161U14  COST  22.814  DEM_T161  1
    X_T161U14  SU_T161U14  1  SU_T162U14  -1
    X_T161U15  COST  39.8358  DEM_T161  1
    X_T161U15  SU_T161U15  1  SU_T162U15  -1
    X_T161U16  COST  35.3044  DEM_T161  1
    X_T161U16  SU_T161U16  1  SU_T162U16  -1
    X_T161U17  COST  18.846  DEM_T161  1
    X_T161U17  SU_T161U17  1  SU_T162U17  -1
    X_T161U18  COST  18.2667  DEM_T161  1
    X_T161U18  SU_T161U18  1  SU_T162U18  -1
    X_T161U19  COST  37.5477  DEM_T161  1
    X_T161U19  SU_T161U19  1  SU_T162U19  -1
    X_T161U20  COST  34.0917  DEM_T161  1
    X_T161U20  SU_T161U20  1  SU_T162U20  -1
    X_T161U21  COST  15.7947  DEM_T161  1
    X_T161U21  SU_T161U21  1  SU_T162U21  -1
    X_T161U22  COST  12.804  DEM_T161  1
    X_T161U22  SU_T161U22  1  SU_T162U22  -1
    X_T161U23  COST  14.8671  DEM_T161  1
    X_T161U23  SU_T161U23  1  SU_T162U23  -1
    X_T161U24  COST  34.9895  DEM_T161  1
    X_T161U24  SU_T161U24  1  SU_T162U24  -1
    X_T161U25  COST  19.5388  DEM_T161  1
    X_T161U25  SU_T161U25  1  SU_T162U25  -1
    X_T161U26  COST  25.3389  DEM_T161  1
    X_T161U26  SU_T161U26  1  SU_T162U26  -1
    X_T161U27  COST  24.3575  DEM_T161  1
    X_T161U27  SU_T161U27  1  SU_T162U27  -1
    X_T161U28  COST  37.6537  DEM_T161  1
    X_T161U28  SU_T161U28  1  SU_T162U28  -1
    X_T161U29  COST  37.0637  DEM_T161  1
    X_T161U29  SU_T161U29  1  SU_T162U29  -1
    X_T161U30  COST  37.9199  DEM_T161  1
    X_T161U30  SU_T161U30  1  SU_T162U30  -1
    X_T162U1  COST  22.0107  DEM_T162  1
    X_T162U1  SU_T162U1  1  SU_T163U1  -1
    X_T162U2  COST  20.7749  DEM_T162  1
    X_T162U2  SU_T162U2  1  SU_T163U2  -1
    X_T162U3  COST  13.5416  DEM_T162  1
    X_T162U3  SU_T162U3  1  SU_T163U3  -1
    X_T162U4  COST  22.3598  DEM_T162  1
    X_T162U4  SU_T162U4  1  SU_T163U4  -1
    X_T162U5  COST  21.781  DEM_T162  1
    X_T162U5  SU_T162U5  1  SU_T163U5  -1
    X_T162U6  COST  25.4525  DEM_T162  1
    X_T162U6  SU_T162U6  1  SU_T163U6  -1
    X_T162U7  COST  29.486  DEM_T162  1
    X_T162U7  SU_T162U7  1  SU_T163U7  -1
    X_T162U8  COST  22.7499  DEM_T162  1
    X_T162U8  SU_T162U8  1  SU_T163U8  -1
    X_T162U9  COST  25.3972  DEM_T162  1
    X_T162U9  SU_T162U9  1  SU_T163U9  -1
    X_T162U10  COST  24.2947  DEM_T162  1
    X_T162U10  SU_T162U10  1  SU_T163U10  -1
    X_T162U11  COST  31.6495  DEM_T162  1
    X_T162U11  SU_T162U11  1  SU_T163U11  -1
    X_T162U12  COST  37.4332  DEM_T162  1
    X_T162U12  SU_T162U12  1  SU_T163U12  -1
    X_T162U13  COST  38.8705  DEM_T162  1
    X_T162U13  SU_T162U13  1  SU_T163U13  -1
    X_T162U14  COST  22.3801  DEM_T162  1
    X_T162U14  SU_T162U14  1  SU_T163U14  -1
    X_T162U15  COST  10.3021  DEM_T162  1
    X_T162U15  SU_T162U15  1  SU_T163U15  -1
    X_T162U16  COST  13.282  DEM_T162  1
    X_T162U16  SU_T162U16  1  SU_T163U16  -1
    X_T162U17  COST  19.5722  DEM_T162  1
    X_T162U17  SU_T162U17  1  SU_T163U17  -1
    X_T162U18  COST  16.2075  DEM_T162  1
    X_T162U18  SU_T162U18  1  SU_T163U18  -1
    X_T162U19  COST  25.6894  DEM_T162  1
    X_T162U19  SU_T162U19  1  SU_T163U19  -1
    X_T162U20  COST  22.0254  DEM_T162  1
    X_T162U20  SU_T162U20  1  SU_T163U20  -1
    X_T162U21  COST  15.9906  DEM_T162  1
    X_T162U21  SU_T162U21  1  SU_T163U21  -1
    X_T162U22  COST  30.1568  DEM_T162  1
    X_T162U22  SU_T162U22  1  SU_T163U22  -1
    X_T162U23  COST  25.0649  DEM_T162  1
    X_T162U23  SU_T162U23  1  SU_T163U23  -1
    X_T162U24  COST  38.249  DEM_T162  1
    X_T162U24  SU_T162U24  1  SU_T163U24  -1
    X_T162U25  COST  24.9993  DEM_T162  1
    X_T162U25  SU_T162U25  1  SU_T163U25  -1
    X_T162U26  COST  16.5371  DEM_T162  1
    X_T162U26  SU_T162U26  1  SU_T163U26  -1
    X_T162U27  COST  22.6526  DEM_T162  1
    X_T162U27  SU_T162U27  1  SU_T163U27  -1
    X_T162U28  COST  24.3698  DEM_T162  1
    X_T162U28  SU_T162U28  1  SU_T163U28  -1
    X_T162U29  COST  32.0169  DEM_T162  1
    X_T162U29  SU_T162U29  1  SU_T163U29  -1
    X_T162U30  COST  28.8734  DEM_T162  1
    X_T162U30  SU_T162U30  1  SU_T163U30  -1
    X_T163U1  COST  13.9793  DEM_T163  1
    X_T163U1  SU_T163U1  1  SU_T164U1  -1
    X_T163U2  COST  33.372  DEM_T163  1
    X_T163U2  SU_T163U2  1  SU_T164U2  -1
    X_T163U3  COST  14.8875  DEM_T163  1
    X_T163U3  SU_T163U3  1  SU_T164U3  -1
    X_T163U4  COST  26.641  DEM_T163  1
    X_T163U4  SU_T163U4  1  SU_T164U4  -1
    X_T163U5  COST  13.9263  DEM_T163  1
    X_T163U5  SU_T163U5  1  SU_T164U5  -1
    X_T163U6  COST  18.0485  DEM_T163  1
    X_T163U6  SU_T163U6  1  SU_T164U6  -1
    X_T163U7  COST  19.4073  DEM_T163  1
    X_T163U7  SU_T163U7  1  SU_T164U7  -1
    X_T163U8  COST  22.8569  DEM_T163  1
    X_T163U8  SU_T163U8  1  SU_T164U8  -1
    X_T163U9  COST  25.3018  DEM_T163  1
    X_T163U9  SU_T163U9  1  SU_T164U9  -1
    X_T163U10  COST  21.8607  DEM_T163  1
    X_T163U10  SU_T163U10  1  SU_T164U10  -1
    X_T163U11  COST  22.7557  DEM_T163  1
    X_T163U11  SU_T163U11  1  SU_T164U11  -1
    X_T163U12  COST  25.5304  DEM_T163  1
    X_T163U12  SU_T163U12  1  SU_T164U12  -1
    X_T163U13  COST  29.7814  DEM_T163  1
    X_T163U13  SU_T163U13  1  SU_T164U13  -1
    X_T163U14  COST  30.1096  DEM_T163  1
    X_T163U14  SU_T163U14  1  SU_T164U14  -1
    X_T163U15  COST  37.9306  DEM_T163  1
    X_T163U15  SU_T163U15  1  SU_T164U15  -1
    X_T163U16  COST  29.4234  DEM_T163  1
    X_T163U16  SU_T163U16  1  SU_T164U16  -1
    X_T163U17  COST  33.3873  DEM_T163  1
    X_T163U17  SU_T163U17  1  SU_T164U17  -1
    X_T163U18  COST  39.5581  DEM_T163  1
    X_T163U18  SU_T163U18  1  SU_T164U18  -1
    X_T163U19  COST  12.3897  DEM_T163  1
    X_T163U19  SU_T163U19  1  SU_T164U19  -1
    X_T163U20  COST  29.2009  DEM_T163  1
    X_T163U20  SU_T163U20  1  SU_T164U20  -1
    X_T163U21  COST  10.058  DEM_T163  1
    X_T163U21  SU_T163U21  1  SU_T164U21  -1
    X_T163U22  COST  29.712  DEM_T163  1
    X_T163U22  SU_T163U22  1  SU_T164U22  -1
    X_T163U23  COST  20.6622  DEM_T163  1
    X_T163U23  SU_T163U23  1  SU_T164U23  -1
    X_T163U24  COST  11.3412  DEM_T163  1
    X_T163U24  SU_T163U24  1  SU_T164U24  -1
    X_T163U25  COST  18.0122  DEM_T163  1
    X_T163U25  SU_T163U25  1  SU_T164U25  -1
    X_T163U26  COST  34.6791  DEM_T163  1
    X_T163U26  SU_T163U26  1  SU_T164U26  -1
    X_T163U27  COST  15.5562  DEM_T163  1
    X_T163U27  SU_T163U27  1  SU_T164U27  -1
    X_T163U28  COST  26.0018  DEM_T163  1
    X_T163U28  SU_T163U28  1  SU_T164U28  -1
    X_T163U29  COST  17.7031  DEM_T163  1
    X_T163U29  SU_T163U29  1  SU_T164U29  -1
    X_T163U30  COST  22.3081  DEM_T163  1
    X_T163U30  SU_T163U30  1  SU_T164U30  -1
    X_T164U1  COST  37.1797  DEM_T164  1
    X_T164U1  SU_T164U1  1  SU_T165U1  -1
    X_T164U2  COST  22.9495  DEM_T164  1
    X_T164U2  SU_T164U2  1  SU_T165U2  -1
    X_T164U3  COST  12.8663  DEM_T164  1
    X_T164U3  SU_T164U3  1  SU_T165U3  -1
    X_T164U4  COST  29.4133  DEM_T164  1
    X_T164U4  SU_T164U4  1  SU_T165U4  -1
    X_T164U5  COST  10.0339  DEM_T164  1
    X_T164U5  SU_T164U5  1  SU_T165U5  -1
    X_T164U6  COST  32.89  DEM_T164  1
    X_T164U6  SU_T164U6  1  SU_T165U6  -1
    X_T164U7  COST  11.1435  DEM_T164  1
    X_T164U7  SU_T164U7  1  SU_T165U7  -1
    X_T164U8  COST  31.3609  DEM_T164  1
    X_T164U8  SU_T164U8  1  SU_T165U8  -1
    X_T164U9  COST  38.0211  DEM_T164  1
    X_T164U9  SU_T164U9  1  SU_T165U9  -1
    X_T164U10  COST  14.075  DEM_T164  1
    X_T164U10  SU_T164U10  1  SU_T165U10  -1
    X_T164U11  COST  33.2851  DEM_T164  1
    X_T164U11  SU_T164U11  1  SU_T165U11  -1
    X_T164U12  COST  23.9918  DEM_T164  1
    X_T164U12  SU_T164U12  1  SU_T165U12  -1
    X_T164U13  COST  22.8757  DEM_T164  1
    X_T164U13  SU_T164U13  1  SU_T165U13  -1
    X_T164U14  COST  17.6946  DEM_T164  1
    X_T164U14  SU_T164U14  1  SU_T165U14  -1
    X_T164U15  COST  10.4721  DEM_T164  1
    X_T164U15  SU_T164U15  1  SU_T165U15  -1
    X_T164U16  COST  29.8415  DEM_T164  1
    X_T164U16  SU_T164U16  1  SU_T165U16  -1
    X_T164U17  COST  12.4961  DEM_T164  1
    X_T164U17  SU_T164U17  1  SU_T165U17  -1
    X_T164U18  COST  36.3341  DEM_T164  1
    X_T164U18  SU_T164U18  1  SU_T165U18  -1
    X_T164U19  COST  10.6647  DEM_T164  1
    X_T164U19  SU_T164U19  1  SU_T165U19  -1
    X_T164U20  COST  18.2406  DEM_T164  1
    X_T164U20  SU_T164U20  1  SU_T165U20  -1
    X_T164U21  COST  31.6466  DEM_T164  1
    X_T164U21  SU_T164U21  1  SU_T165U21  -1
    X_T164U22  COST  24.2625  DEM_T164  1
    X_T164U22  SU_T164U22  1  SU_T165U22  -1
    X_T164U23  COST  39.3996  DEM_T164  1
    X_T164U23  SU_T164U23  1  SU_T165U23  -1
    X_T164U24  COST  27.2461  DEM_T164  1
    X_T164U24  SU_T164U24  1  SU_T165U24  -1
    X_T164U25  COST  20.9316  DEM_T164  1
    X_T164U25  SU_T164U25  1  SU_T165U25  -1
    X_T164U26  COST  17.4752  DEM_T164  1
    X_T164U26  SU_T164U26  1  SU_T165U26  -1
    X_T164U27  COST  28.109  DEM_T164  1
    X_T164U27  SU_T164U27  1  SU_T165U27  -1
    X_T164U28  COST  11.5007  DEM_T164  1
    X_T164U28  SU_T164U28  1  SU_T165U28  -1
    X_T164U29  COST  33.6773  DEM_T164  1
    X_T164U29  SU_T164U29  1  SU_T165U29  -1
    X_T164U30  COST  13.5504  DEM_T164  1
    X_T164U30  SU_T164U30  1  SU_T165U30  -1
    X_T165U1  COST  33.6175  DEM_T165  1
    X_T165U1  SU_T165U1  1  SU_T166U1  -1
    X_T165U2  COST  34.7004  DEM_T165  1
    X_T165U2  SU_T165U2  1  SU_T166U2  -1
    X_T165U3  COST  33.6992  DEM_T165  1
    X_T165U3  SU_T165U3  1  SU_T166U3  -1
    X_T165U4  COST  12.5419  DEM_T165  1
    X_T165U4  SU_T165U4  1  SU_T166U4  -1
    X_T165U5  COST  10.2036  DEM_T165  1
    X_T165U5  SU_T165U5  1  SU_T166U5  -1
    X_T165U6  COST  37.1194  DEM_T165  1
    X_T165U6  SU_T165U6  1  SU_T166U6  -1
    X_T165U7  COST  32.0771  DEM_T165  1
    X_T165U7  SU_T165U7  1  SU_T166U7  -1
    X_T165U8  COST  38.4876  DEM_T165  1
    X_T165U8  SU_T165U8  1  SU_T166U8  -1
    X_T165U9  COST  24.4993  DEM_T165  1
    X_T165U9  SU_T165U9  1  SU_T166U9  -1
    X_T165U10  COST  14.6348  DEM_T165  1
    X_T165U10  SU_T165U10  1  SU_T166U10  -1
    X_T165U11  COST  20.9948  DEM_T165  1
    X_T165U11  SU_T165U11  1  SU_T166U11  -1
    X_T165U12  COST  29.9653  DEM_T165  1
    X_T165U12  SU_T165U12  1  SU_T166U12  -1
    X_T165U13  COST  31.8516  DEM_T165  1
    X_T165U13  SU_T165U13  1  SU_T166U13  -1
    X_T165U14  COST  20.0528  DEM_T165  1
    X_T165U14  SU_T165U14  1  SU_T166U14  -1
    X_T165U15  COST  18.6438  DEM_T165  1
    X_T165U15  SU_T165U15  1  SU_T166U15  -1
    X_T165U16  COST  16.1582  DEM_T165  1
    X_T165U16  SU_T165U16  1  SU_T166U16  -1
    X_T165U17  COST  27.3934  DEM_T165  1
    X_T165U17  SU_T165U17  1  SU_T166U17  -1
    X_T165U18  COST  17.8487  DEM_T165  1
    X_T165U18  SU_T165U18  1  SU_T166U18  -1
    X_T165U19  COST  22.5512  DEM_T165  1
    X_T165U19  SU_T165U19  1  SU_T166U19  -1
    X_T165U20  COST  32.0321  DEM_T165  1
    X_T165U20  SU_T165U20  1  SU_T166U20  -1
    X_T165U21  COST  34.6682  DEM_T165  1
    X_T165U21  SU_T165U21  1  SU_T166U21  -1
    X_T165U22  COST  38.9317  DEM_T165  1
    X_T165U22  SU_T165U22  1  SU_T166U22  -1
    X_T165U23  COST  31.424  DEM_T165  1
    X_T165U23  SU_T165U23  1  SU_T166U23  -1
    X_T165U24  COST  18.369  DEM_T165  1
    X_T165U24  SU_T165U24  1  SU_T166U24  -1
    X_T165U25  COST  26.5751  DEM_T165  1
    X_T165U25  SU_T165U25  1  SU_T166U25  -1
    X_T165U26  COST  16.0105  DEM_T165  1
    X_T165U26  SU_T165U26  1  SU_T166U26  -1
    X_T165U27  COST  34.0524  DEM_T165  1
    X_T165U27  SU_T165U27  1  SU_T166U27  -1
    X_T165U28  COST  33.8218  DEM_T165  1
    X_T165U28  SU_T165U28  1  SU_T166U28  -1
    X_T165U29  COST  27.1983  DEM_T165  1
    X_T165U29  SU_T165U29  1  SU_T166U29  -1
    X_T165U30  COST  35.8663  DEM_T165  1
    X_T165U30  SU_T165U30  1  SU_T166U30  -1
    X_T166U1  COST  22.4292  DEM_T166  1
    X_T166U1  SU_T166U1  1  SU_T167U1  -1
    X_T166U2  COST  22.3376  DEM_T166  1
    X_T166U2  SU_T166U2  1  SU_T167U2  -1
    X_T166U3  COST  20.3059  DEM_T166  1
    X_T166U3  SU_T166U3  1  SU_T167U3  -1
    X_T166U4  COST  37.3082  DEM_T166  1
    X_T166U4  SU_T166U4  1  SU_T167U4  -1
    X_T166U5  COST  27.3947  DEM_T166  1
    X_T166U5  SU_T166U5  1  SU_T167U5  -1
    X_T166U6  COST  10.5502  DEM_T166  1
    X_T166U6  SU_T166U6  1  SU_T167U6  -1
    X_T166U7  COST  32.6269  DEM_T166  1
    X_T166U7  SU_T166U7  1  SU_T167U7  -1
    X_T166U8  COST  14.4951  DEM_T166  1
    X_T166U8  SU_T166U8  1  SU_T167U8  -1
    X_T166U9  COST  38.4351  DEM_T166  1
    X_T166U9  SU_T166U9  1  SU_T167U9  -1
    X_T166U10  COST  37.2305  DEM_T166  1
    X_T166U10  SU_T166U10  1  SU_T167U10  -1
    X_T166U11  COST  26.2966  DEM_T166  1
    X_T166U11  SU_T166U11  1  SU_T167U11  -1
    X_T166U12  COST  25.6563  DEM_T166  1
    X_T166U12  SU_T166U12  1  SU_T167U12  -1
    X_T166U13  COST  17.0292  DEM_T166  1
    X_T166U13  SU_T166U13  1  SU_T167U13  -1
    X_T166U14  COST  29.415  DEM_T166  1
    X_T166U14  SU_T166U14  1  SU_T167U14  -1
    X_T166U15  COST  33.2921  DEM_T166  1
    X_T166U15  SU_T166U15  1  SU_T167U15  -1
    X_T166U16  COST  27.0333  DEM_T166  1
    X_T166U16  SU_T166U16  1  SU_T167U16  -1
    X_T166U17  COST  36.9443  DEM_T166  1
    X_T166U17  SU_T166U17  1  SU_T167U17  -1
    X_T166U18  COST  21.5841  DEM_T166  1
    X_T166U18  SU_T166U18  1  SU_T167U18  -1
    X_T166U19  COST  28.5969  DEM_T166  1
    X_T166U19  SU_T166U19  1  SU_T167U19  -1
    X_T166U20  COST  34.7194  DEM_T166  1
    X_T166U20  SU_T166U20  1  SU_T167U20  -1
    X_T166U21  COST  15.9675  DEM_T166  1
    X_T166U21  SU_T166U21  1  SU_T167U21  -1
    X_T166U22  COST  35.1107  DEM_T166  1
    X_T166U22  SU_T166U22  1  SU_T167U22  -1
    X_T166U23  COST  12.7406  DEM_T166  1
    X_T166U23  SU_T166U23  1  SU_T167U23  -1
    X_T166U24  COST  14.0439  DEM_T166  1
    X_T166U24  SU_T166U24  1  SU_T167U24  -1
    X_T166U25  COST  24.1085  DEM_T166  1
    X_T166U25  SU_T166U25  1  SU_T167U25  -1
    X_T166U26  COST  37.8432  DEM_T166  1
    X_T166U26  SU_T166U26  1  SU_T167U26  -1
    X_T166U27  COST  20.6077  DEM_T166  1
    X_T166U27  SU_T166U27  1  SU_T167U27  -1
    X_T166U28  COST  23.2855  DEM_T166  1
    X_T166U28  SU_T166U28  1  SU_T167U28  -1
    X_T166U29  COST  31.6969  DEM_T166  1
    X_T166U29  SU_T166U29  1  SU_T167U29  -1
    X_T166U30  COST  33.7515  DEM_T166  1
    X_T166U30  SU_T166U30  1  SU_T167U30  -1
    X_T167U1  COST  33.6  DEM_T167  1
    X_T167U1  SU_T167U1  1  SU_T168U1  -1
    X_T167U2  COST  35.7246  DEM_T167  1
    X_T167U2  SU_T167U2  1  SU_T168U2  -1
    X_T167U3  COST  20.8729  DEM_T167  1
    X_T167U3  SU_T167U3  1  SU_T168U3  -1
    X_T167U4  COST  27.9916  DEM_T167  1
    X_T167U4  SU_T167U4  1  SU_T168U4  -1
    X_T167U5  COST  19.112  DEM_T167  1
    X_T167U5  SU_T167U5  1  SU_T168U5  -1
    X_T167U6  COST  27.0348  DEM_T167  1
    X_T167U6  SU_T167U6  1  SU_T168U6  -1
    X_T167U7  COST  37.9748  DEM_T167  1
    X_T167U7  SU_T167U7  1  SU_T168U7  -1
    X_T167U8  COST  35.2885  DEM_T167  1
    X_T167U8  SU_T167U8  1  SU_T168U8  -1
    X_T167U9  COST  21.6933  DEM_T167  1
    X_T167U9  SU_T167U9  1  SU_T168U9  -1
    X_T167U10  COST  28.4812  DEM_T167  1
    X_T167U10  SU_T167U10  1  SU_T168U10  -1
    X_T167U11  COST  27.3848  DEM_T167  1
    X_T167U11  SU_T167U11  1  SU_T168U11  -1
    X_T167U12  COST  23.1673  DEM_T167  1
    X_T167U12  SU_T167U12  1  SU_T168U12  -1
    X_T167U13  COST  28.2464  DEM_T167  1
    X_T167U13  SU_T167U13  1  SU_T168U13  -1
    X_T167U14  COST  24.3765  DEM_T167  1
    X_T167U14  SU_T167U14  1  SU_T168U14  -1
    X_T167U15  COST  19.7089  DEM_T167  1
    X_T167U15  SU_T167U15  1  SU_T168U15  -1
    X_T167U16  COST  27.5031  DEM_T167  1
    X_T167U16  SU_T167U16  1  SU_T168U16  -1
    X_T167U17  COST  24.5522  DEM_T167  1
    X_T167U17  SU_T167U17  1  SU_T168U17  -1
    X_T167U18  COST  35.0507  DEM_T167  1
    X_T167U18  SU_T167U18  1  SU_T168U18  -1
    X_T167U19  COST  31.2451  DEM_T167  1
    X_T167U19  SU_T167U19  1  SU_T168U19  -1
    X_T167U20  COST  17.5074  DEM_T167  1
    X_T167U20  SU_T167U20  1  SU_T168U20  -1
    X_T167U21  COST  32.2798  DEM_T167  1
    X_T167U21  SU_T167U21  1  SU_T168U21  -1
    X_T167U22  COST  37.4333  DEM_T167  1
    X_T167U22  SU_T167U22  1  SU_T168U22  -1
    X_T167U23  COST  38.0013  DEM_T167  1
    X_T167U23  SU_T167U23  1  SU_T168U23  -1
    X_T167U24  COST  38.1801  DEM_T167  1
    X_T167U24  SU_T167U24  1  SU_T168U24  -1
    X_T167U25  COST  11.6191  DEM_T167  1
    X_T167U25  SU_T167U25  1  SU_T168U25  -1
    X_T167U26  COST  31.1052  DEM_T167  1
    X_T167U26  SU_T167U26  1  SU_T168U26  -1
    X_T167U27  COST  24.6968  DEM_T167  1
    X_T167U27  SU_T167U27  1  SU_T168U27  -1
    X_T167U28  COST  28.7379  DEM_T167  1
    X_T167U28  SU_T167U28  1  SU_T168U28  -1
    X_T167U29  COST  26.8063  DEM_T167  1
    X_T167U29  SU_T167U29  1  SU_T168U29  -1
    X_T167U30  COST  38.9817  DEM_T167  1
    X_T167U30  SU_T167U30  1  SU_T168U30  -1
    X_T168U1  COST  32.4771  DEM_T168  1
    X_T168U1  SU_T168U1  1
    X_T168U2  COST  27.748  DEM_T168  1
    X_T168U2  SU_T168U2  1
    X_T168U3  COST  11.0288  DEM_T168  1
    X_T168U3  SU_T168U3  1
    X_T168U4  COST  18.3726  DEM_T168  1
    X_T168U4  SU_T168U4  1
    X_T168U5  COST  16.0683  DEM_T168  1
    X_T168U5  SU_T168U5  1
    X_T168U6  COST  25.1392  DEM_T168  1
    X_T168U6  SU_T168U6  1
    X_T168U7  COST  28.4881  DEM_T168  1
    X_T168U7  SU_T168U7  1
    X_T168U8  COST  38.7814  DEM_T168  1
    X_T168U8  SU_T168U8  1
    X_T168U9  COST  19.3358  DEM_T168  1
    X_T168U9  SU_T168U9  1
    X_T168U10  COST  36.0029  DEM_T168  1
    X_T168U10  SU_T168U10  1
    X_T168U11  COST  39.7968  DEM_T168  1
    X_T168U11  SU_T168U11  1
    X_T168U12  COST  18.9878  DEM_T168  1
    X_T168U12  SU_T168U12  1
    X_T168U13  COST  24.0787  DEM_T168  1
    X_T168U13  SU_T168U13  1
    X_T168U14  COST  21.0336  DEM_T168  1
    X_T168U14  SU_T168U14  1
    X_T168U15  COST  29.2824  DEM_T168  1
    X_T168U15  SU_T168U15  1
    X_T168U16  COST  36.5462  DEM_T168  1
    X_T168U16  SU_T168U16  1
    X_T168U17  COST  23.9731  DEM_T168  1
    X_T168U17  SU_T168U17  1
    X_T168U18  COST  14.1076  DEM_T168  1
    X_T168U18  SU_T168U18  1
    X_T168U19  COST  15.6318  DEM_T168  1
    X_T168U19  SU_T168U19  1
    X_T168U20  COST  37.4426  DEM_T168  1
    X_T168U20  SU_T168U20  1
    X_T168U21  COST  31.8329  DEM_T168  1
    X_T168U21  SU_T168U21  1
    X_T168U22  COST  28.256  DEM_T168  1
    X_T168U22  SU_T168U22  1
    X_T168U23  COST  23.583  DEM_T168  1
    X_T168U23  SU_T168U23  1
    X_T168U24  COST  36.3212  DEM_T168  1
    X_T168U24  SU_T168U24  1
    X_T168U25  COST  36.9957  DEM_T168  1
    X_T168U25  SU_T168U25  1
    X_T168U26  COST  39.7112  DEM_T168  1
    X_T168U26  SU_T168U26  1
    X_T168U27  COST  12.6024  DEM_T168  1
    X_T168U27  SU_T168U27  1
    X_T168U28  COST  13.8701  DEM_T168  1
    X_T168U28  SU_T168U28  1
    X_T168U29  COST  28.9909  DEM_T168  1
    X_T168U29  SU_T168U29  1
    X_T168U30  COST  17.7772  DEM_T168  1
    X_T168U30  SU_T168U30  1
    S_T1U1  COST  77.5152  SU_T1U1  -1
    S_T1U2  COST  139.528  SU_T1U2  -1
    S_T1U3  COST  64.9962  SU_T1U3  -1
    S_T1U4  COST  100.056  SU_T1U4  -1
    S_T1U5  COST  147.633  SU_T1U5  -1
    S_T1U6  COST  158.3  SU_T1U6  -1
    S_T1U7  COST  50.1168  SU_T1U7  -1
    S_T1U8  COST  142.622  SU_T1U8  -1
    S_T1U9  COST  51.0599  SU_T1U9  -1
    S_T1U10  COST  128.716  SU_T1U10  -1
    S_T1U11  COST  56.9999  SU_T1U11  -1
    S_T1U12  COST  84.9157  SU_T1U12  -1
    S_T1U13  COST  142.758  SU_T1U13  -1
    S_T1U14  COST  197.485  SU_T1U14  -1
    S_T1U15  COST  178.991  SU_T1U15  -1
    S_T1U16  COST  117.575  SU_T1U16  -1
    S_T1U17  COST  191.33  SU_T1U17  -1
    S_T1U18  COST  107.812  SU_T1U18  -1
    S_T1U19  COST  84.6341  SU_T1U19  -1
    S_T1U20  COST  152.49  SU_T1U20  -1
    S_T1U21  COST  174.979  SU_T1U21  -1
    S_T1U22  COST  108.659  SU_T1U22  -1
    S_T1U23  COST  163.304  SU_T1U23  -1
    S_T1U24  COST  81.1912  SU_T1U24  -1
    S_T1U25  COST  54.697  SU_T1U25  -1
    S_T1U26  COST  117.463  SU_T1U26  -1
    S_T1U27  COST  188.999  SU_T1U27  -1
    S_T1U28  COST  98.9811  SU_T1U28  -1
    S_T1U29  COST  128.125  SU_T1U29  -1
    S_T1U30  COST  176.68  SU_T1U30  -1
    S_T2U1  COST  130.954  SU_T2U1  -1
    S_T2U2  COST  194.788  SU_T2U2  -1
    S_T2U3  COST  91.3999  SU_T2U3  -1
    S_T2U4  COST  74.79  SU_T2U4  -1
    S_T2U5  COST  113.51  SU_T2U5  -1
    S_T2U6  COST  94.0232  SU_T2U6  -1
    S_T2U7  COST  79.8264  SU_T2U7  -1
    S_T2U8  COST  168.526  SU_T2U8  -1
    S_T2U9  COST  188.945  SU_T2U9  -1
    S_T2U10  COST  187.244  SU_T2U10  -1
    S_T2U11  COST  117.418  SU_T2U11  -1
    S_T2U12  COST  105.623  SU_T2U12  -1
    S_T2U13  COST  149.888  SU_T2U13  -1
    S_T2U14  COST  91.2083  SU_T2U14  -1
    S_T2U15  COST  107.439  SU_T2U15  -1
    S_T2U16  COST  177.337  SU_T2U16  -1
    S_T2U17  COST  85.3977  SU_T2U17  -1
    S_T2U18  COST  56.065  SU_T2U18  -1
    S_T2U19  COST  66.6336  SU_T2U19  -1
    S_T2U20  COST  80.2579  SU_T2U20  -1
    S_T2U21  COST  121.306  SU_T2U21  -1
    S_T2U22  COST  154.327  SU_T2U22  -1
    S_T2U23  COST  140.663  SU_T2U23  -1
    S_T2U24  COST  80.4592  SU_T2U24  -1
    S_T2U25  COST  139.83  SU_T2U25  -1
    S_T2U26  COST  182.07  SU_T2U26  -1
    S_T2U27  COST  94.3451  SU_T2U27  -1
    S_T2U28  COST  118.48  SU_T2U28  -1
    S_T2U29  COST  112.476  SU_T2U29  -1
    S_T2U30  COST  98.6518  SU_T2U30  -1
    S_T3U1  COST  103.445  SU_T3U1  -1
    S_T3U2  COST  90.8198  SU_T3U2  -1
    S_T3U3  COST  50.0781  SU_T3U3  -1
    S_T3U4  COST  95.7172  SU_T3U4  -1
    S_T3U5  COST  130.113  SU_T3U5  -1
    S_T3U6  COST  153.865  SU_T3U6  -1
    S_T3U7  COST  86.6188  SU_T3U7  -1
    S_T3U8  COST  82.8146  SU_T3U8  -1
    S_T3U9  COST  110.575  SU_T3U9  -1
    S_T3U10  COST  88.0873  SU_T3U10  -1
    S_T3U11  COST  154.446  SU_T3U11  -1
    S_T3U12  COST  72.213  SU_T3U12  -1
    S_T3U13  COST  90.0172  SU_T3U13  -1
    S_T3U14  COST  111.656  SU_T3U14  -1
    S_T3U15  COST  101.761  SU_T3U15  -1
    S_T3U16  COST  152.106  SU_T3U16  -1
    S_T3U17  COST  117.167  SU_T3U17  -1
    S_T3U18  COST  138.905  SU_T3U18  -1
    S_T3U19  COST  105.448  SU_T3U19  -1
    S_T3U20  COST  170.471  SU_T3U20  -1
    S_T3U21  COST  197.513  SU_T3U21  -1
    S_T3U22  COST  172.465  SU_T3U22  -1
    S_T3U23  COST  72.6076  SU_T3U23  -1
    S_T3U24  COST  154.372  SU_T3U24  -1
    S_T3U25  COST  98.8938  SU_T3U25  -1
    S_T3U26  COST  156.672  SU_T3U26  -1
    S_T3U27  COST  102.3  SU_T3U27  -1
    S_T3U28  COST  191.078  SU_T3U28  -1
    S_T3U29  COST  127.663  SU_T3U29  -1
    S_T3U30  COST  151.354  SU_T3U30  -1
    S_T4U1  COST  81.3607  SU_T4U1  -1
    S_T4U2  COST  154.368  SU_T4U2  -1
    S_T4U3  COST  76.2432  SU_T4U3  -1
    S_T4U4  COST  127.495  SU_T4U4  -1
    S_T4U5  COST  199.438  SU_T4U5  -1
    S_T4U6  COST  133.744  SU_T4U6  -1
    S_T4U7  COST  78.3061  SU_T4U7  -1
    S_T4U8  COST  155.054  SU_T4U8  -1
    S_T4U9  COST  178.449  SU_T4U9  -1
    S_T4U10  COST  183.166  SU_T4U10  -1
    S_T4U11  COST  190.345  SU_T4U11  -1
    S_T4U12  COST  150.348  SU_T4U12  -1
    S_T4U13  COST  105.842  SU_T4U13  -1
    S_T4U14  COST  196.05  SU_T4U14  -1
    S_T4U15  COST  95.8046  SU_T4U15  -1
    S_T4U16  COST  117.264  SU_T4U16  -1
    S_T4U17  COST  76.3888  SU_T4U17  -1
    S_T4U18  COST  124.084  SU_T4U18  -1
    S_T4U19  COST  104.97  SU_T4U19  -1
    S_T4U20  COST  158.141  SU_T4U20  -1
    S_T4U21  COST  131.381  SU_T4U21  -1
    S_T4U22  COST  145.45  SU_T4U22  -1
    S_T4U23  COST  138.481  SU_T4U23  -1
    S_T4U24  COST  123.011  SU_T4U24  -1
    S_T4U25  COST  115.159  SU_T4U25  -1
    S_T4U26  COST  146.766  SU_T4U26  -1
    S_T4U27  COST  179.625  SU_T4U27  -1
    S_T4U28  COST  124.879  SU_T4U28  -1
    S_T4U29  COST  165.283  SU_T4U29  -1
    S_T4U30  COST  199.183  SU_T4U30  -1
    S_T5U1  COST  91.9341  SU_T5U1  -1
    S_T5U2  COST  162.158  SU_T5U2  -1
    S_T5U3  COST  99.6125  SU_T5U3  -1
    S_T5U4  COST  135.844  SU_T5U4  -1
    S_T5U5  COST  61.3019  SU_T5U5  -1
    S_T5U6  COST  78.6367  SU_T5U6  -1
    S_T5U7  COST  122.792  SU_T5U7  -1
    S_T5U8  COST  109.204  SU_T5U8  -1
    S_T5U9  COST  189.503  SU_T5U9  -1
    S_T5U10  COST  81.3378  SU_T5U10  -1
    S_T5U11  COST  103.797  SU_T5U11  -1
    S_T5U12  COST  94.2936  SU_T5U12  -1
    S_T5U13  COST  177.3  SU_T5U13  -1
    S_T5U14  COST  156.337  SU_T5U14  -1
    S_T5U15  COST  94.4765  SU_T5U15  -1
    S_T5U16  COST  88.431  SU_T5U16  -1
    S_T5U17  COST  62.2391  SU_T5U17  -1
    S_T5U18  COST  144.184  SU_T5U18  -1
    S_T5U19  COST  60.6411  SU_T5U19  -1
    S_T5U20  COST  57.6153  SU_T5U20  -1
    S_T5U21  COST  54.1425  SU_T5U21  -1
    S_T5U22  COST  115.771  SU_T5U22  -1
    S_T5U23  COST  99.2229  SU_T5U23  -1
    S_T5U24  COST  197.276  SU_T5U24  -1
    S_T5U25  COST  179.061  SU_T5U25  -1
    S_T5U26  COST  55.8252  SU_T5U26  -1
    S_T5U27  COST  130.562  SU_T5U27  -1
    S_T5U28  COST  174.18  SU_T5U28  -1
    S_T5U29  COST  194.788  SU_T5U29  -1
    S_T5U30  COST  176.303  SU_T5U30  -1
    S_T6U1  COST  111.703  SU_T6U1  -1
    S_T6U2  COST  70.753  SU_T6U2  -1
    S_T6U3  COST  195.431  SU_T6U3  -1
    S_T6U4  COST  56.1601  SU_T6U4  -1
    S_T6U5  COST  115.028  SU_T6U5  -1
    S_T6U6  COST  87.6291  SU_T6U6  -1
    S_T6U7  COST  62.1309  SU_T6U7  -1
    S_T6U8  COST  153.275  SU_T6U8  -1
    S_T6U9  COST  187.282  SU_T6U9  -1
    S_T6U10  COST  85.9681  SU_T6U10  -1
    S_T6U11  COST  77.4299  SU_T6U11  -1
    S_T6U12  COST  145.741  SU_T6U12  -1
    S_T6U13  COST  148.567  SU_T6U13  -1
    S_T6U14  COST  159.506  SU_T6U14  -1
    S_T6U15  COST  134.906  SU_T6U15  -1
    S_T6U16  COST  68.0247  SU_T6U16  -1
    S_T6U17  COST  63.7699  SU_T6U17  -1
    S_T6U18  COST  96.712  SU_T6U18  -1
    S_T6U19  COST  76.2995  SU_T6U19  -1
    S_T6U20  COST  164.505  SU_T6U20  -1
    S_T6U21  COST  101.946  SU_T6U21  -1
    S_T6U22  COST  147.466  SU_T6U22  -1
    S_T6U23  COST  192.372  SU_T6U23  -1
    S_T6U24  COST  89.134  SU_T6U24  -1
    S_T6U25  COST  190.015  SU_T6U25  -1
    S_T6U26  COST  130.907  SU_T6U26  -1
    S_T6U27  COST  142.378  SU_T6U27  -1
    S_T6U28  COST  191.638  SU_T6U28  -1
    S_T6U29  COST  145.461  SU_T6U29  -1
    S_T6U30  COST  151.575  SU_T6U30  -1
    S_T7U1  COST  69.2751  SU_T7U1  -1
    S_T7U2  COST  173.096  SU_T7U2  -1
    S_T7U3  COST  173.064  SU_T7U3  -1
    S_T7U4  COST  81.0027  SU_T7U4  -1
    S_T7U5  COST  82.1884  SU_T7U5  -1
    S_T7U6  COST  55.8445  SU_T7U6  -1
    S_T7U7  COST  100.483  SU_T7U7  -1
    S_T7U8  COST  107.809  SU_T7U8  -1
    S_T7U9  COST  101.094  SU_T7U9  -1
    S_T7U10  COST  124.406  SU_T7U10  -1
    S_T7U11  COST  102.25  SU_T7U11  -1
    S_T7U12  COST  55.8779  SU_T7U12  -1
    S_T7U13  COST  195.137  SU_T7U13  -1
    S_T7U14  COST  113.521  SU_T7U14  -1
    S_T7U15  COST  136.389  SU_T7U15  -1
    S_T7U16  COST  69.1535  SU_T7U16  -1
    S_T7U17  COST  137.082  SU_T7U17  -1
    S_T7U18  COST  134.28  SU_T7U18  -1
    S_T7U19  COST  151.977  SU_T7U19  -1
    S_T7U20  COST  85.7354  SU_T7U20  -1
    S_T7U21  COST  130.149  SU_T7U21  -1
    S_T7U22  COST  108.443  SU_T7U22  -1
    S_T7U23  COST  64.9977  SU_T7U23  -1
    S_T7U24  COST  193.781  SU_T7U24  -1
    S_T7U25  COST  103.236  SU_T7U25  -1
    S_T7U26  COST  151.515  SU_T7U26  -1
    S_T7U27  COST  123.954  SU_T7U27  -1
    S_T7U28  COST  63.7556  SU_T7U28  -1
    S_T7U29  COST  133.055  SU_T7U29  -1
    S_T7U30  COST  191.929  SU_T7U30  -1
    S_T8U1  COST  67.0197  SU_T8U1  -1
    S_T8U2  COST  196.137  SU_T8U2  -1
    S_T8U3  COST  58.3807  SU_T8U3  -1
    S_T8U4  COST  131.887  SU_T8U4  -1
    S_T8U5  COST  195.298  SU_T8U5  -1
    S_T8U6  COST  175.545  SU_T8U6  -1
    S_T8U7  COST  175.772  SU_T8U7  -1
    S_T8U8  COST  83.3865  SU_T8U8  -1
    S_T8U9  COST  183.785  SU_T8U9  -1
    S_T8U10  COST  126.999  SU_T8U10  -1
    S_T8U11  COST  137.196  SU_T8U11  -1
    S_T8U12  COST  182.054  SU_T8U12  -1
    S_T8U13  COST  186.154  SU_T8U13  -1
    S_T8U14  COST  102.533  SU_T8U14  -1
    S_T8U15  COST  122.25  SU_T8U15  -1
    S_T8U16  COST  155.763  SU_T8U16  -1
    S_T8U17  COST  99.5379  SU_T8U17  -1
    S_T8U18  COST  88.0523  SU_T8U18  -1
    S_T8U19  COST  135.721  SU_T8U19  -1
    S_T8U20  COST  165.079  SU_T8U20  -1
    S_T8U21  COST  161.632  SU_T8U21  -1
    S_T8U22  COST  85.626  SU_T8U22  -1
    S_T8U23  COST  121.657  SU_T8U23  -1
    S_T8U24  COST  129.256  SU_T8U24  -1
    S_T8U25  COST  170.316  SU_T8U25  -1
    S_T8U26  COST  133.401  SU_T8U26  -1
    S_T8U27  COST  56.5101  SU_T8U27  -1
    S_T8U28  COST  187.867  SU_T8U28  -1
    S_T8U29  COST  154.312  SU_T8U29  -1
    S_T8U30  COST  74.9323  SU_T8U30  -1
    S_T9U1  COST  94.1741  SU_T9U1  -1
    S_T9U2  COST  154.539  SU_T9U2  -1
    S_T9U3  COST  160.565  SU_T9U3  -1
    S_T9U4  COST  193.805  SU_T9U4  -1
    S_T9U5  COST  109.178  SU_T9U5  -1
    S_T9U6  COST  100.349  SU_T9U6  -1
    S_T9U7  COST  147.027  SU_T9U7  -1
    S_T9U8  COST  84.4092  SU_T9U8  -1
    S_T9U9  COST  104.052  SU_T9U9  -1
    S_T9U10  COST  117.986  SU_T9U10  -1
    S_T9U11  COST  91.9645  SU_T9U11  -1
    S_T9U12  COST  140.417  SU_T9U12  -1
    S_T9U13  COST  69.9778  SU_T9U13  -1
    S_T9U14  COST  191.08  SU_T9U14  -1
    S_T9U15  COST  137.174  SU_T9U15  -1
    S_T9U16  COST  62.4123  SU_T9U16  -1
    S_T9U17  COST  132.738  SU_T9U17  -1
    S_T9U18  COST  111.688  SU_T9U18  -1
    S_T9U19  COST  122.056  SU_T9U19  -1
    S_T9U20  COST  106.511  SU_T9U20  -1
    S_T9U21  COST  108.948  SU_T9U21  -1
    S_T9U22  COST  135.362  SU_T9U22  -1
    S_T9U23  COST  55.5233  SU_T9U23  -1
    S_T9U24  COST  52.0508  SU_T9U24  -1
    S_T9U25  COST  153.757  SU_T9U25  -1
    S_T9U26  COST  162.487  SU_T9U26  -1
    S_T9U27  COST  137.772  SU_T9U27  -1
    S_T9U28  COST  163.562  SU_T9U28  -1
    S_T9U29  COST  86.1627  SU_T9U29  -1
    S_T9U30  COST  87.7164  SU_T9U30  -1
    S_T10U1  COST  81.0841  SU_T10U1  -1
    S_T10U2  COST  163.55  SU_T10U2  -1
    S_T10U3  COST  90.3009  SU_T10U3  -1
    S_T10U4  COST  124.725  SU_T10U4  -1
    S_T10U5  COST  174.706  SU_T10U5  -1
    S_T10U6  COST  172.458  SU_T10U6  -1
    S_T10U7  COST  63.2612  SU_T10U7  -1
    S_T10U8  COST  138.493  SU_T10U8  -1
    S_T10U9  COST  113.08  SU_T10U9  -1
    S_T10U10  COST  145.904  SU_T10U10  -1
    S_T10U11  COST  185.473  SU_T10U11  -1
    S_T10U12  COST  197.069  SU_T10U12  -1
    S_T10U13  COST  145.497  SU_T10U13  -1
    S_T10U14  COST  63.6503  SU_T10U14  -1
    S_T10U15  COST  132.117  SU_T10U15  -1
    S_T10U16  COST  186.571  SU_T10U16  -1
    S_T10U17  COST  128.54  SU_T10U17  -1
    S_T10U18  COST  169.471  SU_T10U18  -1
    S_T10U19  COST  176.314  SU_T10U19  -1
    S_T10U20  COST  59.9354  SU_T10U20  -1
    S_T10U21  COST  143.121  SU_T10U21  -1
    S_T10U22  COST  81.3696  SU_T10U22  -1
    S_T10U23  COST  101.234  SU_T10U23  -1
    S_T10U24  COST  119.018  SU_T10U24  -1
    S_T10U25  COST  110.045  SU_T10U25  -1
    S_T10U26  COST  77.0101  SU_T10U26  -1
    S_T10U27  COST  111.749  SU_T10U27  -1
    S_T10U28  COST  127.285  SU_T10U28  -1
    S_T10U29  COST  140.29  SU_T10U29  -1
    S_T10U30  COST  173.269  SU_T10U30  -1
    S_T11U1  COST  102.143  SU_T11U1  -1
    S_T11U2  COST  132.307  SU_T11U2  -1
    S_T11U3  COST  103.399  SU_T11U3  -1
    S_T11U4  COST  69.3123  SU_T11U4  -1
    S_T11U5  COST  98.2374  SU_T11U5  -1
    S_T11U6  COST  122.172  SU_T11U6  -1
    S_T11U7  COST  126.749  SU_T11U7  -1
    S_T11U8  COST  106.593  SU_T11U8  -1
    S_T11U9  COST  180.245  SU_T11U9  -1
    S_T11U10  COST  139.592  SU_T11U10  -1
    S_T11U11  COST  130.489  SU_T11U11  -1
    S_T11U12  COST  85.4175  SU_T11U12  -1
    S_T11U13  COST  129.69  SU_T11U13  -1
    S_T11U14  COST  59.3512  SU_T11U14  -1
    S_T11U15  COST  69.9675  SU_T11U15  -1
    S_T11U16  COST  176.666  SU_T11U16  -1
    S_T11U17  COST  54.5708  SU_T11U17  -1
    S_T11U18  COST  103.122  SU_T11U18  -1
    S_T11U19  COST  65.7304  SU_T11U19  -1
    S_T11U20  COST  77.3426  SU_T11U20  -1
    S_T11U21  COST  176.106  SU_T11U21  -1
    S_T11U22  COST  130.3  SU_T11U22  -1
    S_T11U23  COST  101.439  SU_T11U23  -1
    S_T11U24  COST  103.266  SU_T11U24  -1
    S_T11U25  COST  121.937  SU_T11U25  -1
    S_T11U26  COST  160.523  SU_T11U26  -1
    S_T11U27  COST  137.98  SU_T11U27  -1
    S_T11U28  COST  106.816  SU_T11U28  -1
    S_T11U29  COST  184.947  SU_T11U29  -1
    S_T11U30  COST  86.653  SU_T11U30  -1
    S_T12U1  COST  99.5523  SU_T12U1  -1
    S_T12U2  COST  51.1302  SU_T12U2  -1
    S_T12U3  COST  104.804  SU_T12U3  -1
    S_T12U4  COST  177.623  SU_T12U4  -1
    S_T12U5  COST  170.88  SU_T12U5  -1
    S_T12U6  COST  176.347  SU_T12U6  -1
    S_T12U7  COST  52.7364  SU_T12U7  -1
    S_T12U8  COST  199.588  SU_T12U8  -1
    S_T12U9  COST  136.4  SU_T12U9  -1
    S_T12U10  COST  50.795  SU_T12U10  -1
    S_T12U11  COST  123.612  SU_T12U11  -1
    S_T12U12  COST  173.129  SU_T12U12  -1
    S_T12U13  COST  130.256  SU_T12U13  -1
    S_T12U14  COST  175.787  SU_T12U14  -1
    S_T12U15  COST  195.199  SU_T12U15  -1
    S_T12U16  COST  79.926  SU_T12U16  -1
    S_T12U17  COST  129.476  SU_T12U17  -1
    S_T12U18  COST  165.167  SU_T12U18  -1
    S_T12U19  COST  125.916  SU_T12U19  -1
    S_T12U20  COST  98.0963  SU_T12U20  -1
    S_T12U21  COST  105.385  SU_T12U21  -1
    S_T12U22  COST  132.29  SU_T12U22  -1
    S_T12U23  COST  80.2596  SU_T12U23  -1
    S_T12U24  COST  63.1802  SU_T12U24  -1
    S_T12U25  COST  50.4066  SU_T12U25  -1
    S_T12U26  COST  120.975  SU_T12U26  -1
    S_T12U27  COST  169.143  SU_T12U27  -1
    S_T12U28  COST  177.609  SU_T12U28  -1
    S_T12U29  COST  111.278  SU_T12U29  -1
    S_T12U30  COST  198.639  SU_T12U30  -1
    S_T13U1  COST  106.884  SU_T13U1  -1
    S_T13U2  COST  158.239  SU_T13U2  -1
    S_T13U3  COST  167.227  SU_T13U3  -1
    S_T13U4  COST  162.575  SU_T13U4  -1
    S_T13U5  COST  173.77  SU_T13U5  -1
    S_T13U6  COST  85.3538  SU_T13U6  -1
    S_T13U7  COST  186.18  SU_T13U7  -1
    S_T13U8  COST  138.246  SU_T13U8  -1
    S_T13U9  COST  117.792  SU_T13U9  -1
    S_T13U10  COST  184.95  SU_T13U10  -1
    S_T13U11  COST  130.967  SU_T13U11  -1
    S_T13U12  COST  136.623  SU_T13U12  -1
    S_T13U13  COST  108.722  SU_T13U13  -1
    S_T13U14  COST  59.9929  SU_T13U14  -1
    S_T13U15  COST  131.427  SU_T13U15  -1
    S_T13U16  COST  99.9224  SU_T13U16  -1
    S_T13U17  COST  154.058  SU_T13U17  -1
    S_T13U18  COST  181.794  SU_T13U18  -1
    S_T13U19  COST  161.219  SU_T13U19  -1
    S_T13U20  COST  199.654  SU_T13U20  -1
    S_T13U21  COST  156.047  SU_T13U21  -1
    S_T13U22  COST  71.4692  SU_T13U22  -1
    S_T13U23  COST  157.11  SU_T13U23  -1
    S_T13U24  COST  163.195  SU_T13U24  -1
    S_T13U25  COST  130.472  SU_T13U25  -1
    S_T13U26  COST  118.55  SU_T13U26  -1
    S_T13U27  COST  125.343  SU_T13U27  -1
    S_T13U28  COST  122.954  SU_T13U28  -1
    S_T13U29  COST  165.782  SU_T13U29  -1
    S_T13U30  COST  139.766  SU_T13U30  -1
    S_T14U1  COST  157.427  SU_T14U1  -1
    S_T14U2  COST  174.02  SU_T14U2  -1
    S_T14U3  COST  101.379  SU_T14U3  -1
    S_T14U4  COST  113.54  SU_T14U4  -1
    S_T14U5  COST  142.243  SU_T14U5  -1
    S_T14U6  COST  70.8674  SU_T14U6  -1
    S_T14U7  COST  88.4023  SU_T14U7  -1
    S_T14U8  COST  138.944  SU_T14U8  -1
    S_T14U9  COST  187.813  SU_T14U9  -1
    S_T14U10  COST  53.4534  SU_T14U10  -1
    S_T14U11  COST  165.687  SU_T14U11  -1
    S_T14U12  COST  60.3382  SU_T14U12  -1
    S_T14U13  COST  65.637  SU_T14U13  -1
    S_T14U14  COST  186.603  SU_T14U14  -1
    S_T14U15  COST  85.3859  SU_T14U15  -1
    S_T14U16  COST  77.9481  SU_T14U16  -1
    S_T14U17  COST  99.822  SU_T14U17  -1
    S_T14U18  COST  84.1093  SU_T14U18  -1
    S_T14U19  COST  106.896  SU_T14U19  -1
    S_T14U20  COST  80.837  SU_T14U20  -1
    S_T14U21  COST  140.558  SU_T14U21  -1
    S_T14U22  COST  112.176  SU_T14U22  -1
    S_T14U23  COST  188.444  SU_T14U23  -1
    S_T14U24  COST  122.126  SU_T14U24  -1
    S_T14U25  COST  138.06  SU_T14U25  -1
    S_T14U26  COST  186.912  SU_T14U26  -1
    S_T14U27  COST  136.645  SU_T14U27  -1
    S_T14U28  COST  55.0819  SU_T14U28  -1
    S_T14U29  COST  167.074  SU_T14U29  -1
    S_T14U30  COST  83.0146  SU_T14U30  -1
    S_T15U1  COST  127.276  SU_T15U1  -1
    S_T15U2  COST  118.848  SU_T15U2  -1
    S_T15U3  COST  179.095  SU_T15U3  -1
    S_T15U4  COST  77.6694  SU_T15U4  -1
    S_T15U5  COST  96.4905  SU_T15U5  -1
    S_T15U6  COST  114.018  SU_T15U6  -1
    S_T15U7  COST  102.408  SU_T15U7  -1
    S_T15U8  COST  143.746  SU_T15U8  -1
    S_T15U9  COST  175.485  SU_T15U9  -1
    S_T15U10  COST  94.1067  SU_T15U10  -1
    S_T15U11  COST  129.147  SU_T15U11  -1
    S_T15U12  COST  122.163  SU_T15U12  -1
    S_T15U13  COST  164.803  SU_T15U13  -1
    S_T15U14  COST  100.154  SU_T15U14  -1
    S_T15U15  COST  162.987  SU_T15U15  -1
    S_T15U16  COST  184.615  SU_T15U16  -1
    S_T15U17  COST  170.112  SU_T15U17  -1
    S_T15U18  COST  175.968  SU_T15U18  -1
    S_T15U19  COST  111.198  SU_T15U19  -1
    S_T15U20  COST  88.0833  SU_T15U20  -1
    S_T15U21  COST  125.826  SU_T15U21  -1
    S_T15U22  COST  100.891  SU_T15U22  -1
    S_T15U23  COST  183.119  SU_T15U23  -1
    S_T15U24  COST  158.122  SU_T15U24  -1
    S_T15U25  COST  198.309  SU_T15U25  -1
    S_T15U26  COST  171.028  SU_T15U26  -1
    S_T15U27  COST  191.661  SU_T15U27  -1
    S_T15U28  COST  110.959  SU_T15U28  -1
    S_T15U29  COST  63.0388  SU_T15U29  -1
    S_T15U30  COST  160.386  SU_T15U30  -1
    S_T16U1  COST  68.4165  SU_T16U1  -1
    S_T16U2  COST  146.439  SU_T16U2  -1
    S_T16U3  COST  186.594  SU_T16U3  -1
    S_T16U4  COST  100.38  SU_T16U4  -1
    S_T16U5  COST  104.459  SU_T16U5  -1
    S_T16U6  COST  174.598  SU_T16U6  -1
    S_T16U7  COST  166.075  SU_T16U7  -1
    S_T16U8  COST  179.16  SU_T16U8  -1
    S_T16U9  COST  196.182  SU_T16U9  -1
    S_T16U10  COST  67.1357  SU_T16U10  -1
    S_T16U11  COST  197.805  SU_T16U11  -1
    S_T16U12  COST  77.3161  SU_T16U12  -1
    S_T16U13  COST  126.869  SU_T16U13  -1
    S_T16U14  COST  154.827  SU_T16U14  -1
    S_T16U15  COST  82.7035  SU_T16U15  -1
    S_T16U16  COST  113.256  SU_T16U16  -1
    S_T16U17  COST  185.086  SU_T16U17  -1
    S_T16U18  COST  152.478  SU_T16U18  -1
    S_T16U19  COST  129.449  SU_T16U19  -1
    S_T16U20  COST  124.714  SU_T16U20  -1
    S_T16U21  COST  110.787  SU_T16U21  -1
    S_T16U22  COST  158.03  SU_T16U22  -1
    S_T16U23  COST  71.0028  SU_T16U23  -1
    S_T16U24  COST  89.9748  SU_T16U24  -1
    S_T16U25  COST  87.6096  SU_T16U25  -1
    S_T16U26  COST  124.141  SU_T16U26  -1
    S_T16U27  COST  175.716  SU_T16U27  -1
    S_T16U28  COST  165.637  SU_T16U28  -1
    S_T16U29  COST  103.081  SU_T16U29  -1
    S_T16U30  COST  77.6556  SU_T16U30  -1
    S_T17U1  COST  165.648  SU_T17U1  -1
    S_T17U2  COST  175.562  SU_T17U2  -1
    S_T17U3  COST  187.327  SU_T17U3  -1
    S_T17U4  COST  141.561  SU_T17U4  -1
    S_T17U5  COST  109.497  SU_T17U5  -1
    S_T17U6  COST  70.2502  SU_T17U6  -1
    S_T17U7  COST  90.4867  SU_T17U7  -1
    S_T17U8  COST  74.3021  SU_T17U8  -1
    S_T17U9  COST  176.961  SU_T17U9  -1
    S_T17U10  COST  73.2008  SU_T17U10  -1
    S_T17U11  COST  121.136  SU_T17U11  -1
    S_T17U12  COST  102.731  SU_T17U12  -1
    S_T17U13  COST  155.739  SU_T17U13  -1
    S_T17U14  COST  118.952  SU_T17U14  -1
    S_T17U15  COST  61.6648  SU_T17U15  -1
    S_T17U16  COST  195.155  SU_T17U16  -1
    S_T17U17  COST  65.4641  SU_T17U17  -1
    S_T17U18  COST  171.115  SU_T17U18  -1
    S_T17U19  COST  168.502  SU_T17U19  -1
    S_T17U20  COST  128.195  SU_T17U20  -1
    S_T17U21  COST  193.726  SU_T17U21  -1
    S_T17U22  COST  145.842  SU_T17U22  -1
    S_T17U23  COST  158.615  SU_T17U23  -1
    S_T17U24  COST  197.087  SU_T17U24  -1
    S_T17U25  COST  147  SU_T17U25  -1
    S_T17U26  COST  57.7394  SU_T17U26  -1
    S_T17U27  COST  56.6248  SU_T17U27  -1
    S_T17U28  COST  199.903  SU_T17U28  -1
    S_T17U29  COST  120.982  SU_T17U29  -1
    S_T17U30  COST  68.0784  SU_T17U30  -1
    S_T18U1  COST  78.8899  SU_T18U1  -1
    S_T18U2  COST  113.264  SU_T18U2  -1
    S_T18U3  COST  161.76  SU_T18U3  -1
    S_T18U4  COST  118.272  SU_T18U4  -1
    S_T18U5  COST  146.682  SU_T18U5  -1
    S_T18U6  COST  104.705  SU_T18U6  -1
    S_T18U7  COST  122.159  SU_T18U7  -1
    S_T18U8  COST  129.54  SU_T18U8  -1
    S_T18U9  COST  110.673  SU_T18U9  -1
    S_T18U10  COST  170.597  SU_T18U10  -1
    S_T18U11  COST  149.248  SU_T18U11  -1
    S_T18U12  COST  128.025  SU_T18U12  -1
    S_T18U13  COST  181.5  SU_T18U13  -1
    S_T18U14  COST  119.291  SU_T18U14  -1
    S_T18U15  COST  50.0356  SU_T18U15  -1
    S_T18U16  COST  107.595  SU_T18U16  -1
    S_T18U17  COST  60.5045  SU_T18U17  -1
    S_T18U18  COST  57.9026  SU_T18U18  -1
    S_T18U19  COST  55.6395  SU_T18U19  -1
    S_T18U20  COST  137.114  SU_T18U20  -1
    S_T18U21  COST  109.743  SU_T18U21  -1
    S_T18U22  COST  100.456  SU_T18U22  -1
    S_T18U23  COST  159.841  SU_T18U23  -1
    S_T18U24  COST  120.097  SU_T18U24  -1
    S_T18U25  COST  177.923  SU_T18U25  -1
    S_T18U26  COST  138.366  SU_T18U26  -1
    S_T18U27  COST  186.551  SU_T18U27  -1
    S_T18U28  COST  66.4201  SU_T18U28  -1
    S_T18U29  COST  68.6656  SU_T18U29  -1
    S_T18U30  COST  169.698  SU_T18U30  -1
    S_T19U1  COST  138.283  SU_T19U1  -1
    S_T19U2  COST  182.63  SU_T19U2  -1
    S_T19U3  COST  185.559  SU_T19U3  -1
    S_T19U4  COST  161.503  SU_T19U4  -1
    S_T19U5  COST  110.237  SU_T19U5  -1
    S_T19U6  COST  84.5854  SU_T19U6  -1
    S_T19U7  COST  68.0508  SU_T19U7  -1
    S_T19U8  COST  107.614  SU_T19U8  -1
    S_T19U9  COST  193.591  SU_T19U9  -1
    S_T19U10  COST  170.115  SU_T19U10  -1
    S_T19U11  COST  82.4486  SU_T19U11  -1
    S_T19U12  COST  139.591  SU_T19U12  -1
    S_T19U13  COST  89.035  SU_T19U13  -1
    S_T19U14  COST  123.678  SU_T19U14  -1
    S_T19U15  COST  184.615  SU_T19U15  -1
    S_T19U16  COST  143.441  SU_T19U16  -1
    S_T19U17  COST  55.2298  SU_T19U17  -1
    S_T19U18  COST  179.019  SU_T19U18  -1
    S_T19U19  COST  108.675  SU_T19U19  -1
    S_T19U20  COST  121.502  SU_T19U20  -1
    S_T19U21  COST  177.829  SU_T19U21  -1
    S_T19U22  COST  99.3577  SU_T19U22  -1
    S_T19U23  COST  160.282  SU_T19U23  -1
    S_T19U24  COST  87.8974  SU_T19U24  -1
    S_T19U25  COST  154.357  SU_T19U25  -1
    S_T19U26  COST  129.89  SU_T19U26  -1
    S_T19U27  COST  66.4203  SU_T19U27  -1
    S_T19U28  COST  198.721  SU_T19U28  -1
    S_T19U29  COST  182.436  SU_T19U29  -1
    S_T19U30  COST  185.977  SU_T19U30  -1
    S_T20U1  COST  149.317  SU_T20U1  -1
    S_T20U2  COST  179.674  SU_T20U2  -1
    S_T20U3  COST  128.189  SU_T20U3  -1
    S_T20U4  COST  86.7928  SU_T20U4  -1
    S_T20U5  COST  74.06  SU_T20U5  -1
    S_T20U6  COST  85.8035  SU_T20U6  -1
    S_T20U7  COST  65.8751  SU_T20U7  -1
    S_T20U8  COST  78.3832  SU_T20U8  -1
    S_T20U9  COST  194.197  SU_T20U9  -1
    S_T20U10  COST  181.861  SU_T20U10  -1
    S_T20U11  COST  172.992  SU_T20U11  -1
    S_T20U12  COST  186.305  SU_T20U12  -1
    S_T20U13  COST  133.427  SU_T20U13  -1
    S_T20U14  COST  88.8032  SU_T20U14  -1
    S_T20U15  COST  62.6147  SU_T20U15  -1
    S_T20U16  COST  133.977  SU_T20U16  -1
    S_T20U17  COST  106.504  SU_T20U17  -1
    S_T20U18  COST  172.802  SU_T20U18  -1
    S_T20U19  COST  92.5014  SU_T20U19  -1
    S_T20U20  COST  114.836  SU_T20U20  -1
    S_T20U21  COST  108.823  SU_T20U21  -1
    S_T20U22  COST  163.055  SU_T20U22  -1
    S_T20U23  COST  76.063  SU_T20U23  -1
    S_T20U24  COST  192.095  SU_T20U24  -1
    S_T20U25  COST  165.648  SU_T20U25  -1
    S_T20U26  COST  121.036  SU_T20U26  -1
    S_T20U27  COST  61.2042  SU_T20U27  -1
    S_T20U28  COST  198.522  SU_T20U28  -1
    S_T20U29  COST  116.894  SU_T20U29  -1
    S_T20U30  COST  139.159  SU_T20U30  -1
    S_T21U1  COST  59.8439  SU_T21U1  -1
    S_T21U2  COST  105.775  SU_T21U2  -1
    S_T21U3  COST  87.8763  SU_T21U3  -1
    S_T21U4  COST  73.8407  SU_T21U4  -1
    S_T21U5  COST  191.646  SU_T21U5  -1
    S_T21U6  COST  178.131  SU_T21U6  -1
    S_T21U7  COST  173.888  SU_T21U7  -1
    S_T21U8  COST  175.992  SU_T21U8  -1
    S_T21U9  COST  84.5081  SU_T21U9  -1
    S_T21U10  COST  180.208  SU_T21U10  -1
    S_T21U11  COST  54.6953  SU_T21U11  -1
    S_T21U12  COST  186.429  SU_T21U12  -1
    S_T21U13  COST  194.678  SU_T21U13  -1
    S_T21U14  COST  116.345  SU_T21U14  -1
    S_T21U15  COST  98.1114  SU_T21U15  -1
    S_T21U16  COST  161.876  SU_T21U16  -1
    S_T21U17  COST  180.218  SU_T21U17  -1
    S_T21U18  COST  134.413  SU_T21U18  -1
    S_T21U19  COST  131.485  SU_T21U19  -1
    S_T21U20  COST  80.5552  SU_T21U20  -1
    S_T21U21  COST  73.0487  SU_T21U21  -1
    S_T21U22  COST  129.553  SU_T21U22  -1
    S_T21U23  COST  169.52  SU_T21U23  -1
    S_T21U24  COST  186.775  SU_T21U24  -1
    S_T21U25  COST  77.8188  SU_T21U25  -1
    S_T21U26  COST  50.1848  SU_T21U26  -1
    S_T21U27  COST  141.096  SU_T21U27  -1
    S_T21U28  COST  133.762  SU_T21U28  -1
    S_T21U29  COST  74.1238  SU_T21U29  -1
    S_T21U30  COST  98.8888  SU_T21U30  -1
    S_T22U1  COST  114.987  SU_T22U1  -1
    S_T22U2  COST  72.4371  SU_T22U2  -1
    S_T22U3  COST  152.068  SU_T22U3  -1
    S_T22U4  COST  196.205  SU_T22U4  -1
    S_T22U5  COST  148.548  SU_T22U5  -1
    S_T22U6  COST  192.897  SU_T22U6  -1
    S_T22U7  COST  158.643  SU_T22U7  -1
    S_T22U8  COST  71.8883  SU_T22U8  -1
    S_T22U9  COST  135.636  SU_T22U9  -1
    S_T22U10  COST  122.353  SU_T22U10  -1
    S_T22U11  COST  101.902  SU_T22U11  -1
    S_T22U12  COST  191.186  SU_T22U12  -1
    S_T22U13  COST  130.136  SU_T22U13  -1
    S_T22U14  COST  62.3763  SU_T22U14  -1
    S_T22U15  COST  103.67  SU_T22U15  -1
    S_T22U16  COST  196.62  SU_T22U16  -1
    S_T22U17  COST  153.979  SU_T22U17  -1
    S_T22U18  COST  56.1775  SU_T22U18  -1
    S_T22U19  COST  192.732  SU_T22U19  -1
    S_T22U20  COST  184.433  SU_T22U20  -1
    S_T22U21  COST  142.491  SU_T22U21  -1
    S_T22U22  COST  94.8254  SU_T22U22  -1
    S_T22U23  COST  192.103  SU_T22U23  -1
    S_T22U24  COST  167.513  SU_T22U24  -1
    S_T22U25  COST  122.66  SU_T22U25  -1
    S_T22U26  COST  132.95  SU_T22U26  -1
    S_T22U27  COST  167.575  SU_T22U27  -1
    S_T22U28  COST  56.1131  SU_T22U28  -1
    S_T22U29  COST  115.791  SU_T22U29  -1
    S_T22U30  COST  138.992  SU_T22U30  -1
    S_T23U1  COST  121.892  SU_T23U1  -1
    S_T23U2  COST  99.3526  SU_T23U2  -1
    S_T23U3  COST  161.642  SU_T23U3  -1
    S_T23U4  COST  115.048  SU_T23U4  -1
    S_T23U5  COST  74.2509  SU_T23U5  -1
    S_T23U6  COST  147.989  SU_T23U6  -1
    S_T23U7  COST  131.372  SU_T23U7  -1
    S_T23U8  COST  62.229  SU_T23U8  -1
    S_T23U9  COST  83.0842  SU_T23U9  -1
    S_T23U10  COST  80.5367  SU_T23U10  -1
    S_T23U11  COST  76.129  SU_T23U11  -1
    S_T23U12  COST  112.386  SU_T23U12  -1
    S_T23U13  COST  144.315  SU_T23U13  -1
    S_T23U14  COST  165.159  SU_T23U14  -1
    S_T23U15  COST  131.495  SU_T23U15  -1
    S_T23U16  COST  138.209  SU_T23U16  -1
    S_T23U17  COST  109.327  SU_T23U17  -1
    S_T23U18  COST  139.659  SU_T23U18  -1
    S_T23U19  COST  148.251  SU_T23U19  -1
    S_T23U20  COST  92.5782  SU_T23U20  -1
    S_T23U21  COST  107.577  SU_T23U21  -1
    S_T23U22  COST  175.4  SU_T23U22  -1
    S_T23U23  COST  166.4  SU_T23U23  -1
    S_T23U24  COST  140.278  SU_T23U24  -1
    S_T23U25  COST  105.927  SU_T23U25  -1
    S_T23U26  COST  111.955  SU_T23U26  -1
    S_T23U27  COST  115.575  SU_T23U27  -1
    S_T23U28  COST  110.753  SU_T23U28  -1
    S_T23U29  COST  136.912  SU_T23U29  -1
    S_T23U30  COST  64.2892  SU_T23U30  -1
    S_T24U1  COST  96.8222  SU_T24U1  -1
    S_T24U2  COST  178.698  SU_T24U2  -1
    S_T24U3  COST  138.262  SU_T24U3  -1
    S_T24U4  COST  109.499  SU_T24U4  -1
    S_T24U5  COST  85.2011  SU_T24U5  -1
    S_T24U6  COST  116.304  SU_T24U6  -1
    S_T24U7  COST  117.317  SU_T24U7  -1
    S_T24U8  COST  71.8635  SU_T24U8  -1
    S_T24U9  COST  138.183  SU_T24U9  -1
    S_T24U10  COST  87.8792  SU_T24U10  -1
    S_T24U11  COST  106.904  SU_T24U11  -1
    S_T24U12  COST  103.51  SU_T24U12  -1
    S_T24U13  COST  167.269  SU_T24U13  -1
    S_T24U14  COST  116.955  SU_T24U14  -1
    S_T24U15  COST  133.721  SU_T24U15  -1
    S_T24U16  COST  55.1282  SU_T24U16  -1
    S_T24U17  COST  68.4456  SU_T24U17  -1
    S_T24U18  COST  57.7545  SU_T24U18  -1
    S_T24U19  COST  83.7052  SU_T24U19  -1
    S_T24U20  COST  63.2833  SU_T24U20  -1
    S_T24U21  COST  137.701  SU_T24U21  -1
    S_T24U22  COST  109.607  SU_T24U22  -1
    S_T24U23  COST  152.895  SU_T24U23  -1
    S_T24U24  COST  98.4696  SU_T24U24  -1
    S_T24U25  COST  137.017  SU_T24U25  -1
    S_T24U26  COST  128.26  SU_T24U26  -1
    S_T24U27  COST  129.837  SU_T24U27  -1
    S_T24U28  COST  69.9072  SU_T24U28  -1
    S_T24U29  COST  190.973  SU_T24U29  -1
    S_T24U30  COST  74.3573  SU_T24U30  -1
    S_T25U1  COST  159.624  SU_T25U1  -1
    S_T25U2  COST  85.1842  SU_T25U2  -1
    S_T25U3  COST  88.296  SU_T25U3  -1
    S_T25U4  COST  196.795  SU_T25U4  -1
    S_T25U5  COST  52.6274  SU_T25U5  -1
    S_T25U6  COST  174.632  SU_T25U6  -1
    S_T25U7  COST  165.278  SU_T25U7  -1
    S_T25U8  COST  169.327  SU_T25U8  -1
    S_T25U9  COST  140.091  SU_T25U9  -1
    S_T25U10  COST  174.026  SU_T25U10  -1
    S_T25U11  COST  136.578  SU_T25U11  -1
    S_T25U12  COST  73.8931  SU_T25U12  -1
    S_T25U13  COST  97.7167  SU_T25U13  -1
    S_T25U14  COST  199.001  SU_T25U14  -1
    S_T25U15  COST  63.5723  SU_T25U15  -1
    S_T25U16  COST  66.3664  SU_T25U16  -1
    S_T25U17  COST  164.779  SU_T25U17  -1
    S_T25U18  COST  115.726  SU_T25U18  -1
    S_T25U19  COST  181.684  SU_T25U19  -1
    S_T25U20  COST  180.335  SU_T25U20  -1
    S_T25U21  COST  94.5304  SU_T25U21  -1
    S_T25U22  COST  99.2572  SU_T25U22  -1
    S_T25U23  COST  141.475  SU_T25U23  -1
    S_T25U24  COST  107.063  SU_T25U24  -1
    S_T25U25  COST  139.473  SU_T25U25  -1
    S_T25U26  COST  116.663  SU_T25U26  -1
    S_T25U27  COST  138.059  SU_T25U27  -1
    S_T25U28  COST  146.386  SU_T25U28  -1
    S_T25U29  COST  125.067  SU_T25U29  -1
    S_T25U30  COST  192.722  SU_T25U30  -1
    S_T26U1  COST  187.135  SU_T26U1  -1
    S_T26U2  COST  66.3378  SU_T26U2  -1
    S_T26U3  COST  128.994  SU_T26U3  -1
    S_T26U4  COST  121.504  SU_T26U4  -1
    S_T26U5  COST  132.412  SU_T26U5  -1
    S_T26U6  COST  157.324  SU_T26U6  -1
    S_T26U7  COST  173.359  SU_T26U7  -1
    S_T26U8  COST  184.507  SU_T26U8  -1
    S_T26U9  COST  193.199  SU_T26U9  -1
    S_T26U10  COST  107.011  SU_T26U10  -1
    S_T26U11  COST  121.877  SU_T26U11  -1
    S_T26U12  COST  74.9497  SU_T26U12  -1
    S_T26U13  COST  128.463  SU_T26U13  -1
    S_T26U14  COST  189.441  SU_T26U14  -1
    S_T26U15  COST  137.14  SU_T26U15  -1
    S_T26U16  COST  157.645  SU_T26U16  -1
    S_T26U17  COST  196.509  SU_T26U17  -1
    S_T26U18  COST  128.372  SU_T26U18  -1
    S_T26U19  COST  178.912  SU_T26U19  -1
    S_T26U20  COST  77.6878  SU_T26U20  -1
    S_T26U21  COST  169.011  SU_T26U21  -1
    S_T26U22  COST  187.663  SU_T26U22  -1
    S_T26U23  COST  63.0558  SU_T26U23  -1
    S_T26U24  COST  106.026  SU_T26U24  -1
    S_T26U25  COST  66.8457  SU_T26U25  -1
    S_T26U26  COST  145.698  SU_T26U26  -1
    S_T26U27  COST  139.031  SU_T26U27  -1
    S_T26U28  COST  146.991  SU_T26U28  -1
    S_T26U29  COST  104.116  SU_T26U29  -1
    S_T26U30  COST  165.492  SU_T26U30  -1
    S_T27U1  COST  88.3467  SU_T27U1  -1
    S_T27U2  COST  159.794  SU_T27U2  -1
    S_T27U3  COST  150.714  SU_T27U3  -1
    S_T27U4  COST  164.998  SU_T27U4  -1
    S_T27U5  COST  113.592  SU_T27U5  -1
    S_T27U6  COST  85.2853  SU_T27U6  -1
    S_T27U7  COST  120.934  SU_T27U7  -1
    S_T27U8  COST  76.7669  SU_T27U8  -1
    S_T27U9  COST  84.5369  SU_T27U9  -1
    S_T27U10  COST  145.694  SU_T27U10  -1
    S_T27U11  COST  144.802  SU_T27U11  -1
    S_T27U12  COST  71.2662  SU_T27U12  -1
    S_T27U13  COST  139.557  SU_T27U13  -1
    S_T27U14  COST  116.408  SU_T27U14  -1
    S_T27U15  COST  158.678  SU_T27U15  -1
    S_T27U16  COST  101.164  SU_T27U16  -1
    S_T27U17  COST  140.483  SU_T27U17  -1
    S_T27U18  COST  185.829  SU_T27U18  -1
    S_T27U19  COST  89.7343  SU_T27U19  -1
    S_T27U20  COST  139.363  SU_T27U20  -1
    S_T27U21  COST  105.043  SU_T27U21  -1
    S_T27U22  COST  142.573  SU_T27U22  -1
    S_T27U23  COST  174.779  SU_T27U23  -1
    S_T27U24  COST  60.4897  SU_T27U24  -1
    S_T27U25  COST  90.6721  SU_T27U25  -1
    S_T27U26  COST  152.02  SU_T27U26  -1
    S_T27U27  COST  118.529  SU_T27U27  -1
    S_T27U28  COST  57.8508  SU_T27U28  -1
    S_T27U29  COST  104.442  SU_T27U29  -1
    S_T27U30  COST  116.953  SU_T27U30  -1
    S_T28U1  COST  137.071  SU_T28U1  -1
    S_T28U2  COST  194.25  SU_T28U2  -1
    S_T28U3  COST  163.226  SU_T28U3  -1
    S_T28U4  COST  111.422  SU_T28U4  -1
    S_T28U5  COST  173.271  SU_T28U5  -1
    S_T28U6  COST  95.128  SU_T28U6  -1
    S_T28U7  COST  121.233  SU_T28U7  -1
    S_T28U8  COST  67.9744  SU_T28U8  -1
    S_T28U9  COST  53.004  SU_T28U9  -1
    S_T28U10  COST  165.29  SU_T28U10  -1
    S_T28U11  COST  150.734  SU_T28U11  -1
    S_T28U12  COST  88.5571  SU_T28U12  -1
    S_T28U13  COST  179.703  SU_T28U13  -1
    S_T28U14  COST  126.026  SU_T28U14  -1
    S_T28U15  COST  59.4664  SU_T28U15  -1
    S_T28U16  COST  84.1036  SU_T28U16  -1
    S_T28U17  COST  107.136  SU_T28U17  -1
    S_T28U18  COST  85.8583  SU_T28U18  -1
    S_T28U19  COST  173.793  SU_T28U19  -1
    S_T28U20  COST  191.358  SU_T28U20  -1
    S_T28U21  COST  74.2646  SU_T28U21  -1
    S_T28U22  COST  136.188  SU_T28U22  -1
    S_T28U23  COST  108.656  SU_T28U23  -1
    S_T28U24  COST  109.577  SU_T28U24  -1
    S_T28U25  COST  144.193  SU_T28U25  -1
    S_T28U26  COST  129.872  SU_T28U26  -1
    S_T28U27  COST  71.1917  SU_T28U27  -1
    S_T28U28  COST  172.81  SU_T28U28  -1
    S_T28U29  COST  53.4341  SU_T28U29  -1
    S_T28U30  COST  83.5422  SU_T28U30  -1
    S_T29U1  COST  135.956  SU_T29U1  -1
    S_T29U2  COST  136.275  SU_T29U2  -1
    S_T29U3  COST  97.0592  SU_T29U3  -1
    S_T29U4  COST  70.8797  SU_T29U4  -1
    S_T29U5  COST  174.4  SU_T29U5  -1
    S_T29U6  COST  192.92  SU_T29U6  -1
    S_T29U7  COST  149.946  SU_T29U7  -1
    S_T29U8  COST  121.735  SU_T29U8  -1
    S_T29U9  COST  84.8827  SU_T29U9  -1
    S_T29U10  COST  166.509  SU_T29U10  -1
    S_T29U11  COST  139.144  SU_T29U11  -1
    S_T29U12  COST  181.416  SU_T29U12  -1
    S_T29U13  COST  177.717  SU_T29U13  -1
    S_T29U14  COST  52.6532  SU_T29U14  -1
    S_T29U15  COST  104.72  SU_T29U15  -1
    S_T29U16  COST  134.666  SU_T29U16  -1
    S_T29U17  COST  81.7633  SU_T29U17  -1
    S_T29U18  COST  163.138  SU_T29U18  -1
    S_T29U19  COST  94.6033  SU_T29U19  -1
    S_T29U20  COST  75.5997  SU_T29U20  -1
    S_T29U21  COST  167.404  SU_T29U21  -1
    S_T29U22  COST  76.665  SU_T29U22  -1
    S_T29U23  COST  142.708  SU_T29U23  -1
    S_T29U24  COST  84.3342  SU_T29U24  -1
    S_T29U25  COST  83.1204  SU_T29U25  -1
    S_T29U26  COST  148.359  SU_T29U26  -1
    S_T29U27  COST  158.648  SU_T29U27  -1
    S_T29U28  COST  110.72  SU_T29U28  -1
    S_T29U29  COST  103.135  SU_T29U29  -1
    S_T29U30  COST  122.245  SU_T29U30  -1
    S_T30U1  COST  108.062  SU_T30U1  -1
    S_T30U2  COST  87.287  SU_T30U2  -1
    S_T30U3  COST  112.787  SU_T30U3  -1
    S_T30U4  COST  137.322  SU_T30U4  -1
    S_T30U5  COST  78.4542  SU_T30U5  -1
    S_T30U6  COST  98.5251  SU_T30U6  -1
    S_T30U7  COST  144.395  SU_T30U7  -1
    S_T30U8  COST  59.6925  SU_T30U8  -1
    S_T30U9  COST  105.711  SU_T30U9  -1
    S_T30U10  COST  146.914  SU_T30U10  -1
    S_T30U11  COST  89.9029  SU_T30U11  -1
    S_T30U12  COST  69.08  SU_T30U12  -1
    S_T30U13  COST  86.5217  SU_T30U13  -1
    S_T30U14  COST  171.603  SU_T30U14  -1
    S_T30U15  COST  178.935  SU_T30U15  -1
    S_T30U16  COST  193.433  SU_T30U16  -1
    S_T30U17  COST  65.3224  SU_T30U17  -1
    S_T30U18  COST  191.425  SU_T30U18  -1
    S_T30U19  COST  61.4625  SU_T30U19  -1
    S_T30U20  COST  189.548  SU_T30U20  -1
    S_T30U21  COST  167.176  SU_T30U21  -1
    S_T30U22  COST  124.318  SU_T30U22  -1
    S_T30U23  COST  117.519  SU_T30U23  -1
    S_T30U24  COST  183.409  SU_T30U24  -1
    S_T30U25  COST  182.369  SU_T30U25  -1
    S_T30U26  COST  198.241  SU_T30U26  -1
    S_T30U27  COST  57.1746  SU_T30U27  -1
    S_T30U28  COST  161.931  SU_T30U28  -1
    S_T30U29  COST  170.32  SU_T30U29  -1
    S_T30U30  COST  55.3356  SU_T30U30  -1
    S_T31U1  COST  108.139  SU_T31U1  -1
    S_T31U2  COST  198.738  SU_T31U2  -1
    S_T31U3  COST  191.347  SU_T31U3  -1
    S_T31U4  COST  103.226  SU_T31U4  -1
    S_T31U5  COST  132.442  SU_T31U5  -1
    S_T31U6  COST  60.3069  SU_T31U6  -1
    S_T31U7  COST  62.3926  SU_T31U7  -1
    S_T31U8  COST  184.835  SU_T31U8  -1
    S_T31U9  COST  84.1764  SU_T31U9  -1
    S_T31U10  COST  150.103  SU_T31U10  -1
    S_T31U11  COST  88.312  SU_T31U11  -1
    S_T31U12  COST  60.3881  SU_T31U12  -1
    S_T31U13  COST  121.738  SU_T31U13  -1
    S_T31U14  COST  98.3323  SU_T31U14  -1
    S_T31U15  COST  121.15  SU_T31U15  -1
    S_T31U16  COST  122.902  SU_T31U16  -1
    S_T31U17  COST  128.115  SU_T31U17  -1
    S_T31U18  COST  73.4958  SU_T31U18  -1
    S_T31U19  COST  66.6212  SU_T31U19  -1
    S_T31U20  COST  64.2518  SU_T31U20  -1
    S_T31U21  COST  132.514  SU_T31U21  -1
    S_T31U22  COST  74.5526  SU_T31U22  -1
    S_T31U23  COST  189.248  SU_T31U23  -1
    S_T31U24  COST  124.407  SU_T31U24  -1
    S_T31U25  COST  198.862  SU_T31U25  -1
    S_T31U26  COST  97.5384  SU_T31U26  -1
    S_T31U27  COST  88.7647  SU_T31U27  -1
    S_T31U28  COST  145.411  SU_T31U28  -1
    S_T31U29  COST  196.76  SU_T31U29  -1
    S_T31U30  COST  133.672  SU_T31U30  -1
    S_T32U1  COST  58.0787  SU_T32U1  -1
    S_T32U2  COST  162.978  SU_T32U2  -1
    S_T32U3  COST  130.933  SU_T32U3  -1
    S_T32U4  COST  66.1916  SU_T32U4  -1
    S_T32U5  COST  63.7806  SU_T32U5  -1
    S_T32U6  COST  123.259  SU_T32U6  -1
    S_T32U7  COST  101.358  SU_T32U7  -1
    S_T32U8  COST  163.728  SU_T32U8  -1
    S_T32U9  COST  141.791  SU_T32U9  -1
    S_T32U10  COST  72.7354  SU_T32U10  -1
    S_T32U11  COST  136.576  SU_T32U11  -1
    S_T32U12  COST  115.07  SU_T32U12  -1
    S_T32U13  COST  133.706  SU_T32U13  -1
    S_T32U14  COST  161.257  SU_T32U14  -1
    S_T32U15  COST  91.6853  SU_T32U15  -1
    S_T32U16  COST  181.972  SU_T32U16  -1
    S_T32U17  COST  96.6393  SU_T32U17  -1
    S_T32U18  COST  172.268  SU_T32U18  -1
    S_T32U19  COST  153.183  SU_T32U19  -1
    S_T32U20  COST  130.804  SU_T32U20  -1
    S_T32U21  COST  177.207  SU_T32U21  -1
    S_T32U22  COST  174.902  SU_T32U22  -1
    S_T32U23  COST  162.432  SU_T32U23  -1
    S_T32U24  COST  151.757  SU_T32U24  -1
    S_T32U25  COST  176.296  SU_T32U25  -1
    S_T32U26  COST  125.308  SU_T32U26  -1
    S_T32U27  COST  107.806  SU_T32U27  -1
    S_T32U28  COST  167.06  SU_T32U28  -1
    S_T32U29  COST  70.6734  SU_T32U29  -1
    S_T32U30  COST  50.282  SU_T32U30  -1
    S_T33U1  COST  54.3607  SU_T33U1  -1
    S_T33U2  COST  77.1979  SU_T33U2  -1
    S_T33U3  COST  110.349  SU_T33U3  -1
    S_T33U4  COST  126.516  SU_T33U4  -1
    S_T33U5  COST  65.6206  SU_T33U5  -1
    S_T33U6  COST  155.442  SU_T33U6  -1
    S_T33U7  COST  122.99  SU_T33U7  -1
    S_T33U8  COST  140.322  SU_T33U8  -1
    S_T33U9  COST  98.3162  SU_T33U9  -1
    S_T33U10  COST  72.35  SU_T33U10  -1
    S_T33U11  COST  161.889  SU_T33U11  -1
    S_T33U12  COST  81.4763  SU_T33U12  -1
    S_T33U13  COST  128.044  SU_T33U13  -1
    S_T33U14  COST  68.3565  SU_T33U14  -1
    S_T33U15  COST  85.3786  SU_T33U15  -1
    S_T33U16  COST  59.3813  SU_T33U16  -1
    S_T33U17  COST  164.988  SU_T33U17  -1
    S_T33U18  COST  94.9165  SU_T33U18  -1
    S_T33U19  COST  145.633  SU_T33U19  -1
    S_T33U20  COST  76.7379  SU_T33U20  -1
    S_T33U21  COST  198.669  SU_T33U21  -1
    S_T33U22  COST  160.998  SU_T33U22  -1
    S_T33U23  COST  80.4405  SU_T33U23  -1
    S_T33U24  COST  196.947  SU_T33U24  -1
    S_T33U25  COST  155.038  SU_T33U25  -1
    S_T33U26  COST  137.972  SU_T33U26  -1
    S_T33U27  COST  189.443  SU_T33U27  -1
    S_T33U28  COST  58.4204  SU_T33U28  -1
    S_T33U29  COST  83.8312  SU_T33U29  -1
    S_T33U30  COST  119.26  SU_T33U30  -1
    S_T34U1  COST  115.277  SU_T34U1  -1
    S_T34U2  COST  155.903  SU_T34U2  -1
    S_T34U3  COST  57.4763  SU_T34U3  -1
    S_T34U4  COST  186.409  SU_T34U4  -1
    S_T34U5  COST  51.0544  SU_T34U5  -1
    S_T34U6  COST  83.7836  SU_T34U6  -1
    S_T34U7  COST  109.825  SU_T34U7  -1
    S_T34U8  COST  120.809  SU_T34U8  -1
    S_T34U9  COST  92.4119  SU_T34U9  -1
    S_T34U10  COST  55.4431  SU_T34U10  -1
    S_T34U11  COST  91.3419  SU_T34U11  -1
    S_T34U12  COST  196.225  SU_T34U12  -1
    S_T34U13  COST  114.333  SU_T34U13  -1
    S_T34U14  COST  90.2209  SU_T34U14  -1
    S_T34U15  COST  177.963  SU_T34U15  -1
    S_T34U16  COST  142.955  SU_T34U16  -1
    S_T34U17  COST  101.888  SU_T34U17  -1
    S_T34U18  COST  165.779  SU_T34U18  -1
    S_T34U19  COST  85.5176  SU_T34U19  -1
    S_T34U20  COST  132.248  SU_T34U20  -1
    S_T34U21  COST  182.32  SU_T34U21  -1
    S_T34U22  COST  174.18  SU_T34U22  -1
    S_T34U23  COST  143.664  SU_T34U23  -1
    S_T34U24  COST  196.933  SU_T34U24  -1
    S_T34U25  COST  158.773  SU_T34U25  -1
    S_T34U26  COST  100.739  SU_T34U26  -1
    S_T34U27  COST  192.055  SU_T34U27  -1
    S_T34U28  COST  77.4523  SU_T34U28  -1
    S_T34U29  COST  158.001  SU_T34U29  -1
    S_T34U30  COST  63.326  SU_T34U30  -1
    S_T35U1  COST  131.766  SU_T35U1  -1
    S_T35U2  COST  84.1114  SU_T35U2  -1
    S_T35U3  COST  131.382  SU_T35U3  -1
    S_T35U4  COST  132.326  SU_T35U4  -1
    S_T35U5  COST  83.9221  SU_T35U5  -1
    S_T35U6  COST  114.295  SU_T35U6  -1
    S_T35U7  COST  149.628  SU_T35U7  -1
    S_T35U8  COST  64.6344  SU_T35U8  -1
    S_T35U9  COST  119.024  SU_T35U9  -1
    S_T35U10  COST  93.5881  SU_T35U10  -1
    S_T35U11  COST  66.7904  SU_T35U11  -1
    S_T35U12  COST  196.709  SU_T35U12  -1
    S_T35U13  COST  124.588  SU_T35U13  -1
    S_T35U14  COST  180.82  SU_T35U14  -1
    S_T35U15  COST  163.764  SU_T35U15  -1
    S_T35U16  COST  52.6919  SU_T35U16  -1
    S_T35U17  COST  148.944  SU_T35U17  -1
    S_T35U18  COST  88.324  SU_T35U18  -1
    S_T35U19  COST  134.027  SU_T35U19  -1
    S_T35U20  COST  133.697  SU_T35U20  -1
    S_T35U21  COST  64.1228  SU_T35U21  -1
    S_T35U22  COST  92.3646  SU_T35U22  -1
    S_T35U23  COST  169.752  SU_T35U23  -1
    S_T35U24  COST  117.755  SU_T35U24  -1
    S_T35U25  COST  64.0112  SU_T35U25  -1
    S_T35U26  COST  79.3414  SU_T35U26  -1
    S_T35U27  COST  64.1054  SU_T35U27  -1
    S_T35U28  COST  163.622  SU_T35U28  -1
    S_T35U29  COST  96.8524  SU_T35U29  -1
    S_T35U30  COST  79.3761  SU_T35U30  -1
    S_T36U1  COST  128.029  SU_T36U1  -1
    S_T36U2  COST  133.673  SU_T36U2  -1
    S_T36U3  COST  142.021  SU_T36U3  -1
    S_T36U4  COST  184.578  SU_T36U4  -1
    S_T36U5  COST  126.058  SU_T36U5  -1
    S_T36U6  COST  55.0075  SU_T36U6  -1
    S_T36U7  COST  159.895  SU_T36U7  -1
    S_T36U8  COST  96.9743  SU_T36U8  -1
    S_T36U9  COST  195.163  SU_T36U9  -1
    S_T36U10  COST  67.6466  SU_T36U10  -1
    S_T36U11  COST  97.95  SU_T36U11  -1
    S_T36U12  COST  122.804  SU_T36U12  -1
    S_T36U13  COST  158.778  SU_T36U13  -1
    S_T36U14  COST  199.562  SU_T36U14  -1
    S_T36U15  COST  148.42  SU_T36U15  -1
    S_T36U16  COST  153.029  SU_T36U16  -1
    S_T36U17  COST  54.4046  SU_T36U17  -1
    S_T36U18  COST  81.4629  SU_T36U18  -1
    S_T36U19  COST  196.019  SU_T36U19  -1
    S_T36U20  COST  94.4735  SU_T36U20  -1
    S_T36U21  COST  66.6123  SU_T36U21  -1
    S_T36U22  COST  198.21  SU_T36U22  -1
    S_T36U23  COST  147.75  SU_T36U23  -1
    S_T36U24  COST  88.1483  SU_T36U24  -1
    S_T36U25  COST  181.973  SU_T36U25  -1
    S_T36U26  COST  86.651  SU_T36U26  -1
    S_T36U27  COST  63.0769  SU_T36U27  -1
    S_T36U28  COST  113.018  SU_T36U28  -1
    S_T36U29  COST  160.951  SU_T36U29  -1
    S_T36U30  COST  142.067  SU_T36U30  -1
    S_T37U1  COST  136.587  SU_T37U1  -1
    S_T37U2  COST  170.929  SU_T37U2  -1
    S_T37U3  COST  88.0962  SU_T37U3  -1
    S_T37U4  COST  160.894  SU_T37U4  -1
    S_T37U5  COST  97.2379  SU_T37U5  -1
    S_T37U6  COST  152.25  SU_T37U6  -1
    S_T37U7  COST  148.292  SU_T37U7  -1
    S_T37U8  COST  60.9006  SU_T37U8  -1
    S_T37U9  COST  101.057  SU_T37U9  -1
    S_T37U10  COST  82.3295  SU_T37U10  -1
    S_T37U11  COST  60.2758  SU_T37U11  -1
    S_T37U12  COST  111.246  SU_T37U12  -1
    S_T37U13  COST  185.541  SU_T37U13  -1
    S_T37U14  COST  171.109  SU_T37U14  -1
    S_T37U15  COST  184.827  SU_T37U15  -1
    S_T37U16  COST  181.134  SU_T37U16  -1
    S_T37U17  COST  75.3622  SU_T37U17  -1
    S_T37U18  COST  106.925  SU_T37U18  -1
    S_T37U19  COST  107.242  SU_T37U19  -1
    S_T37U20  COST  111.914  SU_T37U20  -1
    S_T37U21  COST  121.861  SU_T37U21  -1
    S_T37U22  COST  113.217  SU_T37U22  -1
    S_T37U23  COST  194.937  SU_T37U23  -1
    S_T37U24  COST  156.153  SU_T37U24  -1
    S_T37U25  COST  173.906  SU_T37U25  -1
    S_T37U26  COST  175.919  SU_T37U26  -1
    S_T37U27  COST  143.202  SU_T37U27  -1
    S_T37U28  COST  144.236  SU_T37U28  -1
    S_T37U29  COST  145.263  SU_T37U29  -1
    S_T37U30  COST  82.7665  SU_T37U30  -1
    S_T38U1  COST  60.2511  SU_T38U1  -1
    S_T38U2  COST  56.9185  SU_T38U2  -1
    S_T38U3  COST  92.5743  SU_T38U3  -1
    S_T38U4  COST  61.1361  SU_T38U4  -1
    S_T38U5  COST  159.537  SU_T38U5  -1
    S_T38U6  COST  59.6737  SU_T38U6  -1
    S_T38U7  COST  181.589  SU_T38U7  -1
    S_T38U8  COST  101.061  SU_T38U8  -1
    S_T38U9  COST  143.926  SU_T38U9  -1
    S_T38U10  COST  175.723  SU_T38U10  -1
    S_T38U11  COST  114.377  SU_T38U11  -1
    S_T38U12  COST  168.374  SU_T38U12  -1
    S_T38U13  COST  148.824  SU_T38U13  -1
    S_T38U14  COST  83.0338  SU_T38U14  -1
    S_T38U15  COST  160.635  SU_T38U15  -1
    S_T38U16  COST  54.8969  SU_T38U16  -1
    S_T38U17  COST  59.703  SU_T38U17  -1
    S_T38U18  COST  53.7713  SU_T38U18  -1
    S_T38U19  COST  62.3311  SU_T38U19  -1
    S_T38U20  COST  119.665  SU_T38U20  -1
    S_T38U21  COST  101.122  SU_T38U21  -1
    S_T38U22  COST  75.5873  SU_T38U22  -1
    S_T38U23  COST  116.787  SU_T38U23  -1
    S_T38U24  COST  145.941  SU_T38U24  -1
    S_T38U25  COST  69.754  SU_T38U25  -1
    S_T38U26  COST  168.013  SU_T38U26  -1
    S_T38U27  COST  89.4013  SU_T38U27  -1
    S_T38U28  COST  120.935  SU_T38U28  -1
    S_T38U29  COST  90.3438  SU_T38U29  -1
    S_T38U30  COST  183.722  SU_T38U30  -1
    S_T39U1  COST  55.9649  SU_T39U1  -1
    S_T39U2  COST  186.107  SU_T39U2  -1
    S_T39U3  COST  120.446  SU_T39U3  -1
    S_T39U4  COST  120.946  SU_T39U4  -1
    S_T39U5  COST  120.462  SU_T39U5  -1
    S_T39U6  COST  121.143  SU_T39U6  -1
    S_T39U7  COST  130.551  SU_T39U7  -1
    S_T39U8  COST  57.4245  SU_T39U8  -1
    S_T39U9  COST  176.589  SU_T39U9  -1
    S_T39U10  COST  119.428  SU_T39U10  -1
    S_T39U11  COST  82.7765  SU_T39U11  -1
    S_T39U12  COST  56.6582  SU_T39U12  -1
    S_T39U13  COST  172.502  SU_T39U13  -1
    S_T39U14  COST  172.731  SU_T39U14  -1
    S_T39U15  COST  181.979  SU_T39U15  -1
    S_T39U16  COST  54.4502  SU_T39U16  -1
    S_T39U17  COST  56.728  SU_T39U17  -1
    S_T39U18  COST  189.414  SU_T39U18  -1
    S_T39U19  COST  108.481  SU_T39U19  -1
    S_T39U20  COST  182.339  SU_T39U20  -1
    S_T39U21  COST  88.726  SU_T39U21  -1
    S_T39U22  COST  94.5091  SU_T39U22  -1
    S_T39U23  COST  193.105  SU_T39U23  -1
    S_T39U24  COST  179.432  SU_T39U24  -1
    S_T39U25  COST  157.636  SU_T39U25  -1
    S_T39U26  COST  56.0838  SU_T39U26  -1
    S_T39U27  COST  88.5041  SU_T39U27  -1
    S_T39U28  COST  170.053  SU_T39U28  -1
    S_T39U29  COST  63.8427  SU_T39U29  -1
    S_T39U30  COST  132.438  SU_T39U30  -1
    S_T40U1  COST  110.636  SU_T40U1  -1
    S_T40U2  COST  162.478  SU_T40U2  -1
    S_T40U3  COST  146.914  SU_T40U3  -1
    S_T40U4  COST  183.206  SU_T40U4  -1
    S_T40U5  COST  125.323  SU_T40U5  -1
    S_T40U6  COST  67.3606  SU_T40U6  -1
    S_T40U7  COST  75.7773  SU_T40U7  -1
    S_T40U8  COST  161.147  SU_T40U8  -1
    S_T40U9  COST  174.353  SU_T40U9  -1
    S_T40U10  COST  173.002  SU_T40U10  -1
    S_T40U11  COST  129.874  SU_T40U11  -1
    S_T40U12  COST  62.6589  SU_T40U12  -1
    S_T40U13  COST  186.52  SU_T40U13  -1
    S_T40U14  COST  82.4077  SU_T40U14  -1
    S_T40U15  COST  172.508  SU_T40U15  -1
    S_T40U16  COST  108.109  SU_T40U16  -1
    S_T40U17  COST  110.585  SU_T40U17  -1
    S_T40U18  COST  131.38  SU_T40U18  -1
    S_T40U19  COST  138.543  SU_T40U19  -1
    S_T40U20  COST  107.636  SU_T40U20  -1
    S_T40U21  COST  136.89  SU_T40U21  -1
    S_T40U22  COST  64.831  SU_T40U22  -1
    S_T40U23  COST  51.8465  SU_T40U23  -1
    S_T40U24  COST  54.113  SU_T40U24  -1
    S_T40U25  COST  128.872  SU_T40U25  -1
    S_T40U26  COST  74.8443  SU_T40U26  -1
    S_T40U27  COST  56.7168  SU_T40U27  -1
    S_T40U28  COST  191.997  SU_T40U28  -1
    S_T40U29  COST  127.586  SU_T40U29  -1
    S_T40U30  COST  51.0066  SU_T40U30  -1
    S_T41U1  COST  168.758  SU_T41U1  -1
    S_T41U2  COST  65.189  SU_T41U2  -1
    S_T41U3  COST  129.663  SU_T41U3  -1
    S_T41U4  COST  137.033  SU_T41U4  -1
    S_T41U5  COST  65.7889  SU_T41U5  -1
    S_T41U6  COST  195.804  SU_T41U6  -1
    S_T41U7  COST  196.618  SU_T41U7  -1
    S_T41U8  COST  70.3684  SU_T41U8  -1
    S_T41U9  COST  81.3296  SU_T41U9  -1
    S_T41U10  COST  112.123  SU_T41U10  -1
    S_T41U11  COST  96.9809  SU_T41U11  -1
    S_T41U12  COST  123.178  SU_T41U12  -1
    S_T41U13  COST  175.322  SU_T41U13  -1
    S_T41U14  COST  106.221  SU_T41U14  -1
    S_T41U15  COST  116.619  SU_T41U15  -1
    S_T41U16  COST  131.807  SU_T41U16  -1
    S_T41U17  COST  141.032  SU_T41U17  -1
    S_T41U18  COST  54.6406  SU_T41U18  -1
    S_T41U19  COST  166.031  SU_T41U19  -1
    S_T41U20  COST  121.682  SU_T41U20  -1
    S_T41U21  COST  75.2505  SU_T41U21  -1
    S_T41U22  COST  175.782  SU_T41U22  -1
    S_T41U23  COST  174.022  SU_T41U23  -1
    S_T41U24  COST  76.5756  SU_T41U24  -1
    S_T41U25  COST  151.608  SU_T41U25  -1
    S_T41U26  COST  174.603  SU_T41U26  -1
    S_T41U27  COST  74.7863  SU_T41U27  -1
    S_T41U28  COST  199.957  SU_T41U28  -1
    S_T41U29  COST  172.514  SU_T41U29  -1
    S_T41U30  COST  167.358  SU_T41U30  -1
    S_T42U1  COST  95.0734  SU_T42U1  -1
    S_T42U2  COST  168.878  SU_T42U2  -1
    S_T42U3  COST  159.623  SU_T42U3  -1
    S_T42U4  COST  177.884  SU_T42U4  -1
    S_T42U5  COST  186.041  SU_T42U5  -1
    S_T42U6  COST  138.952  SU_T42U6  -1
    S_T42U7  COST  103.019  SU_T42U7  -1
    S_T42U8  COST  55.6972  SU_T42U8  -1
    S_T42U9  COST  132.398  SU_T42U9  -1
    S_T42U10  COST  152.113  SU_T42U10  -1
    S_T42U11  COST  55.1692  SU_T42U11  -1
    S_T42U12  COST  192.367  SU_T42U12  -1
    S_T42U13  COST  64.0509  SU_T42U13  -1
    S_T42U14  COST  123.79  SU_T42U14  -1
    S_T42U15  COST  123.713  SU_T42U15  -1
    S_T42U16  COST  134.407  SU_T42U16  -1
    S_T42U17  COST  140.863  SU_T42U17  -1
    S_T42U18  COST  104.34  SU_T42U18  -1
    S_T42U19  COST  184.168  SU_T42U19  -1
    S_T42U20  COST  116.518  SU_T42U20  -1
    S_T42U21  COST  138.711  SU_T42U21  -1
    S_T42U22  COST  121.473  SU_T42U22  -1
    S_T42U23  COST  58.9207  SU_T42U23  -1
    S_T42U24  COST  146.03  SU_T42U24  -1
    S_T42U25  COST  86.0574  SU_T42U25  -1
    S_T42U26  COST  88.4071  SU_T42U26  -1
    S_T42U27  COST  195.73  SU_T42U27  -1
    S_T42U28  COST  160.104  SU_T42U28  -1
    S_T42U29  COST  189.389  SU_T42U29  -1
    S_T42U30  COST  180.807  SU_T42U30  -1
    S_T43U1  COST  144.882  SU_T43U1  -1
    S_T43U2  COST  172.97  SU_T43U2  -1
    S_T43U3  COST  159.958  SU_T43U3  -1
    S_T43U4  COST  169.009  SU_T43U4  -1
    S_T43U5  COST  80.0977  SU_T43U5  -1
    S_T43U6  COST  63.4718  SU_T43U6  -1
    S_T43U7  COST  56.6243  SU_T43U7  -1
    S_T43U8  COST  144.936  SU_T43U8  -1
    S_T43U9  COST  50.8499  SU_T43U9  -1
    S_T43U10  COST  173.289  SU_T43U10  -1
    S_T43U11  COST  182.664  SU_T43U11  -1
    S_T43U12  COST  65.6606  SU_T43U12  -1
    S_T43U13  COST  158.472  SU_T43U13  -1
    S_T43U14  COST  153.111  SU_T43U14  -1
    S_T43U15  COST  95.9206  SU_T43U15  -1
    S_T43U16  COST  144.813  SU_T43U16  -1
    S_T43U17  COST  154.663  SU_T43U17  -1
    S_T43U18  COST  65.1412  SU_T43U18  -1
    S_T43U19  COST  152.262  SU_T43U19  -1
    S_T43U20  COST  176.311  SU_T43U20  -1
    S_T43U21  COST  121.739  SU_T43U21  -1
    S_T43U22  COST  156.517  SU_T43U22  -1
    S_T43U23  COST  81.6669  SU_T43U23  -1
    S_T43U24  COST  110.196  SU_T43U24  -1
    S_T43U25  COST  72.8494  SU_T43U25  -1
    S_T43U26  COST  53.304  SU_T43U26  -1
    S_T43U27  COST  176.335  SU_T43U27  -1
    S_T43U28  COST  82.8911  SU_T43U28  -1
    S_T43U29  COST  82.1942  SU_T43U29  -1
    S_T43U30  COST  163.942  SU_T43U30  -1
    S_T44U1  COST  157.969  SU_T44U1  -1
    S_T44U2  COST  118.092  SU_T44U2  -1
    S_T44U3  COST  133.199  SU_T44U3  -1
    S_T44U4  COST  128.942  SU_T44U4  -1
    S_T44U5  COST  85.198  SU_T44U5  -1
    S_T44U6  COST  93.4955  SU_T44U6  -1
    S_T44U7  COST  67.9931  SU_T44U7  -1
    S_T44U8  COST  158.098  SU_T44U8  -1
    S_T44U9  COST  73.7936  SU_T44U9  -1
    S_T44U10  COST  173.567  SU_T44U10  -1
    S_T44U11  COST  90.7321  SU_T44U11  -1
    S_T44U12  COST  65.4122  SU_T44U12  -1
    S_T44U13  COST  167.452  SU_T44U13  -1
    S_T44U14  COST  139.023  SU_T44U14  -1
    S_T44U15  COST  137.49  SU_T44U15  -1
    S_T44U16  COST  101.056  SU_T44U16  -1
    S_T44U17  COST  62.4073  SU_T44U17  -1
    S_T44U18  COST  174.007  SU_T44U18  -1
    S_T44U19  COST  134.748  SU_T44U19  -1
    S_T44U20  COST  135.771  SU_T44U20  -1
    S_T44U21  COST  191.448  SU_T44U21  -1
    S_T44U22  COST  106.597  SU_T44U22  -1
    S_T44U23  COST  151.271  SU_T44U23  -1
    S_T44U24  COST  56.3438  SU_T44U24  -1
    S_T44U25  COST  189.526  SU_T44U25  -1
    S_T44U26  COST  151.377  SU_T44U26  -1
    S_T44U27  COST  88.1347  SU_T44U27  -1
    S_T44U28  COST  77.4211  SU_T44U28  -1
    S_T44U29  COST  69.4401  SU_T44U29  -1
    S_T44U30  COST  191.597  SU_T44U30  -1
    S_T45U1  COST  121.311  SU_T45U1  -1
    S_T45U2  COST  199.92  SU_T45U2  -1
    S_T45U3  COST  124.786  SU_T45U3  -1
    S_T45U4  COST  179.873  SU_T45U4  -1
    S_T45U5  COST  66.6466  SU_T45U5  -1
    S_T45U6  COST  165.617  SU_T45U6  -1
    S_T45U7  COST  178.844  SU_T45U7  -1
    S_T45U8  COST  132.81  SU_T45U8  -1
    S_T45U9  COST  157.948  SU_T45U9  -1
    S_T45U10  COST  180.464  SU_T45U10  -1
    S_T45U11  COST  147.157  SU_T45U11  -1
    S_T45U12  COST  163.103  SU_T45U12  -1
    S_T45U13  COST  109.21  SU_T45U13  -1
    S_T45U14  COST  68.8586  SU_T45U14  -1
    S_T45U15  COST  196.189  SU_T45U15  -1
    S_T45U16  COST  152.329  SU_T45U16  -1
    S_T45U17  COST  136.876  SU_T45U17  -1
    S_T45U18  COST  56.451  SU_T45U18  -1
    S_T45U19  COST  173.496  SU_T45U19  -1
    S_T45U20  COST  131.571  SU_T45U20  -1
    S_T45U21  COST  153.207  SU_T45U21  -1
    S_T45U22  COST  186.66  SU_T45U22  -1
    S_T45U23  COST  156.407  SU_T45U23  -1
    S_T45U24  COST  54.7133  SU_T45U24  -1
    S_T45U25  COST  99.5364  SU_T45U25  -1
    S_T45U26  COST  90.0013  SU_T45U26  -1
    S_T45U27  COST  181.647  SU_T45U27  -1
    S_T45U28  COST  109.647  SU_T45U28  -1
    S_T45U29  COST  118.238  SU_T45U29  -1
    S_T45U30  COST  82.9708  SU_T45U30  -1
    S_T46U1  COST  178.569  SU_T46U1  -1
    S_T46U2  COST  61.4577  SU_T46U2  -1
    S_T46U3  COST  105.16  SU_T46U3  -1
    S_T46U4  COST  115.326  SU_T46U4  -1
    S_T46U5  COST  101.271  SU_T46U5  -1
    S_T46U6  COST  83.4895  SU_T46U6  -1
    S_T46U7  COST  135.597  SU_T46U7  -1
    S_T46U8  COST  149.451  SU_T46U8  -1
    S_T46U9  COST  181.888  SU_T46U9  -1
    S_T46U10  COST  132.044  SU_T46U10  -1
    S_T46U11  COST  140.922  SU_T46U11  -1
    S_T46U12  COST  81.0642  SU_T46U12  -1
    S_T46U13  COST  184.918  SU_T46U13  -1
    S_T46U14  COST  190.607  SU_T46U14  -1
    S_T46U15  COST  121.01  SU_T46U15  -1
    S_T46U16  COST  150.746  SU_T46U16  -1
    S_T46U17  COST  198.531  SU_T46U17  -1
    S_T46U18  COST  129.611  SU_T46U18  -1
    S_T46U19  COST  146.689  SU_T46U19  -1
    S_T46U20  COST  166.539  SU_T46U20  -1
    S_T46U21  COST  158.844  SU_T46U21  -1
    S_T46U22  COST  184.411  SU_T46U22  -1
    S_T46U23  COST  97.2721  SU_T46U23  -1
    S_T46U24  COST  197.248  SU_T46U24  -1
    S_T46U25  COST  185.963  SU_T46U25  -1
    S_T46U26  COST  146.423  SU_T46U26  -1
    S_T46U27  COST  192.109  SU_T46U27  -1
    S_T46U28  COST  158.747  SU_T46U28  -1
    S_T46U29  COST  59.0943  SU_T46U29  -1
    S_T46U30  COST  153.514  SU_T46U30  -1
    S_T47U1  COST  124.597  SU_T47U1  -1
    S_T47U2  COST  56.6846  SU_T47U2  -1
    S_T47U3  COST  95.2875  SU_T47U3  -1
    S_T47U4  COST  103.14  SU_T47U4  -1
    S_T47U5  COST  194.347  SU_T47U5  -1
    S_T47U6  COST  189.299  SU_T47U6  -1
    S_T47U7  COST  132.029  SU_T47U7  -1
    S_T47U8  COST  118.79  SU_T47U8  -1
    S_T47U9  COST  179.594  SU_T47U9  -1
    S_T47U10  COST  184.651  SU_T47U10  -1
    S_T47U11  COST  70.5499  SU_T47U11  -1
    S_T47U12  COST  129.085  SU_T47U12  -1
    S_T47U13  COST  148.867  SU_T47U13  -1
    S_T47U14  COST  145.481  SU_T47U14  -1
    S_T47U15  COST  111.001  SU_T47U15  -1
    S_T47U16  COST  128.381  SU_T47U16  -1
    S_T47U17  COST  118.845  SU_T47U17  -1
    S_T47U18  COST  76.4143  SU_T47U18  -1
    S_T47U19  COST  51.9544  SU_T47U19  -1
    S_T47U20  COST  174.409  SU_T47U20  -1
    S_T47U21  COST  103.256  SU_T47U21  -1
    S_T47U22  COST  109.281  SU_T47U22  -1
    S_T47U23  COST  195.058  SU_T47U23  -1
    S_T47U24  COST  178.133  SU_T47U24  -1
    S_T47U25  COST  96.5  SU_T47U25  -1
    S_T47U26  COST  118.735  SU_T47U26  -1
    S_T47U27  COST  194.025  SU_T47U27  -1
    S_T47U28  COST  178.281  SU_T47U28  -1
    S_T47U29  COST  175.311  SU_T47U29  -1
    S_T47U30  COST  106.548  SU_T47U30  -1
    S_T48U1  COST  170.713  SU_T48U1  -1
    S_T48U2  COST  171.212  SU_T48U2  -1
    S_T48U3  COST  127.203  SU_T48U3  -1
    S_T48U4  COST  88.0732  SU_T48U4  -1
    S_T48U5  COST  110.415  SU_T48U5  -1
    S_T48U6  COST  50.0664  SU_T48U6  -1
    S_T48U7  COST  73.0711  SU_T48U7  -1
    S_T48U8  COST  193.227  SU_T48U8  -1
    S_T48U9  COST  126.908  SU_T48U9  -1
    S_T48U10  COST  145.317  SU_T48U10  -1
    S_T48U11  COST  54.8927  SU_T48U11  -1
    S_T48U12  COST  116.655  SU_T48U12  -1
    S_T48U13  COST  143.306  SU_T48U13  -1
    S_T48U14  COST  107.948  SU_T48U14  -1
    S_T48U15  COST  112.341  SU_T48U15  -1
    S_T48U16  COST  185.335  SU_T48U16  -1
    S_T48U17  COST  196.156  SU_T48U17  -1
    S_T48U18  COST  175.972  SU_T48U18  -1
    S_T48U19  COST  84.3042  SU_T48U19  -1
    S_T48U20  COST  72.2267  SU_T48U20  -1
    S_T48U21  COST  83.7335  SU_T48U21  -1
    S_T48U22  COST  157.874  SU_T48U22  -1
    S_T48U23  COST  114.125  SU_T48U23  -1
    S_T48U24  COST  175.949  SU_T48U24  -1
    S_T48U25  COST  114.515  SU_T48U25  -1
    S_T48U26  COST  176.877  SU_T48U26  -1
    S_T48U27  COST  164.466  SU_T48U27  -1
    S_T48U28  COST  183.333  SU_T48U28  -1
    S_T48U29  COST  80.6691  SU_T48U29  -1
    S_T48U30  COST  94.3542  SU_T48U30  -1
    S_T49U1  COST  54.9214  SU_T49U1  -1
    S_T49U2  COST  104.653  SU_T49U2  -1
    S_T49U3  COST  181.924  SU_T49U3  -1
    S_T49U4  COST  64.258  SU_T49U4  -1
    S_T49U5  COST  57.1462  SU_T49U5  -1
    S_T49U6  COST  166.086  SU_T49U6  -1
    S_T49U7  COST  173.718  SU_T49U7  -1
    S_T49U8  COST  119.494  SU_T49U8  -1
    S_T49U9  COST  93.5044  SU_T49U9  -1
    S_T49U10  COST  108.774  SU_T49U10  -1
    S_T49U11  COST  129.803  SU_T49U11  -1
    S_T49U12  COST  59.1996  SU_T49U12  -1
    S_T49U13  COST  158.469  SU_T49U13  -1
    S_T49U14  COST  80.5368  SU_T49U14  -1
    S_T49U15  COST  115.622  SU_T49U15  -1
    S_T49U16  COST  57.7851  SU_T49U16  -1
    S_T49U17  COST  96.5127  SU_T49U17  -1
    S_T49U18  COST  146.095  SU_T49U18  -1
    S_T49U19  COST  163.86  SU_T49U19  -1
    S_T49U20  COST  184.406  SU_T49U20  -1
    S_T49U21  COST  87.922  SU_T49U21  -1
    S_T49U22  COST  68.8035  SU_T49U22  -1
    S_T49U23  COST  199.932  SU_T49U23  -1
    S_T49U24  COST  83.0733  SU_T49U24  -1
    S_T49U25  COST  131.371  SU_T49U25  -1
    S_T49U26  COST  107.103  SU_T49U26  -1
    S_T49U27  COST  163.074  SU_T49U27  -1
    S_T49U28  COST  90.3529  SU_T49U28  -1
    S_T49U29  COST  90.327  SU_T49U29  -1
    S_T49U30  COST  122.28  SU_T49U30  -1
    S_T50U1  COST  192.381  SU_T50U1  -1
    S_T50U2  COST  69.4912  SU_T50U2  -1
    S_T50U3  COST  167.11  SU_T50U3  -1
    S_T50U4  COST  75.8134  SU_T50U4  -1
    S_T50U5  COST  117.322  SU_T50U5  -1
    S_T50U6  COST  77.0294  SU_T50U6  -1
    S_T50U7  COST  170.528  SU_T50U7  -1
    S_T50U8  COST  68.7688  SU_T50U8  -1
    S_T50U9  COST  101.691  SU_T50U9  -1
    S_T50U10  COST  57.7843  SU_T50U10  -1
    S_T50U11  COST  82.009  SU_T50U11  -1
    S_T50U12  COST  73.5989  SU_T50U12  -1
    S_T50U13  COST  164.708  SU_T50U13  -1
    S_T50U14  COST  115.299  SU_T50U14  -1
    S_T50U15  COST  96.7976  SU_T50U15  -1
    S_T50U16  COST  126.001  SU_T50U16  -1
    S_T50U17  COST  185.986  SU_T50U17  -1
    S_T50U18  COST  167.326  SU_T50U18  -1
    S_T50U19  COST  169.632  SU_T50U19  -1
    S_T50U20  COST  176.492  SU_T50U20  -1
    S_T50U21  COST  133.847  SU_T50U21  -1
    S_T50U22  COST  155.929  SU_T50U22  -1
    S_T50U23  COST  131.11  SU_T50U23  -1
    S_T50U24  COST  96.3252  SU_T50U24  -1
    S_T50U25  COST  67.7739  SU_T50U25  -1
    S_T50U26  COST  157.162  SU_T50U26  -1
    S_T50U27  COST  84.0091  SU_T50U27  -1
    S_T50U28  COST  171.318  SU_T50U28  -1
    S_T50U29  COST  143.754  SU_T50U29  -1
    S_T50U30  COST  172.462  SU_T50U30  -1
    S_T51U1  COST  60.6337  SU_T51U1  -1
    S_T51U2  COST  190.295  SU_T51U2  -1
    S_T51U3  COST  197.286  SU_T51U3  -1
    S_T51U4  COST  87.1265  SU_T51U4  -1
    S_T51U5  COST  78.0372  SU_T51U5  -1
    S_T51U6  COST  108.602  SU_T51U6  -1
    S_T51U7  COST  111.748  SU_T51U7  -1
    S_T51U8  COST  114.581  SU_T51U8  -1
    S_T51U9  COST  140.826  SU_T51U9  -1
    S_T51U10  COST  103.378  SU_T51U10  -1
    S_T51U11  COST  100.019  SU_T51U11  -1
    S_T51U12  COST  60.8167  SU_T51U12  -1
    S_T51U13  COST  107.216  SU_T51U13  -1
    S_T51U14  COST  167.729  SU_T51U14  -1
    S_T51U15  COST  67.4286  SU_T51U15  -1
    S_T51U16  COST  167.79  SU_T51U16  -1
    S_T51U17  COST  198.554  SU_T51U17  -1
    S_T51U18  COST  191.191  SU_T51U18  -1
    S_T51U19  COST  51.7221  SU_T51U19  -1
    S_T51U20  COST  196.566  SU_T51U20  -1
    S_T51U21  COST  132.168  SU_T51U21  -1
    S_T51U22  COST  133.324  SU_T51U22  -1
    S_T51U23  COST  137.327  SU_T51U23  -1
    S_T51U24  COST  127.956  SU_T51U24  -1
    S_T51U25  COST  140.822  SU_T51U25  -1
    S_T51U26  COST  161.024  SU_T51U26  -1
    S_T51U27  COST  132.441  SU_T51U27  -1
    S_T51U28  COST  71.5913  SU_T51U28  -1
    S_T51U29  COST  75.8166  SU_T51U29  -1
    S_T51U30  COST  60.2501  SU_T51U30  -1
    S_T52U1  COST  154.37  SU_T52U1  -1
    S_T52U2  COST  63.8143  SU_T52U2  -1
    S_T52U3  COST  146.245  SU_T52U3  -1
    S_T52U4  COST  105.989  SU_T52U4  -1
    S_T52U5  COST  117.603  SU_T52U5  -1
    S_T52U6  COST  137.534  SU_T52U6  -1
    S_T52U7  COST  87.4287  SU_T52U7  -1
    S_T52U8  COST  76.1123  SU_T52U8  -1
    S_T52U9  COST  117.363  SU_T52U9  -1
    S_T52U10  COST  81.9628  SU_T52U10  -1
    S_T52U11  COST  51.0023  SU_T52U11  -1
    S_T52U12  COST  143.781  SU_T52U12  -1
    S_T52U13  COST  57.5733  SU_T52U13  -1
    S_T52U14  COST  107.842  SU_T52U14  -1
    S_T52U15  COST  131.299  SU_T52U15  -1
    S_T52U16  COST  83.0726  SU_T52U16  -1
    S_T52U17  COST  142.587  SU_T52U17  -1
    S_T52U18  COST  82.2002  SU_T52U18  -1
    S_T52U19  COST  124.706  SU_T52U19  -1
    S_T52U20  COST  99.0567  SU_T52U20  -1
    S_T52U21  COST  62.6452  SU_T52U21  -1
    S_T52U22  COST  179.198  SU_T52U22  -1
    S_T52U23  COST  126.909  SU_T52U23  -1
    S_T52U24  COST  199.439  SU_T52U24  -1
    S_T52U25  COST  132.031  SU_T52U25  -1
    S_T52U26  COST  155.13  SU_T52U26  -1
    S_T52U27  COST  148.099  SU_T52U27  -1
    S_T52U28  COST  57.5028  SU_T52U28  -1
    S_T52U29  COST  54.4256  SU_T52U29  -1
    S_T52U30  COST  52.372  SU_T52U30  -1
    S_T53U1  COST  186.675  SU_T53U1  -1
    S_T53U2  COST  113.716  SU_T53U2  -1
    S_T53U3  COST  139.564  SU_T53U3  -1
    S_T53U4  COST  105.83  SU_T53U4  -1
    S_T53U5  COST  182.745  SU_T53U5  -1
    S_T53U6  COST  124.025  SU_T53U6  -1
    S_T53U7  COST  168.015  SU_T53U7  -1
    S_T53U8  COST  127.042  SU_T53U8  -1
    S_T53U9  COST  198.149  SU_T53U9  -1
    S_T53U10  COST  165.611  SU_T53U10  -1
    S_T53U11  COST  80.9326  SU_T53U11  -1
    S_T53U12  COST  100.041  SU_T53U12  -1
    S_T53U13  COST  187.289  SU_T53U13  -1
    S_T53U14  COST  55.2512  SU_T53U14  -1
    S_T53U15  COST  111.701  SU_T53U15  -1
    S_T53U16  COST  145.693  SU_T53U16  -1
    S_T53U17  COST  124.915  SU_T53U17  -1
    S_T53U18  COST  71.6581  SU_T53U18  -1
    S_T53U19  COST  112.908  SU_T53U19  -1
    S_T53U20  COST  167.765  SU_T53U20  -1
    S_T53U21  COST  80.1648  SU_T53U21  -1
    S_T53U22  COST  111.145  SU_T53U22  -1
    S_T53U23  COST  54.2467  SU_T53U23  -1
    S_T53U24  COST  92.1557  SU_T53U24  -1
    S_T53U25  COST  51.7239  SU_T53U25  -1
    S_T53U26  COST  188.604  SU_T53U26  -1
    S_T53U27  COST  127.464  SU_T53U27  -1
    S_T53U28  COST  191.38  SU_T53U28  -1
    S_T53U29  COST  158.085  SU_T53U29  -1
    S_T53U30  COST  116.93  SU_T53U30  -1
    S_T54U1  COST  51.1947  SU_T54U1  -1
    S_T54U2  COST  116.496  SU_T54U2  -1
    S_T54U3  COST  88.2323  SU_T54U3  -1
    S_T54U4  COST  61.4954  SU_T54U4  -1
    S_T54U5  COST  174.218  SU_T54U5  -1
    S_T54U6  COST  171.399  SU_T54U6  -1
    S_T54U7  COST  144.832  SU_T54U7  -1
    S_T54U8  COST  90.7248  SU_T54U8  -1
    S_T54U9  COST  97.7913  SU_T54U9  -1
    S_T54U10  COST  61.6461  SU_T54U10  -1
    S_T54U11  COST  102.334  SU_T54U11  -1
    S_T54U12  COST  169.173  SU_T54U12  -1
    S_T54U13  COST  101.717  SU_T54U13  -1
    S_T54U14  COST  112.177  SU_T54U14  -1
    S_T54U15  COST  94.3914  SU_T54U15  -1
    S_T54U16  COST  111.664  SU_T54U16  -1
    S_T54U17  COST  107.721  SU_T54U17  -1
    S_T54U18  COST  114.441  SU_T54U18  -1
    S_T54U19  COST  179.446  SU_T54U19  -1
    S_T54U20  COST  168.415  SU_T54U20  -1
    S_T54U21  COST  131.205  SU_T54U21  -1
    S_T54U22  COST  112.13  SU_T54U22  -1
    S_T54U23  COST  182.249  SU_T54U23  -1
    S_T54U24  COST  145.196  SU_T54U24  -1
    S_T54U25  COST  67.7623  SU_T54U25  -1
    S_T54U26  COST  96.6504  SU_T54U26  -1
    S_T54U27  COST  86.5594  SU_T54U27  -1
    S_T54U28  COST  100.351  SU_T54U28  -1
    S_T54U29  COST  135.787  SU_T54U29  -1
    S_T54U30  COST  112.21  SU_T54U30  -1
    S_T55U1  COST  180.72  SU_T55U1  -1
    S_T55U2  COST  111.78  SU_T55U2  -1
    S_T55U3  COST  80.5501  SU_T55U3  -1
    S_T55U4  COST  132.003  SU_T55U4  -1
    S_T55U5  COST  53.3212  SU_T55U5  -1
    S_T55U6  COST  154.494  SU_T55U6  -1
    S_T55U7  COST  189.969  SU_T55U7  -1
    S_T55U8  COST  197.065  SU_T55U8  -1
    S_T55U9  COST  67.1429  SU_T55U9  -1
    S_T55U10  COST  151.835  SU_T55U10  -1
    S_T55U11  COST  192.716  SU_T55U11  -1
    S_T55U12  COST  141.7  SU_T55U12  -1
    S_T55U13  COST  150.987  SU_T55U13  -1
    S_T55U14  COST  182.843  SU_T55U14  -1
    S_T55U15  COST  157.196  SU_T55U15  -1
    S_T55U16  COST  159.697  SU_T55U16  -1
    S_T55U17  COST  162.896  SU_T55U17  -1
    S_T55U18  COST  181.126  SU_T55U18  -1
    S_T55U19  COST  69.108  SU_T55U19  -1
    S_T55U20  COST  129.737  SU_T55U20  -1
    S_T55U21  COST  173.09  SU_T55U21  -1
    S_T55U22  COST  122.652  SU_T55U22  -1
    S_T55U23  COST  111.461  SU_T55U23  -1
    S_T55U24  COST  52.3262  SU_T55U24  -1
    S_T55U25  COST  81.1935  SU_T55U25  -1
    S_T55U26  COST  121.889  SU_T55U26  -1
    S_T55U27  COST  161.462  SU_T55U27  -1
    S_T55U28  COST  131.838  SU_T55U28  -1
    S_T55U29  COST  117.572  SU_T55U29  -1
    S_T55U30  COST  198.383  SU_T55U30  -1
    S_T56U1  COST  191.382  SU_T56U1  -1
    S_T56U2  COST  116.958  SU_T56U2  -1
    S_T56U3  COST  159.385  SU_T56U3  -1
    S_T56U4  COST  155.995  SU_T56U4  -1
    S_T56U5  COST  105.422  SU_T56U5  -1
    S_T56U6  COST  102.492  SU_T56U6  -1
    S_T56U7  COST  106.884  SU_T56U7  -1
    S_T56U8  COST  176.349  SU_T56U8  -1
    S_T56U9  COST  144.798  SU_T56U9  -1
    S_T56U10  COST  65.5518  SU_T56U10  -1
    S_T56U11  COST  137.152  SU_T56U11  -1
    S_T56U12  COST  132.205  SU_T56U12  -1
    S_T56U13  COST  102.53  SU_T56U13  -1
    S_T56U14  COST  163.775  SU_T56U14  -1
    S_T56U15  COST  81.0863  SU_T56U15  -1
    S_T56U16  COST  107.993  SU_T56U16  -1
    S_T56U17  COST  102.044  SU_T56U17  -1
    S_T56U18  COST  73.8018  SU_T56U18  -1
    S_T56U19  COST  140.812  SU_T56U19  -1
    S_T56U20  COST  166.145  SU_T56U20  -1
    S_T56U21  COST  131.247  SU_T56U21  -1
    S_T56U22  COST  96.0357  SU_T56U22  -1
    S_T56U23  COST  156.917  SU_T56U23  -1
    S_T56U24  COST  138.276  SU_T56U24  -1
    S_T56U25  COST  139.966  SU_T56U25  -1
    S_T56U26  COST  180.296  SU_T56U26  -1
    S_T56U27  COST  161.863  SU_T56U27  -1
    S_T56U28  COST  137.7  SU_T56U28  -1
    S_T56U29  COST  116.579  SU_T56U29  -1
    S_T56U30  COST  193.775  SU_T56U30  -1
    S_T57U1  COST  132.401  SU_T57U1  -1
    S_T57U2  COST  145.514  SU_T57U2  -1
    S_T57U3  COST  83.7563  SU_T57U3  -1
    S_T57U4  COST  173.888  SU_T57U4  -1
    S_T57U5  COST  91.7686  SU_T57U5  -1
    S_T57U6  COST  173.565  SU_T57U6  -1
    S_T57U7  COST  166.519  SU_T57U7  -1
    S_T57U8  COST  119.228  SU_T57U8  -1
    S_T57U9  COST  168.006  SU_T57U9  -1
    S_T57U10  COST  162.176  SU_T57U10  -1
    S_T57U11  COST  82.5846  SU_T57U11  -1
    S_T57U12  COST  89.6007  SU_T57U12  -1
    S_T57U13  COST  183.27  SU_T57U13  -1
    S_T57U14  COST  144.506  SU_T57U14  -1
    S_T57U15  COST  167.566  SU_T57U15  -1
    S_T57U16  COST  80.1598  SU_T57U16  -1
    S_T57U17  COST  160.434  SU_T57U17  -1
    S_T57U18  COST  150.016  SU_T57U18  -1
    S_T57U19  COST  162.201  SU_T57U19  -1
    S_T57U20  COST  156.026  SU_T57U20  -1
    S_T57U21  COST  173.998  SU_T57U21  -1
    S_T57U22  COST  190.036  SU_T57U22  -1
    S_T57U23  COST  151.139  SU_T57U23  -1
    S_T57U24  COST  119.874  SU_T57U24  -1
    S_T57U25  COST  95.6045  SU_T57U25  -1
    S_T57U26  COST  194.174  SU_T57U26  -1
    S_T57U27  COST  177.377  SU_T57U27  -1
    S_T57U28  COST  52.0548  SU_T57U28  -1
    S_T57U29  COST  96.8295  SU_T57U29  -1
    S_T57U30  COST  52.5725  SU_T57U30  -1
    S_T58U1  COST  155.924  SU_T58U1  -1
    S_T58U2  COST  69.8967  SU_T58U2  -1
    S_T58U3  COST  50.8019  SU_T58U3  -1
    S_T58U4  COST  112.222  SU_T58U4  -1
    S_T58U5  COST  108.589  SU_T58U5  -1
    S_T58U6  COST  145.748  SU_T58U6  -1
    S_T58U7  COST  151.419  SU_T58U7  -1
    S_T58U8  COST  136.826  SU_T58U8  -1
    S_T58U9  COST  180.262  SU_T58U9  -1
    S_T58U10  COST  105.723  SU_T58U10  -1
    S_T58U11  COST  144.961  SU_T58U11  -1
    S_T58U12  COST  116.459  SU_T58U12  -1
    S_T58U13  COST  179.157  SU_T58U13  -1
    S_T58U14  COST  190.99  SU_T58U14  -1
    S_T58U15  COST  192.38  SU_T58U15  -1
    S_T58U16  COST  104.365  SU_T58U16  -1
    S_T58U17  COST  66.5095  SU_T58U17  -1
    S_T58U18  COST  144.747  SU_T58U18  -1
    S_T58U19  COST  146.639  SU_T58U19  -1
    S_T58U20  COST  60.4701  SU_T58U20  -1
    S_T58U21  COST  162.169  SU_T58U21  -1
    S_T58U22  COST  112.074  SU_T58U22  -1
    S_T58U23  COST  56.3513  SU_T58U23  -1
    S_T58U24  COST  117.937  SU_T58U24  -1
    S_T58U25  COST  59.0907  SU_T58U25  -1
    S_T58U26  COST  53.7449  SU_T58U26  -1
    S_T58U27  COST  118.037  SU_T58U27  -1
    S_T58U28  COST  152.855  SU_T58U28  -1
    S_T58U29  COST  145.855  SU_T58U29  -1
    S_T58U30  COST  182.242  SU_T58U30  -1
    S_T59U1  COST  175.069  SU_T59U1  -1
    S_T59U2  COST  61.7837  SU_T59U2  -1
    S_T59U3  COST  64.2363  SU_T59U3  -1
    S_T59U4  COST  155.396  SU_T59U4  -1
    S_T59U5  COST  84.6192  SU_T59U5  -1
    S_T59U6  COST  142.447  SU_T59U6  -1
    S_T59U7  COST  153.602  SU_T59U7  -1
    S_T59U8  COST  125.236  SU_T59U8  -1
    S_T59U9  COST  152.518  SU_T59U9  -1
    S_T59U10  COST  170.011  SU_T59U10  -1
    S_T59U11  COST  68.7831  SU_T59U11  -1
    S_T59U12  COST  82.4341  SU_T59U12  -1
    S_T59U13  COST  140.456  SU_T59U13  -1
    S_T59U14  COST  191.116  SU_T59U14  -1
    S_T59U15  COST  69.1905  SU_T59U15  -1
    S_T59U16  COST  115.309  SU_T59U16  -1
    S_T59U17  COST  150.396  SU_T59U17  -1
    S_T59U18  COST  95.9077  SU_T59U18  -1
    S_T59U19  COST  168.411  SU_T59U19  -1
    S_T59U20  COST  75.2177  SU_T59U20  -1
    S_T59U21  COST  58.2834  SU_T59U21  -1
    S_T59U22  COST  61.2232  SU_T59U22  -1
    S_T59U23  COST  129.482  SU_T59U23  -1
    S_T59U24  COST  74.9033  SU_T59U24  -1
    S_T59U25  COST  51.3059  SU_T59U25  -1
    S_T59U26  COST  81.0909  SU_T59U26  -1
    S_T59U27  COST  82.956  SU_T59U27  -1
    S_T59U28  COST  173.993  SU_T59U28  -1
    S_T59U29  COST  103.055  SU_T59U29  -1
    S_T59U30  COST  196.306  SU_T59U30  -1
    S_T60U1  COST  184.736  SU_T60U1  -1
    S_T60U2  COST  61.472  SU_T60U2  -1
    S_T60U3  COST  90.7049  SU_T60U3  -1
    S_T60U4  COST  174.397  SU_T60U4  -1
    S_T60U5  COST  142.583  SU_T60U5  -1
    S_T60U6  COST  121.774  SU_T60U6  -1
    S_T60U7  COST  95.5436  SU_T60U7  -1
    S_T60U8  COST  50.4711  SU_T60U8  -1
    S_T60U9  COST  181.311  SU_T60U9  -1
    S_T60U10  COST  197.635  SU_T60U10  -1
    S_T60U11  COST  157.278  SU_T60U11  -1
    S_T60U12  COST  104.571  SU_T60U12  -1
    S_T60U13  COST  102.059  SU_T60U13  -1
    S_T60U14  COST  198.766  SU_T60U14  -1
    S_T60U15  COST  79.8869  SU_T60U15  -1
    S_T60U16  COST  68.9535  SU_T60U16  -1
    S_T60U17  COST  164.774  SU_T60U17  -1
    S_T60U18  COST  52.3735  SU_T60U18  -1
    S_T60U19  COST  120.63  SU_T60U19  -1
    S_T60U20  COST  133.937  SU_T60U20  -1
    S_T60U21  COST  148.712  SU_T60U21  -1
    S_T60U22  COST  169.958  SU_T60U22  -1
    S_T60U23  COST  154.78  SU_T60U23  -1
    S_T60U24  COST  127.078  SU_T60U24  -1
    S_T60U25  COST  183.483  SU_T60U25  -1
    S_T60U26  COST  126.522  SU_T60U26  -1
    S_T60U27  COST  126.935  SU_T60U27  -1
    S_T60U28  COST  110.416  SU_T60U28  -1
    S_T60U29  COST  189.848  SU_T60U29  -1
    S_T60U30  COST  91.9124  SU_T60U30  -1
    S_T61U1  COST  178.206  SU_T61U1  -1
    S_T61U2  COST  178.139  SU_T61U2  -1
    S_T61U3  COST  110.984  SU_T61U3  -1
    S_T61U4  COST  140.578  SU_T61U4  -1
    S_T61U5  COST  133.815  SU_T61U5  -1
    S_T61U6  COST  167.846  SU_T61U6  -1
    S_T61U7  COST  190.834  SU_T61U7  -1
    S_T61U8  COST  100.622  SU_T61U8  -1
    S_T61U9  COST  135.983  SU_T61U9  -1
    S_T61U10  COST  198.278  SU_T61U10  -1
    S_T61U11  COST  87.8969  SU_T61U11  -1
    S_T61U12  COST  128.293  SU_T61U12  -1
    S_T61U13  COST  162.751  SU_T61U13  -1
    S_T61U14  COST  140.042  SU_T61U14  -1
    S_T61U15  COST  106.48  SU_T61U15  -1
    S_T61U16  COST  89.8055  SU_T61U16  -1
    S_T61U17  COST  79.9258  SU_T61U17  -1
    S_T61U18  COST  85.5627  SU_T61U18  -1
    S_T61U19  COST  191.7  SU_T61U19  -1
    S_T61U20  COST  188.678  SU_T61U20  -1
    S_T61U21  COST  138.492  SU_T61U21  -1
    S_T61U22  COST  165.877  SU_T61U22  -1
    S_T61U23  COST  142.288  SU_T61U23  -1
    S_T61U24  COST  126.938  SU_T61U24  -1
    S_T61U25  COST  190.276  SU_T61U25  -1
    S_T61U26  COST  156.218  SU_T61U26  -1
    S_T61U27  COST  151.16  SU_T61U27  -1
    S_T61U28  COST  56.8179  SU_T61U28  -1
    S_T61U29  COST  84.0112  SU_T61U29  -1
    S_T61U30  COST  120.25  SU_T61U30  -1
    S_T62U1  COST  68.5101  SU_T62U1  -1
    S_T62U2  COST  91.7706  SU_T62U2  -1
    S_T62U3  COST  189.258  SU_T62U3  -1
    S_T62U4  COST  169.401  SU_T62U4  -1
    S_T62U5  COST  82.3251  SU_T62U5  -1
    S_T62U6  COST  119.852  SU_T62U6  -1
    S_T62U7  COST  187.245  SU_T62U7  -1
    S_T62U8  COST  188.355  SU_T62U8  -1
    S_T62U9  COST  141.616  SU_T62U9  -1
    S_T62U10  COST  58.3288  SU_T62U10  -1
    S_T62U11  COST  147.727  SU_T62U11  -1
    S_T62U12  COST  133.468  SU_T62U12  -1
    S_T62U13  COST  175.26  SU_T62U13  -1
    S_T62U14  COST  104.883  SU_T62U14  -1
    S_T62U15  COST  162.414  SU_T62U15  -1
    S_T62U16  COST  63.1323  SU_T62U16  -1
    S_T62U17  COST  112.787  SU_T62U17  -1
    S_T62U18  COST  99.8308  SU_T62U18  -1
    S_T62U19  COST  56.2249  SU_T62U19  -1
    S_T62U20  COST  139.594  SU_T62U20  -1
    S_T62U21  COST  78.8465  SU_T62U21  -1
    S_T62U22  COST  142.942  SU_T62U22  -1
    S_T62U23  COST  125.95  SU_T62U23  -1
    S_T62U24  COST  186.94  SU_T62U24  -1
    S_T62U25  COST  118.343  SU_T62U25  -1
    S_T62U26  COST  131.453  SU_T62U26  -1
    S_T62U27  COST  115.347  SU_T62U27  -1
    S_T62U28  COST  91.7194  SU_T62U28  -1
    S_T62U29  COST  96.9745  SU_T62U29  -1
    S_T62U30  COST  63.3485  SU_T62U30  -1
    S_T63U1  COST  131.15  SU_T63U1  -1
    S_T63U2  COST  190.849  SU_T63U2  -1
    S_T63U3  COST  79.7737  SU_T63U3  -1
    S_T63U4  COST  85.9984  SU_T63U4  -1
    S_T63U5  COST  90.9425  SU_T63U5  -1
    S_T63U6  COST  117.317  SU_T63U6  -1
    S_T63U7  COST  78.409  SU_T63U7  -1
    S_T63U8  COST  59.0145  SU_T63U8  -1
    S_T63U9  COST  147.127  SU_T63U9  -1
    S_T63U10  COST  76.5789  SU_T63U10  -1
    S_T63U11  COST  67.2195  SU_T63U11  -1
    S_T63U12  COST  167.631  SU_T63U12  -1
    S_T63U13  COST  179.744  SU_T63U13  -1
    S_T63U14  COST  157.568  SU_T63U14  -1
    S_T63U15  COST  103.515  SU_T63U15  -1
    S_T63U16  COST  94.2609  SU_T63U16  -1
    S_T63U17  COST  66.0586  SU_T63U17  -1
    S_T63U18  COST  159.457  SU_T63U18  -1
    S_T63U19  COST  140.57  SU_T63U19  -1
    S_T63U20  COST  173.374  SU_T63U20  -1
    S_T63U21  COST  122.873  SU_T63U21  -1
    S_T63U22  COST  152.323  SU_T63U22  -1
    S_T63U23  COST  70.5634  SU_T63U23  -1
    S_T63U24  COST  144.836  SU_T63U24  -1
    S_T63U25  COST  108.518  SU_T63U25  -1
    S_T63U26  COST  56.7874  SU_T63U26  -1
    S_T63U27  COST  52.2765  SU_T63U27  -1
    S_T63U28  COST  65.878  SU_T63U28  -1
    S_T63U29  COST  128.471  SU_T63U29  -1
    S_T63U30  COST  111.629  SU_T63U30  -1
    S_T64U1  COST  191.399  SU_T64U1  -1
    S_T64U2  COST  88.0907  SU_T64U2  -1
    S_T64U3  COST  64.8106  SU_T64U3  -1
    S_T64U4  COST  104.231  SU_T64U4  -1
    S_T64U5  COST  137.762  SU_T64U5  -1
    S_T64U6  COST  184.355  SU_T64U6  -1
    S_T64U7  COST  154.956  SU_T64U7  -1
    S_T64U8  COST  179.52  SU_T64U8  -1
    S_T64U9  COST  180.966  SU_T64U9  -1
    S_T64U10  COST  162.224  SU_T64U10  -1
    S_T64U11  COST  86.9366  SU_T64U11  -1
    S_T64U12  COST  169.036  SU_T64U12  -1
    S_T64U13  COST  167.308  SU_T64U13  -1
    S_T64U14  COST  71.6464  SU_T64U14  -1
    S_T64U15  COST  54.0875  SU_T64U15  -1
    S_T64U16  COST  82.739  SU_T64U16  -1
    S_T64U17  COST  136.166  SU_T64U17  -1
    S_T64U18  COST  153.314  SU_T64U18  -1
    S_T64U19  COST  161.777  SU_T64U19  -1
    S_T64U20  COST  184.383  SU_T64U20  -1
    S_T64U21  COST  73.7456  SU_T64U21  -1
    S_T64U22  COST  133.597  SU_T64U22  -1
    S_T64U23  COST  175.189  SU_T64U23  -1
    S_T64U24  COST  186.934  SU_T64U24  -1
    S_T64U25  COST  77.4009  SU_T64U25  -1
    S_T64U26  COST  136.471  SU_T64U26  -1
    S_T64U27  COST  167.226  SU_T64U27  -1
    S_T64U28  COST  80.637  SU_T64U28  -1
    S_T64U29  COST  151.88  SU_T64U29  -1
    S_T64U30  COST  113.114  SU_T64U30  -1
    S_T65U1  COST  190.566  SU_T65U1  -1
    S_T65U2  COST  87.4658  SU_T65U2  -1
    S_T65U3  COST  142.886  SU_T65U3  -1
    S_T65U4  COST  189.215  SU_T65U4  -1
    S_T65U5  COST  83.5974  SU_T65U5  -1
    S_T65U6  COST  126.845  SU_T65U6  -1
    S_T65U7  COST  56.6061  SU_T65U7  -1
    S_T65U8  COST  147.235  SU_T65U8  -1
    S_T65U9  COST  152.203  SU_T65U9  -1
    S_T65U10  COST  57.0179  SU_T65U10  -1
    S_T65U11  COST  115.727  SU_T65U11  -1
    S_T65U12  COST  194.339  SU_T65U12  -1
    S_T65U13  COST  162.504  SU_T65U13  -1
    S_T65U14  COST  130.667  SU_T65U14  -1
    S_T65U15  COST  82.5434  SU_T65U15  -1
    S_T65U16  COST  133.449  SU_T65U16  -1
    S_T65U17  COST  186.087  SU_T65U17  -1
    S_T65U18  COST  83.0133  SU_T65U18  -1
    S_T65U19  COST  156.517  SU_T65U19  -1
    S_T65U20  COST  97.6542  SU_T65U20  -1
    S_T65U21  COST  89.3514  SU_T65U21  -1
    S_T65U22  COST  175.475  SU_T65U22  -1
    S_T65U23  COST  119.692  SU_T65U23  -1
    S_T65U24  COST  97.488  SU_T65U24  -1
    S_T65U25  COST  63.7061  SU_T65U25  -1
    S_T65U26  COST  56.4579  SU_T65U26  -1
    S_T65U27  COST  109.734  SU_T65U27  -1
    S_T65U28  COST  184.039  SU_T65U28  -1
    S_T65U29  COST  51.2089  SU_T65U29  -1
    S_T65U30  COST  85.5717  SU_T65U30  -1
    S_T66U1  COST  165.219  SU_T66U1  -1
    S_T66U2  COST  115.066  SU_T66U2  -1
    S_T66U3  COST  132.121  SU_T66U3  -1
    S_T66U4  COST  185.237  SU_T66U4  -1
    S_T66U5  COST  182.653  SU_T66U5  -1
    S_T66U6  COST  174.273  SU_T66U6  -1
    S_T66U7  COST  154.504  SU_T66U7  -1
    S_T66U8  COST  85.0845  SU_T66U8  -1
    S_T66U9  COST  178.579  SU_T66U9  -1
    S_T66U10  COST  116.086  SU_T66U10  -1
    S_T66U11  COST  107.338  SU_T66U11  -1
    S_T66U12  COST  118.16  SU_T66U12  -1
    S_T66U13  COST  199.643  SU_T66U13  -1
    S_T66U14  COST  118.948  SU_T66U14  -1
    S_T66U15  COST  95.6739  SU_T66U15  -1
    S_T66U16  COST  59.8538  SU_T66U16  -1
    S_T66U17  COST  112.977  SU_T66U17  -1
    S_T66U18  COST  187.541  SU_T66U18  -1
    S_T66U19  COST  69.5752  SU_T66U19  -1
    S_T66U20  COST  116.338  SU_T66U20  -1
    S_T66U21  COST  158.635  SU_T66U21  -1
    S_T66U22  COST  101.082  SU_T66U22  -1
    S_T66U23  COST  57.8587  SU_T66U23  -1
    S_T66U24  COST  100.343  SU_T66U24  -1
    S_T66U25  COST  85.2491  SU_T66U25  -1
    S_T66U26  COST  192.238  SU_T66U26  -1
    S_T66U27  COST  89.6774  SU_T66U27  -1
    S_T66U28  COST  91.6579  SU_T66U28  -1
    S_T66U29  COST  189.037  SU_T66U29  -1
    S_T66U30  COST  113.001  SU_T66U30  -1
    S_T67U1  COST  178.693  SU_T67U1  -1
    S_T67U2  COST  192.013  SU_T67U2  -1
    S_T67U3  COST  97.056  SU_T67U3  -1
    S_T67U4  COST  154.657  SU_T67U4  -1
    S_T67U5  COST  134.932  SU_T67U5  -1
    S_T67U6  COST  59.2829  SU_T67U6  -1
    S_T67U7  COST  134.911  SU_T67U7  -1
    S_T67U8  COST  69.7948  SU_T67U8  -1
    S_T67U9  COST  79.1671  SU_T67U9  -1
    S_T67U10  COST  111.574  SU_T67U10  -1
    S_T67U11  COST  83.2673  SU_T67U11  -1
    S_T67U12  COST  88.9083  SU_T67U12  -1
    S_T67U13  COST  63.4874  SU_T67U13  -1
    S_T67U14  COST  57.5839  SU_T67U14  -1
    S_T67U15  COST  93.099  SU_T67U15  -1
    S_T67U16  COST  99.7997  SU_T67U16  -1
    S_T67U17  COST  180.595  SU_T67U17  -1
    S_T67U18  COST  159.129  SU_T67U18  -1
    S_T67U19  COST  154.071  SU_T67U19  -1
    S_T67U20  COST  82.4376  SU_T67U20  -1
    S_T67U21  COST  94.4588  SU_T67U21  -1
    S_T67U22  COST  132.112  SU_T67U22  -1
    S_T67U23  COST  101.984  SU_T67U23  -1
    S_T67U24  COST  68.8348  SU_T67U24  -1
    S_T67U25  COST  174.103  SU_T67U25  -1
    S_T67U26  COST  100.63  SU_T67U26  -1
    S_T67U27  COST  86.978  SU_T67U27  -1
    S_T67U28  COST  101.723  SU_T67U28  -1
    S_T67U29  COST  96.7868  SU_T67U29  -1
    S_T67U30  COST  66.6706  SU_T67U30  -1
    S_T68U1  COST  181.268  SU_T68U1  -1
    S_T68U2  COST  71.1661  SU_T68U2  -1
    S_T68U3  COST  65.8387  SU_T68U3  -1
    S_T68U4  COST  148.458  SU_T68U4  -1
    S_T68U5  COST  62.3036  SU_T68U5  -1
    S_T68U6  COST  198.463  SU_T68U6  -1
    S_T68U7  COST  116.679  SU_T68U7  -1
    S_T68U8  COST  67.592  SU_T68U8  -1
    S_T68U9  COST  102.771  SU_T68U9  -1
    S_T68U10  COST  126.062  SU_T68U10  -1
    S_T68U11  COST  197.776  SU_T68U11  -1
    S_T68U12  COST  115.154  SU_T68U12  -1
    S_T68U13  COST  142.816  SU_T68U13  -1
    S_T68U14  COST  125.107  SU_T68U14  -1
    S_T68U15  COST  53.5299  SU_T68U15  -1
    S_T68U16  COST  91.8407  SU_T68U16  -1
    S_T68U17  COST  64.932  SU_T68U17  -1
    S_T68U18  COST  128.54  SU_T68U18  -1
    S_T68U19  COST  120.643  SU_T68U19  -1
    S_T68U20  COST  79.2513  SU_T68U20  -1
    S_T68U21  COST  167.138  SU_T68U21  -1
    S_T68U22  COST  140.37  SU_T68U22  -1
    S_T68U23  COST  59.1511  SU_T68U23  -1
    S_T68U24  COST  63.9907  SU_T68U24  -1
    S_T68U25  COST  70.262  SU_T68U25  -1
    S_T68U26  COST  183.436  SU_T68U26  -1
    S_T68U27  COST  164.874  SU_T68U27  -1
    S_T68U28  COST  50.2019  SU_T68U28  -1
    S_T68U29  COST  71.5093  SU_T68U29  -1
    S_T68U30  COST  119.61  SU_T68U30  -1
    S_T69U1  COST  98.5729  SU_T69U1  -1
    S_T69U2  COST  147.835  SU_T69U2  -1
    S_T69U3  COST  147.564  SU_T69U3  -1
    S_T69U4  COST  68.3011  SU_T69U4  -1
    S_T69U5  COST  67.0161  SU_T69U5  -1
    S_T69U6  COST  77.5179  SU_T69U6  -1
    S_T69U7  COST  111.706  SU_T69U7  -1
    S_T69U8  COST  54.1766  SU_T69U8  -1
    S_T69U9  COST  171.014  SU_T69U9  -1
    S_T69U10  COST  122.407  SU_T69U10  -1
    S_T69U11  COST  150.927  SU_T69U11  -1
    S_T69U12  COST  123.89  SU_T69U12  -1
    S_T69U13  COST  170.829  SU_T69U13  -1
    S_T69U14  COST  170.897  SU_T69U14  -1
    S_T69U15  COST  74.8852  SU_T69U15  -1
    S_T69U16  COST  104.413  SU_T69U16  -1
    S_T69U17  COST  175.973  SU_T69U17  -1
    S_T69U18  COST  170.031  SU_T69U18  -1
    S_T69U19  COST  72.6031  SU_T69U19  -1
    S_T69U20  COST  198.718  SU_T69U20  -1
    S_T69U21  COST  167.715  SU_T69U21  -1
    S_T69U22  COST  140.822  SU_T69U22  -1
    S_T69U23  COST  175.63  SU_T69U23  -1
    S_T69U24  COST  137.179  SU_T69U24  -1
    S_T69U25  COST  163.45  SU_T69U25  -1
    S_T69U26  COST  188.643  SU_T69U26  -1
    S_T69U27  COST  69.1662  SU_T69U27  -1
    S_T69U28  COST  56.3705  SU_T69U28  -1
    S_T69U29  COST  185.406  SU_T69U29  -1
    S_T69U30  COST  69.1054  SU_T69U30  -1
    S_T70U1  COST  172.015  SU_T70U1  -1
    S_T70U2  COST  119.1  SU_T70U2  -1
    S_T70U3  COST  97.7393  SU_T70U3  -1
    S_T70U4  COST  146.735  SU_T70U4  -1
    S_T70U5  COST  94.8174  SU_T70U5  -1
    S_T70U6  COST  52.0451  SU_T70U6  -1
    S_T70U7  COST  133.154  SU_T70U7  -1
    S_T70U8  COST  63.8148  SU_T70U8  -1
    S_T70U9  COST  184.161  SU_T70U9  -1
    S_T70U10  COST  184.818  SU_T70U10  -1
    S_T70U11  COST  171.839  SU_T70U11  -1
    S_T70U12  COST  149.94  SU_T70U12  -1
    S_T70U13  COST  83.8592  SU_T70U13  -1
    S_T70U14  COST  122.007  SU_T70U14  -1
    S_T70U15  COST  62.1558  SU_T70U15  -1
    S_T70U16  COST  196.519  SU_T70U16  -1
    S_T70U17  COST  63.1475  SU_T70U17  -1
    S_T70U18  COST  183.698  SU_T70U18  -1
    S_T70U19  COST  98.0041  SU_T70U19  -1
    S_T70U20  COST  97.7456  SU_T70U20  -1
    S_T70U21  COST  178.933  SU_T70U21  -1
    S_T70U22  COST  154.198  SU_T70U22  -1
    S_T70U23  COST  160.776  SU_T70U23  -1
    S_T70U24  COST  67.9343  SU_T70U24  -1
    S_T70U25  COST  88.5115  SU_T70U25  -1
    S_T70U26  COST  113.891  SU_T70U26  -1
    S_T70U27  COST  63.8751  SU_T70U27  -1
    S_T70U28  COST  151.055  SU_T70U28  -1
    S_T70U29  COST  96.1295  SU_T70U29  -1
    S_T70U30  COST  169.476  SU_T70U30  -1
    S_T71U1  COST  83.905  SU_T71U1  -1
    S_T71U2  COST  128.535  SU_T71U2  -1
    S_T71U3  COST  94.7113  SU_T71U3  -1
    S_T71U4  COST  165.727  SU_T71U4  -1
    S_T71U5  COST  174.863  SU_T71U5  -1
    S_T71U6  COST  121.125  SU_T71U6  -1
    S_T71U7  COST  57.2138  SU_T71U7  -1
    S_T71U8  COST  189.882  SU_T71U8  -1
    S_T71U9  COST  90.768  SU_T71U9  -1
    S_T71U10  COST  139.789  SU_T71U10  -1
    S_T71U11  COST  73.0879  SU_T71U11  -1
    S_T71U12  COST  131.716  SU_T71U12  -1
    S_T71U13  COST  184.045  SU_T71U13  -1
    S_T71U14  COST  186.16  SU_T71U14  -1
    S_T71U15  COST  155.065  SU_T71U15  -1
    S_T71U16  COST  100.595  SU_T71U16  -1
    S_T71U17  COST  129.457  SU_T71U17  -1
    S_T71U18  COST  188.616  SU_T71U18  -1
    S_T71U19  COST  174.981  SU_T71U19  -1
    S_T71U20  COST  194.982  SU_T71U20  -1
    S_T71U21  COST  189.596  SU_T71U21  -1
    S_T71U22  COST  96.0858  SU_T71U22  -1
    S_T71U23  COST  132.571  SU_T71U23  -1
    S_T71U24  COST  97.6974  SU_T71U24  -1
    S_T71U25  COST  101.844  SU_T71U25  -1
    S_T71U26  COST  120.009  SU_T71U26  -1
    S_T71U27  COST  74.9079  SU_T71U27  -1
    S_T71U28  COST  124.895  SU_T71U28  -1
    S_T71U29  COST  67.121  SU_T71U29  -1
    S_T71U30  COST  180.898  SU_T71U30  -1
    S_T72U1  COST  197.871  SU_T72U1  -1
    S_T72U2  COST  142.097  SU_T72U2  -1
    S_T72U3  COST  118.616  SU_T72U3  -1
    S_T72U4  COST  118.307  SU_T72U4  -1
    S_T72U5  COST  159.574  SU_T72U5  -1
    S_T72U6  COST  79.6459  SU_T72U6  -1
    S_T72U7  COST  89.3706  SU_T72U7  -1
    S_T72U8  COST  66.6813  SU_T72U8  -1
    S_T72U9  COST  94.6042  SU_T72U9  -1
    S_T72U10  COST  151.343  SU_T72U10  -1
    S_T72U11  COST  142.995  SU_T72U11  -1
    S_T72U12  COST  82.2375  SU_T72U12  -1
    S_T72U13  COST  104.547  SU_T72U13  -1
    S_T72U14  COST  67.4717  SU_T72U14  -1
    S_T72U15  COST  94.3202  SU_T72U15  -1
    S_T72U16  COST  151.759  SU_T72U16  -1
    S_T72U17  COST  72.2541  SU_T72U17  -1
    S_T72U18  COST  181.815  SU_T72U18  -1
    S_T72U19  COST  180.491  SU_T72U19  -1
    S_T72U20  COST  142.16  SU_T72U20  -1
    S_T72U21  COST  97.8685  SU_T72U21  -1
    S_T72U22  COST  125.374  SU_T72U22  -1
    S_T72U23  COST  97.2516  SU_T72U23  -1
    S_T72U24  COST  187.368  SU_T72U24  -1
    S_T72U25  COST  96.0458  SU_T72U25  -1
    S_T72U26  COST  151.774  SU_T72U26  -1
    S_T72U27  COST  198.162  SU_T72U27  -1
    S_T72U28  COST  109.12  SU_T72U28  -1
    S_T72U29  COST  170.253  SU_T72U29  -1
    S_T72U30  COST  113.398  SU_T72U30  -1
    S_T73U1  COST  51.574  SU_T73U1  -1
    S_T73U2  COST  72.3711  SU_T73U2  -1
    S_T73U3  COST  142.69  SU_T73U3  -1
    S_T73U4  COST  181.081  SU_T73U4  -1
    S_T73U5  COST  84.0036  SU_T73U5  -1
    S_T73U6  COST  102.731  SU_T73U6  -1
    S_T73U7  COST  53.6165  SU_T73U7  -1
    S_T73U8  COST  69.0644  SU_T73U8  -1
    S_T73U9  COST  118.9  SU_T73U9  -1
    S_T73U10  COST  185.831  SU_T73U10  -1
    S_T73U11  COST  79.5332  SU_T73U11  -1
    S_T73U12  COST  79.9117  SU_T73U12  -1
    S_T73U13  COST  125.532  SU_T73U13  -1
    S_T73U14  COST  82.7261  SU_T73U14  -1
    S_T73U15  COST  119.917  SU_T73U15  -1
    S_T73U16  COST  52.1851  SU_T73U16  -1
    S_T73U17  COST  179.944  SU_T73U17  -1
    S_T73U18  COST  112.269  SU_T73U18  -1
    S_T73U19  COST  121.75  SU_T73U19  -1
    S_T73U20  COST  172.941  SU_T73U20  -1
    S_T73U21  COST  168.161  SU_T73U21  -1
    S_T73U22  COST  175.586  SU_T73U22  -1
    S_T73U23  COST  106.071  SU_T73U23  -1
    S_T73U24  COST  51.8512  SU_T73U24  -1
    S_T73U25  COST  161.344  SU_T73U25  -1
    S_T73U26  COST  139.701  SU_T73U26  -1
    S_T73U27  COST  178.221  SU_T73U27  -1
    S_T73U28  COST  182.535  SU_T73U28  -1
    S_T73U29  COST  79.1244  SU_T73U29  -1
    S_T73U30  COST  51.1001  SU_T73U30  -1
    S_T74U1  COST  132.994  SU_T74U1  -1
    S_T74U2  COST  199.187  SU_T74U2  -1
    S_T74U3  COST  88.7156  SU_T74U3  -1
    S_T74U4  COST  187.631  SU_T74U4  -1
    S_T74U5  COST  173.351  SU_T74U5  -1
    S_T74U6  COST  128.735  SU_T74U6  -1
    S_T74U7  COST  99.5587  SU_T74U7  -1
    S_T74U8  COST  118.142  SU_T74U8  -1
    S_T74U9  COST  190.539  SU_T74U9  -1
    S_T74U10  COST  169.473  SU_T74U10  -1
    S_T74U11  COST  152.084  SU_T74U11  -1
    S_T74U12  COST  58.8659  SU_T74U12  -1
    S_T74U13  COST  159.318  SU_T74U13  -1
    S_T74U14  COST  189.208  SU_T74U14  -1
    S_T74U15  COST  92.8851  SU_T74U15  -1
    S_T74U16  COST  75.4809  SU_T74U16  -1
    S_T74U17  COST  99.672  SU_T74U17  -1
    S_T74U18  COST  112.052  SU_T74U18  -1
    S_T74U19  COST  136.943  SU_T74U19  -1
    S_T74U20  COST  198.281  SU_T74U20  -1
    S_T74U21  COST  195.17  SU_T74U21  -1
    S_T74U22  COST  194.474  SU_T74U22  -1
    S_T74U23  COST  123.561  SU_T74U23  -1
    S_T74U24  COST  57.6462  SU_T74U24  -1
    S_T74U25  COST  81.1675  SU_T74U25  -1
    S_T74U26  COST  66.8547  SU_T74U26  -1
    S_T74U27  COST  167.245  SU_T74U27  -1
    S_T74U28  COST  144.162  SU_T74U28  -1
    S_T74U29  COST  176.563  SU_T74U29  -1
    S_T74U30  COST  153.094  SU_T74U30  -1
    S_T75U1  COST  159.537  SU_T75U1  -1
    S_T75U2  COST  144.608  SU_T75U2  -1
    S_T75U3  COST  141.841  SU_T75U3  -1
    S_T75U4  COST  79.216  SU_T75U4  -1
    S_T75U5  COST  90.8976  SU_T75U5  -1
    S_T75U6  COST  105.818  SU_T75U6  -1
    S_T75U7  COST  60.196  SU_T75U7  -1
    S_T75U8  COST  193.58  SU_T75U8  -1
    S_T75U9  COST  147.841  SU_T75U9  -1
    S_T75U10  COST  151.364  SU_T75U10  -1
    S_T75U11  COST  135.283  SU_T75U11  -1
    S_T75U12  COST  144.92  SU_T75U12  -1
    S_T75U13  COST  199.112  SU_T75U13  -1
    S_T75U14  COST  159.526  SU_T75U14  -1
    S_T75U15  COST  115.108  SU_T75U15  -1
    S_T75U16  COST  111.363  SU_T75U16  -1
    S_T75U17  COST  95.4245  SU_T75U17  -1
    S_T75U18  COST  155.109  SU_T75U18  -1
    S_T75U19  COST  190.8  SU_T75U19  -1
    S_T75U20  COST  86.5703  SU_T75U20  -1
    S_T75U21  COST  79.8221  SU_T75U21  -1
    S_T75U22  COST  83.6904  SU_T75U22  -1
    S_T75U23  COST  174.125  SU_T75U23  -1
    S_T75U24  COST  120.954  SU_T75U24  -1
    S_T75U25  COST  154.901  SU_T75U25  -1
    S_T75U26  COST  161.711  SU_T75U26  -1
    S_T75U27  COST  79.3633  SU_T75U27  -1
    S_T75U28  COST  69.5757  SU_T75U28  -1
    S_T75U29  COST  97.5958  SU_T75U29  -1
    S_T75U30  COST  59.1393  SU_T75U30  -1
    S_T76U1  COST  77.4127  SU_T76U1  -1
    S_T76U2  COST  112.327  SU_T76U2  -1
    S_T76U3  COST  86.3867  SU_T76U3  -1
    S_T76U4  COST  97.8034  SU_T76U4  -1
    S_T76U5  COST  69.2895  SU_T76U5  -1
    S_T76U6  COST  59.1353  SU_T76U6  -1
    S_T76U7  COST  157.162  SU_T76U7  -1
    S_T76U8  COST  68.8063  SU_T76U8  -1
    S_T76U9  COST  146.313  SU_T76U9  -1
    S_T76U10  COST  124.178  SU_T76U10  -1
    S_T76U11  COST  138.214  SU_T76U11  -1
    S_T76U12  COST  144.045  SU_T76U12  -1
    S_T76U13  COST  141.747  SU_T76U13  -1
    S_T76U14  COST  88.3616  SU_T76U14  -1
    S_T76U15  COST  74.6931  SU_T76U15  -1
    S_T76U16  COST  168.604  SU_T76U16  -1
    S_T76U17  COST  115.399  SU_T76U17  -1
    S_T76U18  COST  138.448  SU_T76U18  -1
    S_T76U19  COST  174.731  SU_T76U19  -1
    S_T76U20  COST  158.461  SU_T76U20  -1
    S_T76U21  COST  157.235  SU_T76U21  -1
    S_T76U22  COST  52.1913  SU_T76U22  -1
    S_T76U23  COST  140.726  SU_T76U23  -1
    S_T76U24  COST  179.522  SU_T76U24  -1
    S_T76U25  COST  94.0302  SU_T76U25  -1
    S_T76U26  COST  99.9171  SU_T76U26  -1
    S_T76U27  COST  156.052  SU_T76U27  -1
    S_T76U28  COST  171.158  SU_T76U28  -1
    S_T76U29  COST  172.412  SU_T76U29  -1
    S_T76U30  COST  160.388  SU_T76U30  -1
    S_T77U1  COST  69.9392  SU_T77U1  -1
    S_T77U2  COST  97.9615  SU_T77U2  -1
    S_T77U3  COST  70.6445  SU_T77U3  -1
    S_T77U4  COST  185.484  SU_T77U4  -1
    S_T77U5  COST  81.4184  SU_T77U5  -1
    S_T77U6  COST  103.486  SU_T77U6  -1
    S_T77U7  COST  56.0433  SU_T77U7  -1
    S_T77U8  COST  152.072  SU_T77U8  -1
    S_T77U9  COST  143.056  SU_T77U9  -1
    S_T77U10  COST  62.5587  SU_T77U10  -1
    S_T77U11  COST  106.092  SU_T77U11  -1
    S_T77U12  COST  72.7057  SU_T77U12  -1
    S_T77U13  COST  99.2837  SU_T77U13  -1
    S_T77U14  COST  77.3687  SU_T77U14  -1
    S_T77U15  COST  114.228  SU_T77U15  -1
    S_T77U16  COST  158.917  SU_T77U16  -1
    S_T77U17  COST  72.0841  SU_T77U17  -1
    S_T77U18  COST  96.99  SU_T77U18  -1
    S_T77U19  COST  109.742  SU_T77U19  -1
    S_T77U20  COST  128.511  SU_T77U20  -1
    S_T77U21  COST  171.812  SU_T77U21  -1
    S_T77U22  COST  169.259  SU_T77U22  -1
    S_T77U23  COST  164.779  SU_T77U23  -1
    S_T77U24  COST  148.657  SU_T77U24  -1
    S_T77U25  COST  53.8355  SU_T77U25  -1
    S_T77U26  COST  185.487  SU_T77U26  -1
    S_T77U27  COST  171.859  SU_T77U27  -1
    S_T77U28  COST  139.995  SU_T77U28  -1
    S_T77U29  COST  131.889  SU_T77U29  -1
    S_T77U30  COST  180.697  SU_T77U30  -1
    S_T78U1  COST  91.0548  SU_T78U1  -1
    S_T78U2  COST  64.6262  SU_T78U2  -1
    S_T78U3  COST  99.224  SU_T78U3  -1
    S_T78U4  COST  150.404  SU_T78U4  -1
    S_T78U5  COST  86.5357  SU_T78U5  -1
    S_T78U6  COST  59.5527  SU_T78U6  -1
    S_T78U7  COST  50.7709  SU_T78U7  -1
    S_T78U8  COST  62.6383  SU_T78U8  -1
    S_T78U9  COST  85.3434  SU_T78U9  -1
    S_T78U10  COST  180.688  SU_T78U10  -1
    S_T78U11  COST  167.482  SU_T78U11  -1
    S_T78U12  COST  197.984  SU_T78U12  -1
    S_T78U13  COST  62.2949  SU_T78U13  -1
    S_T78U14  COST  143.747  SU_T78U14  -1
    S_T78U15  COST  96.0718  SU_T78U15  -1
    S_T78U16  COST  193.921  SU_T78U16  -1
    S_T78U17  COST  63.2228  SU_T78U17  -1
    S_T78U18  COST  173.083  SU_T78U18  -1
    S_T78U19  COST  145.407  SU_T78U19  -1
    S_T78U20  COST  136.674  SU_T78U20  -1
    S_T78U21  COST  121.58  SU_T78U21  -1
    S_T78U22  COST  197.186  SU_T78U22  -1
    S_T78U23  COST  190.08  SU_T78U23  -1
    S_T78U24  COST  120.318  SU_T78U24  -1
    S_T78U25  COST  188.329  SU_T78U25  -1
    S_T78U26  COST  95.6363  SU_T78U26  -1
    S_T78U27  COST  141.801  SU_T78U27  -1
    S_T78U28  COST  98.9162  SU_T78U28  -1
    S_T78U29  COST  102.469  SU_T78U29  -1
    S_T78U30  COST  84.9609  SU_T78U30  -1
    S_T79U1  COST  144.444  SU_T79U1  -1
    S_T79U2  COST  69.8432  SU_T79U2  -1
    S_T79U3  COST  137.394  SU_T79U3  -1
    S_T79U4  COST  186.727  SU_T79U4  -1
    S_T79U5  COST  58.4243  SU_T79U5  -1
    S_T79U6  COST  129.135  SU_T79U6  -1
    S_T79U7  COST  75.119  SU_T79U7  -1
    S_T79U8  COST  54.9902  SU_T79U8  -1
    S_T79U9  COST  112.379  SU_T79U9  -1
    S_T79U10  COST  109.513  SU_T79U10  -1
    S_T79U11  COST  117.69  SU_T79U11  -1
    S_T79U12  COST  129.509  SU_T79U12  -1
    S_T79U13  COST  111.606  SU_T79U13  -1
    S_T79U14  COST  184.258  SU_T79U14  -1
    S_T79U15  COST  151.032  SU_T79U15  -1
    S_T79U16  COST  91.5305  SU_T79U16  -1
    S_T79U17  COST  189.624  SU_T79U17  -1
    S_T79U18  COST  161.954  SU_T79U18  -1
    S_T79U19  COST  176.848  SU_T79U19  -1
    S_T79U20  COST  50.2466  SU_T79U20  -1
    S_T79U21  COST  135.614  SU_T79U21  -1
    S_T79U22  COST  179.311  SU_T79U22  -1
    S_T79U23  COST  133.074  SU_T79U23  -1
    S_T79U24  COST  92.2089  SU_T79U24  -1
    S_T79U25  COST  162.927  SU_T79U25  -1
    S_T79U26  COST  181.429  SU_T79U26  -1
    S_T79U27  COST  84.7762  SU_T79U27  -1
    S_T79U28  COST  96.1554  SU_T79U28  -1
    S_T79U29  COST  60.9505  SU_T79U29  -1
    S_T79U30  COST  156.65  SU_T79U30  -1
    S_T80U1  COST  162.407  SU_T80U1  -1
    S_T80U2  COST  66.2043  SU_T80U2  -1
    S_T80U3  COST  162.539  SU_T80U3  -1
    S_T80U4  COST  143.7  SU_T80U4  -1
    S_T80U5  COST  117.83  SU_T80U5  -1
    S_T80U6  COST  152.977  SU_T80U6  -1
    S_T80U7  COST  181.618  SU_T80U7  -1
    S_T80U8  COST  150.738  SU_T80U8  -1
    S_T80U9  COST  130.245  SU_T80U9  -1
    S_T80U10  COST  171.21  SU_T80U10  -1
    S_T80U11  COST  134.364  SU_T80U11  -1
    S_T80U12  COST  167.375  SU_T80U12  -1
    S_T80U13  COST  109.796  SU_T80U13  -1
    S_T80U14  COST  90.0613  SU_T80U14  -1
    S_T80U15  COST  178.814  SU_T80U15  -1
    S_T80U16  COST  193.106  SU_T80U16  -1
    S_T80U17  COST  52.7413  SU_T80U17  -1
    S_T80U18  COST  60.2973  SU_T80U18  -1
    S_T80U19  COST  192.71  SU_T80U19  -1
    S_T80U20  COST  130.638  SU_T80U20  -1
    S_T80U21  COST  114.223  SU_T80U21  -1
    S_T80U22  COST  83.5887  SU_T80U22  -1
    S_T80U23  COST  115.797  SU_T80U23  -1
    S_T80U24  COST  171.18  SU_T80U24  -1
    S_T80U25  COST  130.556  SU_T80U25  -1
    S_T80U26  COST  100.898  SU_T80U26  -1
    S_T80U27  COST  199.068  SU_T80U27  -1
    S_T80U28  COST  151.103  SU_T80U28  -1
    S_T80U29  COST  187.371  SU_T80U29  -1
    S_T80U30  COST  92.5412  SU_T80U30  -1
    S_T81U1  COST  53.1137  SU_T81U1  -1
    S_T81U2  COST  56.4109  SU_T81U2  -1
    S_T81U3  COST  67.7991  SU_T81U3  -1
    S_T81U4  COST  121.479  SU_T81U4  -1
    S_T81U5  COST  70.8503  SU_T81U5  -1
    S_T81U6  COST  122.428  SU_T81U6  -1
    S_T81U7  COST  67.3338  SU_T81U7  -1
    S_T81U8  COST  125.37  SU_T81U8  -1
    S_T81U9  COST  170.447  SU_T81U9  -1
    S_T81U10  COST  140.889  SU_T81U10  -1
    S_T81U11  COST  181.762  SU_T81U11  -1
    S_T81U12  COST  163.181  SU_T81U12  -1
    S_T81U13  COST  138.833  SU_T81U13  -1
    S_T81U14  COST  79.141  SU_T81U14  -1
    S_T81U15  COST  174.473  SU_T81U15  -1
    S_T81U16  COST  111.681  SU_T81U16  -1
    S_T81U17  COST  67.7334  SU_T81U17  -1
    S_T81U18  COST  168.969  SU_T81U18  -1
    S_T81U19  COST  77.8942  SU_T81U19  -1
    S_T81U20  COST  81.4846  SU_T81U20  -1
    S_T81U21  COST  195.442  SU_T81U21  -1
    S_T81U22  COST  154.939  SU_T81U22  -1
    S_T81U23  COST  67.3735  SU_T81U23  -1
    S_T81U24  COST  125.553  SU_T81U24  -1
    S_T81U25  COST  126.221  SU_T81U25  -1
    S_T81U26  COST  121.661  SU_T81U26  -1
    S_T81U27  COST  165.195  SU_T81U27  -1
    S_T81U28  COST  144.989  SU_T81U28  -1
    S_T81U29  COST  129.666  SU_T81U29  -1
    S_T81U30  COST  173.891  SU_T81U30  -1
    S_T82U1  COST  188.611  SU_T82U1  -1
    S_T82U2  COST  134.28  SU_T82U2  -1
    S_T82U3  COST  188.946  SU_T82U3  -1
    S_T82U4  COST  173.721  SU_T82U4  -1
    S_T82U5  COST  132.79  SU_T82U5  -1
    S_T82U6  COST  113.9  SU_T82U6  -1
    S_T82U7  COST  148.665  SU_T82U7  -1
    S_T82U8  COST  189.943  SU_T82U8  -1
    S_T82U9  COST  128.912  SU_T82U9  -1
    S_T82U10  COST  156.9  SU_T82U10  -1
    S_T82U11  COST  120.696  SU_T82U11  -1
    S_T82U12  COST  106.734  SU_T82U12  -1
    S_T82U13  COST  111.966  SU_T82U13  -1
    S_T82U14  COST  111.855  SU_T82U14  -1
    S_T82U15  COST  136.368  SU_T82U15  -1
    S_T82U16  COST  158.793  SU_T82U16  -1
    S_T82U17  COST  63.0607  SU_T82U17  -1
    S_T82U18  COST  131.824  SU_T82U18  -1
    S_T82U19  COST  131.596  SU_T82U19  -1
    S_T82U20  COST  177.339  SU_T82U20  -1
    S_T82U21  COST  86.8326  SU_T82U21  -1
    S_T82U22  COST  101.426  SU_T82U22  -1
    S_T82U23  COST  135.561  SU_T82U23  -1
    S_T82U24  COST  157.204  SU_T82U24  -1
    S_T82U25  COST  116.566  SU_T82U25  -1
    S_T82U26  COST  62.1431  SU_T82U26  -1
    S_T82U27  COST  159.33  SU_T82U27  -1
    S_T82U28  COST  139.906  SU_T82U28  -1
    S_T82U29  COST  183.535  SU_T82U29  -1
    S_T82U30  COST  50.5756  SU_T82U30  -1
    S_T83U1  COST  137.469  SU_T83U1  -1
    S_T83U2  COST  58.1768  SU_T83U2  -1
    S_T83U3  COST  124.88  SU_T83U3  -1
    S_T83U4  COST  180.894  SU_T83U4  -1
    S_T83U5  COST  123.108  SU_T83U5  -1
    S_T83U6  COST  89.2627  SU_T83U6  -1
    S_T83U7  COST  174.408  SU_T83U7  -1
    S_T83U8  COST  187.583  SU_T83U8  -1
    S_T83U9  COST  94.8848  SU_T83U9  -1
    S_T83U10  COST  96.8288  SU_T83U10  -1
    S_T83U11  COST  169.445  SU_T83U11  -1
    S_T83U12  COST  197.865  SU_T83U12  -1
    S_T83U13  COST  140.208  SU_T83U13  -1
    S_T83U14  COST  131.689  SU_T83U14  -1
    S_T83U15  COST  161.724  SU_T83U15  -1
    S_T83U16  COST  53.0035  SU_T83U16  -1
    S_T83U17  COST  108.12  SU_T83U17  -1
    S_T83U18  COST  119.631  SU_T83U18  -1
    S_T83U19  COST  122.044  SU_T83U19  -1
    S_T83U20  COST  82.8689  SU_T83U20  -1
    S_T83U21  COST  139.465  SU_T83U21  -1
    S_T83U22  COST  54.0301  SU_T83U22  -1
    S_T83U23  COST  65.9188  SU_T83U23  -1
    S_T83U24  COST  109.367  SU_T83U24  -1
    S_T83U25  COST  170.84  SU_T83U25  -1
    S_T83U26  COST  194.315  SU_T83U26  -1
    S_T83U27  COST  142.744  SU_T83U27  -1
    S_T83U28  COST  150.01  SU_T83U28  -1
    S_T83U29  COST  114.315  SU_T83U29  -1
    S_T83U30  COST  53.3129  SU_T83U30  -1
    S_T84U1  COST  100.049  SU_T84U1  -1
    S_T84U2  COST  70.7552  SU_T84U2  -1
    S_T84U3  COST  178.545  SU_T84U3  -1
    S_T84U4  COST  123.854  SU_T84U4  -1
    S_T84U5  COST  178.333  SU_T84U5  -1
    S_T84U6  COST  96.4119  SU_T84U6  -1
    S_T84U7  COST  127.351  SU_T84U7  -1
    S_T84U8  COST  76.7624  SU_T84U8  -1
    S_T84U9  COST  176.316  SU_T84U9  -1
    S_T84U10  COST  98.8737  SU_T84U10  -1
    S_T84U11  COST  133.325  SU_T84U11  -1
    S_T84U12  COST  81.049  SU_T84U12  -1
    S_T84U13  COST  62.6397  SU_T84U13  -1
    S_T84U14  COST  152.058  SU_T84U14  -1
    S_T84U15  COST  174.151  SU_T84U15  -1
    S_T84U16  COST  168.353  SU_T84U16  -1
    S_T84U17  COST  71.0821  SU_T84U17  -1
    S_T84U18  COST  127.712  SU_T84U18  -1
    S_T84U19  COST  175.48  SU_T84U19  -1
    S_T84U20  COST  189.29  SU_T84U20  -1
    S_T84U21  COST  95.9402  SU_T84U21  -1
    S_T84U22  COST  154.429  SU_T84U22  -1
    S_T84U23  COST  63.9072  SU_T84U23  -1
    S_T84U24  COST  173.246  SU_T84U24  -1
    S_T84U25  COST  168.784  SU_T84U25  -1
    S_T84U26  COST  122.341  SU_T84U26  -1
    S_T84U27  COST  76.1885  SU_T84U27  -1
    S_T84U28  COST  156.767  SU_T84U28  -1
    S_T84U29  COST  137.403  SU_T84U29  -1
    S_T84U30  COST  68.2122  SU_T84U30  -1
    S_T85U1  COST  77.5677  SU_T85U1  -1
    S_T85U2  COST  123.082  SU_T85U2  -1
    S_T85U3  COST  87.3229  SU_T85U3  -1
    S_T85U4  COST  91.9454  SU_T85U4  -1
    S_T85U5  COST  159.202  SU_T85U5  -1
    S_T85U6  COST  88.6218  SU_T85U6  -1
    S_T85U7  COST  107.833  SU_T85U7  -1
    S_T85U8  COST  178.4  SU_T85U8  -1
    S_T85U9  COST  170.768  SU_T85U9  -1
    S_T85U10  COST  60.4579  SU_T85U10  -1
    S_T85U11  COST  108.175  SU_T85U11  -1
    S_T85U12  COST  158.704  SU_T85U12  -1
    S_T85U13  COST  179.373  SU_T85U13  -1
    S_T85U14  COST  177.832  SU_T85U14  -1
    S_T85U15  COST  57.4492  SU_T85U15  -1
    S_T85U16  COST  59.466  SU_T85U16  -1
    S_T85U17  COST  150.913  SU_T85U17  -1
    S_T85U18  COST  76.94  SU_T85U18  -1
    S_T85U19  COST  118.636  SU_T85U19  -1
    S_T85U20  COST  167.45  SU_T85U20  -1
    S_T85U21  COST  118.523  SU_T85U21  -1
    S_T85U22  COST  67.1356  SU_T85U22  -1
    S_T85U23  COST  174.196  SU_T85U23  -1
    S_T85U24  COST  197.177  SU_T85U24  -1
    S_T85U25  COST  168.79  SU_T85U25  -1
    S_T85U26  COST  113.743  SU_T85U26  -1
    S_T85U27  COST  157.861  SU_T85U27  -1
    S_T85U28  COST  191.567  SU_T85U28  -1
    S_T85U29  COST  65.0844  SU_T85U29  -1
    S_T85U30  COST  142.507  SU_T85U30  -1
    S_T86U1  COST  101.93  SU_T86U1  -1
    S_T86U2  COST  102.53  SU_T86U2  -1
    S_T86U3  COST  182.721  SU_T86U3  -1
    S_T86U4  COST  110.636  SU_T86U4  -1
    S_T86U5  COST  180.284  SU_T86U5  -1
    S_T86U6  COST  127.494  SU_T86U6  -1
    S_T86U7  COST  127.581  SU_T86U7  -1
    S_T86U8  COST  152.776  SU_T86U8  -1
    S_T86U9  COST  80.2196  SU_T86U9  -1
    S_T86U10  COST  75.4639  SU_T86U10  -1
    S_T86U11  COST  112.87  SU_T86U11  -1
    S_T86U12  COST  75.7869  SU_T86U12  -1
    S_T86U13  COST  74.6899  SU_T86U13  -1
    S_T86U14  COST  97.6083  SU_T86U14  -1
    S_T86U15  COST  127.296  SU_T86U15  -1
    S_T86U16  COST  162.766  SU_T86U16  -1
    S_T86U17  COST  161.515  SU_T86U17  -1
    S_T86U18  COST  179.1  SU_T86U18  -1
    S_T86U19  COST  51.5827  SU_T86U19  -1
    S_T86U20  COST  177.643  SU_T86U20  -1
    S_T86U21  COST  55.2823  SU_T86U21  -1
    S_T86U22  COST  170.306  SU_T86U22  -1
    S_T86U23  COST  130.601  SU_T86U23  -1
    S_T86U24  COST  157.885  SU_T86U24  -1
    S_T86U25  COST  97.4323  SU_T86U25  -1
    S_T86U26  COST  121.448  SU_T86U26  -1
    S_T86U27  COST  110.356  SU_T86U27  -1
    S_T86U28  COST  143.822  SU_T86U28  -1
    S_T86U29  COST  105.95  SU_T86U29  -1
    S_T86U30  COST  154.369  SU_T86U30  -1
    S_T87U1  COST  199.327  SU_T87U1  -1
    S_T87U2  COST  87.8796  SU_T87U2  -1
    S_T87U3  COST  177.09  SU_T87U3  -1
    S_T87U4  COST  192.814  SU_T87U4  -1
    S_T87U5  COST  197.871  SU_T87U5  -1
    S_T87U6  COST  171.286  SU_T87U6  -1
    S_T87U7  COST  51.3166  SU_T87U7  -1
    S_T87U8  COST  95.2714  SU_T87U8  -1
    S_T87U9  COST  125.805  SU_T87U9  -1
    S_T87U10  COST  145.183  SU_T87U10  -1
    S_T87U11  COST  68.112  SU_T87U11  -1
    S_T87U12  COST  78.0397  SU_T87U12  -1
    S_T87U13  COST  123.218  SU_T87U13  -1
    S_T87U14  COST  64.8844  SU_T87U14  -1
    S_T87U15  COST  144.275  SU_T87U15  -1
    S_T87U16  COST  144.12  SU_T87U16  -1
    S_T87U17  COST  199.628  SU_T87U17  -1
    S_T87U18  COST  85.3382  SU_T87U18  -1
    S_T87U19  COST  109.869  SU_T87U19  -1
    S_T87U20  COST  80.5232  SU_T87U20  -1
    S_T87U21  COST  187.778  SU_T87U21  -1
    S_T87U22  COST  100.822  SU_T87U22  -1
    S_T87U23  COST  85.8522  SU_T87U23  -1
    S_T87U24  COST  146.057  SU_T87U24  -1
    S_T87U25  COST  161.13  SU_T87U25  -1
    S_T87U26  COST  148.038  SU_T87U26  -1
    S_T87U27  COST  138.958  SU_T87U27  -1
    S_T87U28  COST  70.0017  SU_T87U28  -1
    S_T87U29  COST  93.754  SU_T87U29  -1
    S_T87U30  COST  84.558  SU_T87U30  -1
    S_T88U1  COST  105.403  SU_T88U1  -1
    S_T88U2  COST  67.7358  SU_T88U2  -1
    S_T88U3  COST  179.836  SU_T88U3  -1
    S_T88U4  COST  151.106  SU_T88U4  -1
    S_T88U5  COST  100.842  SU_T88U5  -1
    S_T88U6  COST  61.6224  SU_T88U6  -1
    S_T88U7  COST  137.795  SU_T88U7  -1
    S_T88U8  COST  190.097  SU_T88U8  -1
    S_T88U9  COST  169.609  SU_T88U9  -1
    S_T88U10  COST  162.55  SU_T88U10  -1
    S_T88U11  COST  127.173  SU_T88U11  -1
    S_T88U12  COST  120.032  SU_T88U12  -1
    S_T88U13  COST  130.423  SU_T88U13  -1
    S_T88U14  COST  116.535  SU_T88U14  -1
    S_T88U15  COST  94.2419  SU_T88U15  -1
    S_T88U16  COST  163.539  SU_T88U16  -1
    S_T88U17  COST  179.546  SU_T88U17  -1
    S_T88U18  COST  114.029  SU_T88U18  -1
    S_T88U19  COST  54.5624  SU_T88U19  -1
    S_T88U20  COST  181.102  SU_T88U20  -1
    S_T88U21  COST  73.7672  SU_T88U21  -1
    S_T88U22  COST  173.405  SU_T88U22  -1
    S_T88U23  COST  110.255  SU_T88U23  -1
    S_T88U24  COST  175.918  SU_T88U24  -1
    S_T88U25  COST  142.26  SU_T88U25  -1
    S_T88U26  COST  126.978  SU_T88U26  -1
    S_T88U27  COST  195.989  SU_T88U27  -1
    S_T88U28  COST  51.4315  SU_T88U28  -1
    S_T88U29  COST  106.378  SU_T88U29  -1
    S_T88U30  COST  51.0713  SU_T88U30  -1
    S_T89U1  COST  99.3846  SU_T89U1  -1
    S_T89U2  COST  117.535  SU_T89U2  -1
    S_T89U3  COST  102.783  SU_T89U3  -1
    S_T89U4  COST  128.233  SU_T89U4  -1
    S_T89U5  COST  194.212  SU_T89U5  -1
    S_T89U6  COST  164.88  SU_T89U6  -1
    S_T89U7  COST  57.0588  SU_T89U7  -1
    S_T89U8  COST  78.3191  SU_T89U8  -1
    S_T89U9  COST  190.374  SU_T89U9  -1
    S_T89U10  COST  93.5383  SU_T89U10  -1
    S_T89U11  COST  66.7902  SU_T89U11  -1
    S_T89U12  COST  135.265  SU_T89U12  -1
    S_T89U13  COST  198.003  SU_T89U13  -1
    S_T89U14  COST  126.448  SU_T89U14  -1
    S_T89U15  COST  167.778  SU_T89U15  -1
    S_T89U16  COST  191.806  SU_T89U16  -1
    S_T89U17  COST  189.65  SU_T89U17  -1
    S_T89U18  COST  132.096  SU_T89U18  -1
    S_T89U19  COST  89.4081  SU_T89U19  -1
    S_T89U20  COST  98.6493  SU_T89U20  -1
    S_T89U21  COST  173.547  SU_T89U21  -1
    S_T89U22  COST  138.144  SU_T89U22  -1
    S_T89U23  COST  108.84  SU_T89U23  -1
    S_T89U24  COST  159.5  SU_T89U24  -1
    S_T89U25  COST  59.5851  SU_T89U25  -1
    S_T89U26  COST  67.3044  SU_T89U26  -1
    S_T89U27  COST  120.834  SU_T89U27  -1
    S_T89U28  COST  108.936  SU_T89U28  -1
    S_T89U29  COST  102.079  SU_T89U29  -1
    S_T89U30  COST  143.782  SU_T89U30  -1
    S_T90U1  COST  151.956  SU_T90U1  -1
    S_T90U2  COST  141.529  SU_T90U2  -1
    S_T90U3  COST  168.23  SU_T90U3  -1
    S_T90U4  COST  130.121  SU_T90U4  -1
    S_T90U5  COST  162.305  SU_T90U5  -1
    S_T90U6  COST  180.077  SU_T90U6  -1
    S_T90U7  COST  85.5073  SU_T90U7  -1
    S_T90U8  COST  64.5468  SU_T90U8  -1
    S_T90U9  COST  69.3836  SU_T90U9  -1
    S_T90U10  COST  176.752  SU_T90U10  -1
    S_T90U11  COST  90.7496  SU_T90U11  -1
    S_T90U12  COST  94.3133  SU_T90U12  -1
    S_T90U13  COST  150.2  SU_T90U13  -1
    S_T90U14  COST  177.777  SU_T90U14  -1
    S_T90U15  COST  52.0493  SU_T90U15  -1
    S_T90U16  COST  54.3416  SU_T90U16  -1
    S_T90U17  COST  54.8584  SU_T90U17  -1
    S_T90U18  COST  127.08  SU_T90U18  -1
    S_T90U19  COST  100.697  SU_T90U19  -1
    S_T90U20  COST  78.1257  SU_T90U20  -1
    S_T90U21  COST  85.3995  SU_T90U21  -1
    S_T90U22  COST  77.8113  SU_T90U22  -1
    S_T90U23  COST  126.929  SU_T90U23  -1
    S_T90U24  COST  61.9408  SU_T90U24  -1
    S_T90U25  COST  148.152  SU_T90U25  -1
    S_T90U26  COST  86.6221  SU_T90U26  -1
    S_T90U27  COST  188.874  SU_T90U27  -1
    S_T90U28  COST  108.315  SU_T90U28  -1
    S_T90U29  COST  89.3728  SU_T90U29  -1
    S_T90U30  COST  157.725  SU_T90U30  -1
    S_T91U1  COST  139.94  SU_T91U1  -1
    S_T91U2  COST  127.093  SU_T91U2  -1
    S_T91U3  COST  175.617  SU_T91U3  -1
    S_T91U4  COST  183.352  SU_T91U4  -1
    S_T91U5  COST  75.9536  SU_T91U5  -1
    S_T91U6  COST  67.9296  SU_T91U6  -1
    S_T91U7  COST  65.9618  SU_T91U7  -1
    S_T91U8  COST  70.8453  SU_T91U8  -1
    S_T91U9  COST  57.1871  SU_T91U9  -1
    S_T91U10  COST  156.674  SU_T91U10  -1
    S_T91U11  COST  164.578  SU_T91U11  -1
    S_T91U12  COST  166.905  SU_T91U12  -1
    S_T91U13  COST  146.154  SU_T91U13  -1
    S_T91U14  COST  110.766  SU_T91U14  -1
    S_T91U15  COST  177.492  SU_T91U15  -1
    S_T91U16  COST  124.406  SU_T91U16  -1
    S_T91U17  COST  123.814  SU_T91U17  -1
    S_T91U18  COST  91.7401  SU_T91U18  -1
    S_T91U19  COST  153.078  SU_T91U19  -1
    S_T91U20  COST  112.609  SU_T91U20  -1
    S_T91U21  COST  190.674  SU_T91U21  -1
    S_T91U22  COST  67.8532  SU_T91U22  -1
    S_T91U23  COST  122.532  SU_T91U23  -1
    S_T91U24  COST  88.0977  SU_T91U24  -1
    S_T91U25  COST  63.4349  SU_T91U25  -1
    S_T91U26  COST  90.6713  SU_T91U26  -1
    S_T91U27  COST  158.362  SU_T91U27  -1
    S_T91U28  COST  126.37  SU_T91U28  -1
    S_T91U29  COST  179.934  SU_T91U29  -1
    S_T91U30  COST  112.752  SU_T91U30  -1
    S_T92U1  COST  95.4924  SU_T92U1  -1
    S_T92U2  COST  103.799  SU_T92U2  -1
    S_T92U3  COST  114.835  SU_T92U3  -1
    S_T92U4  COST  161.99  SU_T92U4  -1
    S_T92U5  COST  146.673  SU_T92U5  -1
    S_T92U6  COST  84.8606  SU_T92U6  -1
    S_T92U7  COST  198.942  SU_T92U7  -1
    S_T92U8  COST  83.8759  SU_T92U8  -1
    S_T92U9  COST  179.935  SU_T92U9  -1
    S_T92U10  COST  70.5579  SU_T92U10  -1
    S_T92U11  COST  172.414  SU_T92U11  -1
    S_T92U12  COST  186.462  SU_T92U12  -1
    S_T92U13  COST  57.8862  SU_T92U13  -1
    S_T92U14  COST  135.347  SU_T92U14  -1
    S_T92U15  COST  118.694  SU_T92U15  -1
    S_T92U16  COST  114.682  SU_T92U16  -1
    S_T92U17  COST  50.3115  SU_T92U17  -1
    S_T92U18  COST  127.742  SU_T92U18  -1
    S_T92U19  COST  76.1235  SU_T92U19  -1
    S_T92U20  COST  157.169  SU_T92U20  -1
    S_T92U21  COST  54.0622  SU_T92U21  -1
    S_T92U22  COST  94.4667  SU_T92U22  -1
    S_T92U23  COST  68.692  SU_T92U23  -1
    S_T92U24  COST  57.908  SU_T92U24  -1
    S_T92U25  COST  133.097  SU_T92U25  -1
    S_T92U26  COST  118.261  SU_T92U26  -1
    S_T92U27  COST  95.6186  SU_T92U27  -1
    S_T92U28  COST  95.27  SU_T92U28  -1
    S_T92U29  COST  144.261  SU_T92U29  -1
    S_T92U30  COST  55.8135  SU_T92U30  -1
    S_T93U1  COST  164.716  SU_T93U1  -1
    S_T93U2  COST  171.016  SU_T93U2  -1
    S_T93U3  COST  173.562  SU_T93U3  -1
    S_T93U4  COST  179.928  SU_T93U4  -1
    S_T93U5  COST  94.4806  SU_T93U5  -1
    S_T93U6  COST  114.802  SU_T93U6  -1
    S_T93U7  COST  83.0491  SU_T93U7  -1
    S_T93U8  COST  137.755  SU_T93U8  -1
    S_T93U9  COST  128.629  SU_T93U9  -1
    S_T93U10  COST  90.0716  SU_T93U10  -1
    S_T93U11  COST  115.351  SU_T93U11  -1
    S_T93U12  COST  161.345  SU_T93U12  -1
    S_T93U13  COST  97.3615  SU_T93U13  -1
    S_T93U14  COST  82.9793  SU_T93U14  -1
    S_T93U15  COST  184.912  SU_T93U15  -1
    S_T93U16  COST  108.004  SU_T93U16  -1
    S_T93U17  COST  195.424  SU_T93U17  -1
    S_T93U18  COST  126.05  SU_T93U18  -1
    S_T93U19  COST  189.852  SU_T93U19  -1
    S_T93U20  COST  75.5902  SU_T93U20  -1
    S_T93U21  COST  119.6  SU_T93U21  -1
    S_T93U22  COST  140.434  SU_T93U22  -1
    S_T93U23  COST  199.73  SU_T93U23  -1
    S_T93U24  COST  83.4515  SU_T93U24  -1
    S_T93U25  COST  102.167  SU_T93U25  -1
    S_T93U26  COST  63.7666  SU_T93U26  -1
    S_T93U27  COST  181.899  SU_T93U27  -1
    S_T93U28  COST  130.879  SU_T93U28  -1
    S_T93U29  COST  165.181  SU_T93U29  -1
    S_T93U30  COST  138.255  SU_T93U30  -1
    S_T94U1  COST  64.5527  SU_T94U1  -1
    S_T94U2  COST  138.904  SU_T94U2  -1
    S_T94U3  COST  178.75  SU_T94U3  -1
    S_T94U4  COST  167.641  SU_T94U4  -1
    S_T94U5  COST  91.2755  SU_T94U5  -1
    S_T94U6  COST  189.722  SU_T94U6  -1
    S_T94U7  COST  187.081  SU_T94U7  -1
    S_T94U8  COST  149.272  SU_T94U8  -1
    S_T94U9  COST  162.432  SU_T94U9  -1
    S_T94U10  COST  96.0397  SU_T94U10  -1
    S_T94U11  COST  101.458  SU_T94U11  -1
    S_T94U12  COST  65.3794  SU_T94U12  -1
    S_T94U13  COST  70.9539  SU_T94U13  -1
    S_T94U14  COST  195.919  SU_T94U14  -1
    S_T94U15  COST  124.097  SU_T94U15  -1
    S_T94U16  COST  160.524  SU_T94U16  -1
    S_T94U17  COST  135.914  SU_T94U17  -1
    S_T94U18  COST  190.649  SU_T94U18  -1
    S_T94U19  COST  116.922  SU_T94U19  -1
    S_T94U20  COST  100.085  SU_T94U20  -1
    S_T94U21  COST  144.657  SU_T94U21  -1
    S_T94U22  COST  158.109  SU_T94U22  -1
    S_T94U23  COST  140.863  SU_T94U23  -1
    S_T94U24  COST  129.058  SU_T94U24  -1
    S_T94U25  COST  152.568  SU_T94U25  -1
    S_T94U26  COST  159.118  SU_T94U26  -1
    S_T94U27  COST  78.4165  SU_T94U27  -1
    S_T94U28  COST  192.169  SU_T94U28  -1
    S_T94U29  COST  68.7305  SU_T94U29  -1
    S_T94U30  COST  66.4236  SU_T94U30  -1
    S_T95U1  COST  199.748  SU_T95U1  -1
    S_T95U2  COST  92.6088  SU_T95U2  -1
    S_T95U3  COST  194.984  SU_T95U3  -1
    S_T95U4  COST  89.0605  SU_T95U4  -1
    S_T95U5  COST  157.343  SU_T95U5  -1
    S_T95U6  COST  183.967  SU_T95U6  -1
    S_T95U7  COST  92.5697  SU_T95U7  -1
    S_T95U8  COST  95.872  SU_T95U8  -1
    S_T95U9  COST  142.962  SU_T95U9  -1
    S_T95U10  COST  126.925  SU_T95U10  -1
    S_T95U11  COST  99.2856  SU_T95U11  -1
    S_T95U12  COST  98.3487  SU_T95U12  -1
    S_T95U13  COST  60.6187  SU_T95U13  -1
    S_T95U14  COST  171.379  SU_T95U14  -1
    S_T95U15  COST  124.584  SU_T95U15  -1
    S_T95U16  COST  94.9908  SU_T95U16  -1
    S_T95U17  COST  114.798  SU_T95U17  -1
    S_T95U18  COST  193.091  SU_T95U18  -1
    S_T95U19  COST  168.339  SU_T95U19  -1
    S_T95U20  COST  82.6593  SU_T95U20  -1
    S_T95U21  COST  57.2118  SU_T95U21  -1
    S_T95U22  COST  52.1971  SU_T95U22  -1
    S_T95U23  COST  196.413  SU_T95U23  -1
    S_T95U24  COST  81.2159  SU_T95U24  -1
    S_T95U25  COST  88.0069  SU_T95U25  -1
    S_T95U26  COST  136.089  SU_T95U26  -1
    S_T95U27  COST  174.904  SU_T95U27  -1
    S_T95U28  COST  186.745  SU_T95U28  -1
    S_T95U29  COST  74.813  SU_T95U29  -1
    S_T95U30  COST  197.59  SU_T95U30  -1
    S_T96U1  COST  58.3168  SU_T96U1  -1
    S_T96U2  COST  118.671  SU_T96U2  -1
    S_T96U3  COST  181.812  SU_T96U3  -1
    S_T96U4  COST  192.095  SU_T96U4  -1
    S_T96U5  COST  142.052  SU_T96U5  -1
    S_T96U6  COST  131.85  SU_T96U6  -1
    S_T96U7  COST  78.5342  SU_T96U7  -1
    S_T96U8  COST  120.359  SU_T96U8  -1
    S_T96U9  COST  172.746  SU_T96U9  -1
    S_T96U10  COST  136.187  SU_T96U10  -1
    S_T96U11  COST  126.989  SU_T96U11  -1
    S_T96U12  COST  113.522  SU_T96U12  -1
    S_T96U13  COST  160.046  SU_T96U13  -1
    S_T96U14  COST  131.747  SU_T96U14  -1
    S_T96U15  COST  85.5274  SU_T96U15  -1
    S_T96U16  COST  68.6923  SU_T96U16  -1
    S_T96U17  COST  84.409  SU_T96U17  -1
    S_T96U18  COST  58.204  SU_T96U18  -1
    S_T96U19  COST  65.4152  SU_T96U19  -1
    S_T96U20  COST  114.648  SU_T96U20  -1
    S_T96U21  COST  71.0888  SU_T96U21  -1
    S_T96U22  COST  101.262  SU_T96U22  -1
    S_T96U23  COST  51.0261  SU_T96U23  -1
    S_T96U24  COST  152.848  SU_T96U24  -1
    S_T96U25  COST  69.771  SU_T96U25  -1
    S_T96U26  COST  91.2537  SU_T96U26  -1
    S_T96U27  COST  178.565  SU_T96U27  -1
    S_T96U28  COST  117.252  SU_T96U28  -1
    S_T96U29  COST  82.6623  SU_T96U29  -1
    S_T96U30  COST  136.015  SU_T96U30  -1
    S_T97U1  COST  117.391  SU_T97U1  -1
    S_T97U2  COST  192.925  SU_T97U2  -1
    S_T97U3  COST  143.617  SU_T97U3  -1
    S_T97U4  COST  181.353  SU_T97U4  -1
    S_T97U5  COST  50.5554  SU_T97U5  -1
    S_T97U6  COST  102.428  SU_T97U6  -1
    S_T97U7  COST  168.704  SU_T97U7  -1
    S_T97U8  COST  94.9334  SU_T97U8  -1
    S_T97U9  COST  64.3339  SU_T97U9  -1
    S_T97U10  COST  190.314  SU_T97U10  -1
    S_T97U11  COST  180.283  SU_T97U11  -1
    S_T97U12  COST  56.9295  SU_T97U12  -1
    S_T97U13  COST  186.891  SU_T97U13  -1
    S_T97U14  COST  51.0564  SU_T97U14  -1
    S_T97U15  COST  61.5194  SU_T97U15  -1
    S_T97U16  COST  151.833  SU_T97U16  -1
    S_T97U17  COST  62.5944  SU_T97U17  -1
    S_T97U18  COST  144.526  SU_T97U18  -1
    S_T97U19  COST  101.646  SU_T97U19  -1
    S_T97U20  COST  160.153  SU_T97U20  -1
    S_T97U21  COST  81.9806  SU_T97U21  -1
    S_T97U22  COST  80.5633  SU_T97U22  -1
    S_T97U23  COST  63.8793  SU_T97U23  -1
    S_T97U24  COST  112.839  SU_T97U24  -1
    S_T97U25  COST  156.345  SU_T97U25  -1
    S_T97U26  COST  70.6601  SU_T97U26  -1
    S_T97U27  COST  52.7797  SU_T97U27  -1
    S_T97U28  COST  148.692  SU_T97U28  -1
    S_T97U29  COST  167.976  SU_T97U29  -1
    S_T97U30  COST  95.8842  SU_T97U30  -1
    S_T98U1  COST  59.4775  SU_T98U1  -1
    S_T98U2  COST  197.56  SU_T98U2  -1
    S_T98U3  COST  162.927  SU_T98U3  -1
    S_T98U4  COST  69.1718  SU_T98U4  -1
    S_T98U5  COST  94.9811  SU_T98U5  -1
    S_T98U6  COST  145.239  SU_T98U6  -1
    S_T98U7  COST  101.715  SU_T98U7  -1
    S_T98U8  COST  183.653  SU_T98U8  -1
    S_T98U9  COST  157.243  SU_T98U9  -1
    S_T98U10  COST  186.532  SU_T98U10  -1
    S_T98U11  COST  144.016  SU_T98U11  -1
    S_T98U12  COST  146.558  SU_T98U12  -1
    S_T98U13  COST  117.452  SU_T98U13  -1
    S_T98U14  COST  75.9135  SU_T98U14  -1
    S_T98U15  COST  182.296  SU_T98U15  -1
    S_T98U16  COST  78.852  SU_T98U16  -1
    S_T98U17  COST  149.651  SU_T98U17  -1
    S_T98U18  COST  52.8649  SU_T98U18  -1
    S_T98U19  COST  191.824  SU_T98U19  -1
    S_T98U20  COST  115.294  SU_T98U20  -1
    S_T98U21  COST  79.9443  SU_T98U21  -1
    S_T98U22  COST  161.963  SU_T98U22  -1
    S_T98U23  COST  181.697  SU_T98U23  -1
    S_T98U24  COST  197.338  SU_T98U24  -1
    S_T98U25  COST  76.6826  SU_T98U25  -1
    S_T98U26  COST  116.027  SU_T98U26  -1
    S_T98U27  COST  136.733  SU_T98U27  -1
    S_T98U28  COST  160.84  SU_T98U28  -1
    S_T98U29  COST  131.186  SU_T98U29  -1
    S_T98U30  COST  155.172  SU_T98U30  -1
    S_T99U1  COST  186.759  SU_T99U1  -1
    S_T99U2  COST  126.108  SU_T99U2  -1
    S_T99U3  COST  69.6009  SU_T99U3  -1
    S_T99U4  COST  180.344  SU_T99U4  -1
    S_T99U5  COST  50.1122  SU_T99U5  -1
    S_T99U6  COST  157.895  SU_T99U6  -1
    S_T99U7  COST  62.252  SU_T99U7  -1
    S_T99U8  COST  87.551  SU_T99U8  -1
    S_T99U9  COST  119.48  SU_T99U9  -1
    S_T99U10  COST  190.234  SU_T99U10  -1
    S_T99U11  COST  184.8  SU_T99U11  -1
    S_T99U12  COST  72.4154  SU_T99U12  -1
    S_T99U13  COST  118.806  SU_T99U13  -1
    S_T99U14  COST  95.3594  SU_T99U14  -1
    S_T99U15  COST  120.245  SU_T99U15  -1
    S_T99U16  COST  190.037  SU_T99U16  -1
    S_T99U17  COST  68.7845  SU_T99U17  -1
    S_T99U18  COST  54.2343  SU_T99U18  -1
    S_T99U19  COST  103.813  SU_T99U19  -1
    S_T99U20  COST  157.235  SU_T99U20  -1
    S_T99U21  COST  95.9664  SU_T99U21  -1
    S_T99U22  COST  194.673  SU_T99U22  -1
    S_T99U23  COST  121.944  SU_T99U23  -1
    S_T99U24  COST  50.7303  SU_T99U24  -1
    S_T99U25  COST  65.0686  SU_T99U25  -1
    S_T99U26  COST  53.7005  SU_T99U26  -1
    S_T99U27  COST  83.1049  SU_T99U27  -1
    S_T99U28  COST  199.399  SU_T99U28  -1
    S_T99U29  COST  176.846  SU_T99U29  -1
    S_T99U30  COST  56.234  SU_T99U30  -1
    S_T100U1  COST  188.76  SU_T100U1  -1
    S_T100U2  COST  65.5455  SU_T100U2  -1
    S_T100U3  COST  94.9187  SU_T100U3  -1
    S_T100U4  COST  199.697  SU_T100U4  -1
    S_T100U5  COST  111.191  SU_T100U5  -1
    S_T100U6  COST  147.517  SU_T100U6  -1
    S_T100U7  COST  54.727  SU_T100U7  -1
    S_T100U8  COST  144.963  SU_T100U8  -1
    S_T100U9  COST  143.562  SU_T100U9  -1
    S_T100U10  COST  67.364  SU_T100U10  -1
    S_T100U11  COST  70.8954  SU_T100U11  -1
    S_T100U12  COST  55.567  SU_T100U12  -1
    S_T100U13  COST  150.852  SU_T100U13  -1
    S_T100U14  COST  101.22  SU_T100U14  -1
    S_T100U15  COST  172.057  SU_T100U15  -1
    S_T100U16  COST  131.304  SU_T100U16  -1
    S_T100U17  COST  72.1779  SU_T100U17  -1
    S_T100U18  COST  77.434  SU_T100U18  -1
    S_T100U19  COST  106.551  SU_T100U19  -1
    S_T100U20  COST  91.0313  SU_T100U20  -1
    S_T100U21  COST  197.429  SU_T100U21  -1
    S_T100U22  COST  125.395  SU_T100U22  -1
    S_T100U23  COST  155.205  SU_T100U23  -1
    S_T100U24  COST  57.4269  SU_T100U24  -1
    S_T100U25  COST  101.251  SU_T100U25  -1
    S_T100U26  COST  185.479  SU_T100U26  -1
    S_T100U27  COST  172.722  SU_T100U27  -1
    S_T100U28  COST  68.8373  SU_T100U28  -1
    S_T100U29  COST  81.5288  SU_T100U29  -1
    S_T100U30  COST  172.885  SU_T100U30  -1
    S_T101U1  COST  178.991  SU_T101U1  -1
    S_T101U2  COST  141.167  SU_T101U2  -1
    S_T101U3  COST  146.459  SU_T101U3  -1
    S_T101U4  COST  137.74  SU_T101U4  -1
    S_T101U5  COST  54.7014  SU_T101U5  -1
    S_T101U6  COST  143.345  SU_T101U6  -1
    S_T101U7  COST  80.9802  SU_T101U7  -1
    S_T101U8  COST  179.968  SU_T101U8  -1
    S_T101U9  COST  150.39  SU_T101U9  -1
    S_T101U10  COST  89.1013  SU_T101U10  -1
    S_T101U11  COST  50.0941  SU_T101U11  -1
    S_T101U12  COST  187.632  SU_T101U12  -1
    S_T101U13  COST  61.8614  SU_T101U13  -1
    S_T101U14  COST  65.2838  SU_T101U14  -1
    S_T101U15  COST  142.427  SU_T101U15  -1
    S_T101U16  COST  185.43  SU_T101U16  -1
    S_T101U17  COST  64.4961  SU_T101U17  -1
    S_T101U18  COST  98.0085  SU_T101U18  -1
    S_T101U19  COST  170.337  SU_T101U19  -1
    S_T101U20  COST  112.683  SU_T101U20  -1
    S_T101U21  COST  93.3705  SU_T101U21  -1
    S_T101U22  COST  67.5475  SU_T101U22  -1
    S_T101U23  COST  177.976  SU_T101U23  -1
    S_T101U24  COST  61.8395  SU_T101U24  -1
    S_T101U25  COST  121.182  SU_T101U25  -1
    S_T101U26  COST  103.809  SU_T101U26  -1
    S_T101U27  COST  137.659  SU_T101U27  -1
    S_T101U28  COST  101.145  SU_T101U28  -1
    S_T101U29  COST  100.792  SU_T101U29  -1
    S_T101U30  COST  133.128  SU_T101U30  -1
    S_T102U1  COST  190.181  SU_T102U1  -1
    S_T102U2  COST  187.666  SU_T102U2  -1
    S_T102U3  COST  140.686  SU_T102U3  -1
    S_T102U4  COST  133.616  SU_T102U4  -1
    S_T102U5  COST  165.975  SU_T102U5  -1
    S_T102U6  COST  166.764  SU_T102U6  -1
    S_T102U7  COST  117.103  SU_T102U7  -1
    S_T102U8  COST  153.437  SU_T102U8  -1
    S_T102U9  COST  93.5543  SU_T102U9  -1
    S_T102U10  COST  94.774  SU_T102U10  -1
    S_T102U11  COST  99.314  SU_T102U11  -1
    S_T102U12  COST  77.6653  SU_T102U12  -1
    S_T102U13  COST  91.3923  SU_T102U13  -1
    S_T102U14  COST  61.4934  SU_T102U14  -1
    S_T102U15  COST  85.634  SU_T102U15  -1
    S_T102U16  COST  92.9135  SU_T102U16  -1
    S_T102U17  COST  191.796  SU_T102U17  -1
    S_T102U18  COST  137.514  SU_T102U18  -1
    S_T102U19  COST  172.745  SU_T102U19  -1
    S_T102U20  COST  77.5346  SU_T102U20  -1
    S_T102U21  COST  114.333  SU_T102U21  -1
    S_T102U22  COST  92.2696  SU_T102U22  -1
    S_T102U23  COST  127.881  SU_T102U23  -1
    S_T102U24  COST  68.535  SU_T102U24  -1
    S_T102U25  COST  137.491  SU_T102U25  -1
    S_T102U26  COST  98.23  SU_T102U26  -1
    S_T102U27  COST  69.0837  SU_T102U27  -1
    S_T102U28  COST  124.032  SU_T102U28  -1
    S_T102U29  COST  55.7074  SU_T102U29  -1
    S_T102U30  COST  129.21  SU_T102U30  -1
    S_T103U1  COST  66.5111  SU_T103U1  -1
    S_T103U2  COST  175.574  SU_T103U2  -1
    S_T103U3  COST  140.427  SU_T103U3  -1
    S_T103U4  COST  67.2734  SU_T103U4  -1
    S_T103U5  COST  150.045  SU_T103U5  -1
    S_T103U6  COST  182.023  SU_T103U6  -1
    S_T103U7  COST  97.0216  SU_T103U7  -1
    S_T103U8  COST  145.753  SU_T103U8  -1
    S_T103U9  COST  66.8018  SU_T103U9  -1
    S_T103U10  COST  129.927  SU_T103U10  -1
    S_T103U11  COST  197.165  SU_T103U11  -1
    S_T103U12  COST  67.7009  SU_T103U12  -1
    S_T103U13  COST  64.2873  SU_T103U13  -1
    S_T103U14  COST  110.544  SU_T103U14  -1
    S_T103U15  COST  76.2326  SU_T103U15  -1
    S_T103U16  COST  76.0094  SU_T103U16  -1
    S_T103U17  COST  125.803  SU_T103U17  -1
    S_T103U18  COST  80.431  SU_T103U18  -1
    S_T103U19  COST  199.343  SU_T103U19  -1
    S_T103U20  COST  124.022  SU_T103U20  -1
    S_T103U21  COST  52.3778  SU_T103U21  -1
    S_T103U22  COST  183.312  SU_T103U22  -1
    S_T103U23  COST  117.51  SU_T103U23  -1
    S_T103U24  COST  134.978  SU_T103U24  -1
    S_T103U25  COST  95.3935  SU_T103U25  -1
    S_T103U26  COST  91.9009  SU_T103U26  -1
    S_T103U27  COST  73.931  SU_T103U27  -1
    S_T103U28  COST  51.5016  SU_T103U28  -1
    S_T103U29  COST  135.752  SU_T103U29  -1
    S_T103U30  COST  158.459  SU_T103U30  -1
    S_T104U1  COST  124.866  SU_T104U1  -1
    S_T104U2  COST  108.427  SU_T104U2  -1
    S_T104U3  COST  52.3544  SU_T104U3  -1
    S_T104U4  COST  63.4733  SU_T104U4  -1
    S_T104U5  COST  63.8775  SU_T104U5  -1
    S_T104U6  COST  79.8517  SU_T104U6  -1
    S_T104U7  COST  50.3276  SU_T104U7  -1
    S_T104U8  COST  71.1866  SU_T104U8  -1
    S_T104U9  COST  64.0449  SU_T104U9  -1
    S_T104U10  COST  141.639  SU_T104U10  -1
    S_T104U11  COST  184.101  SU_T104U11  -1
    S_T104U12  COST  89.4005  SU_T104U12  -1
    S_T104U13  COST  189  SU_T104U13  -1
    S_T104U14  COST  97.333  SU_T104U14  -1
    S_T104U15  COST  152.268  SU_T104U15  -1
    S_T104U16  COST  153.877  SU_T104U16  -1
    S_T104U17  COST  189.749  SU_T104U17  -1
    S_T104U18  COST  90.1914  SU_T104U18  -1
    S_T104U19  COST  134.861  SU_T104U19  -1
    S_T104U20  COST  167.086  SU_T104U20  -1
    S_T104U21  COST  110.963  SU_T104U21  -1
    S_T104U22  COST  106.893  SU_T104U22  -1
    S_T104U23  COST  76.466  SU_T104U23  -1
    S_T104U24  COST  60.5608  SU_T104U24  -1
    S_T104U25  COST  125.477  SU_T104U25  -1
    S_T104U26  COST  50.594  SU_T104U26  -1
    S_T104U27  COST  107.566  SU_T104U27  -1
    S_T104U28  COST  73.8739  SU_T104U28  -1
    S_T104U29  COST  112.922  SU_T104U29  -1
    S_T104U30  COST  149.875  SU_T104U30  -1
    S_T105U1  COST  83.1607  SU_T105U1  -1
    S_T105U2  COST  125.044  SU_T105U2  -1
    S_T105U3  COST  75.3805  SU_T105U3  -1
    S_T105U4  COST  51.5827  SU_T105U4  -1
    S_T105U5  COST  133.526  SU_T105U5  -1
    S_T105U6  COST  93.0747  SU_T105U6  -1
    S_T105U7  COST  67.3408  SU_T105U7  -1
    S_T105U8  COST  55.5833  SU_T105U8  -1
    S_T105U9  COST  150.967  SU_T105U9  -1
    S_T105U10  COST  182.423  SU_T105U10  -1
    S_T105U11  COST  127.953  SU_T105U11  -1
    S_T105U12  COST  119.306  SU_T105U12  -1
    S_T105U13  COST  57.628  SU_T105U13  -1
    S_T105U14  COST  101.142  SU_T105U14  -1
    S_T105U15  COST  191.132  SU_T105U15  -1
    S_T105U16  COST  149.664  SU_T105U16  -1
    S_T105U17  COST  175.331  SU_T105U17  -1
    S_T105U18  COST  166.262  SU_T105U18  -1
    S_T105U19  COST  141.019  SU_T105U19  -1
    S_T105U20  COST  131.181  SU_T105U20  -1
    S_T105U21  COST  126.333  SU_T105U21  -1
    S_T105U22  COST  107.592  SU_T105U22  -1
    S_T105U23  COST  71.2426  SU_T105U23  -1
    S_T105U24  COST  130.32  SU_T105U24  -1
    S_T105U25  COST  95.4418  SU_T105U25  -1
    S_T105U26  COST  194.665  SU_T105U26  -1
    S_T105U27  COST  198.894  SU_T105U27  -1
    S_T105U28  COST  94.0692  SU_T105U28  -1
    S_T105U29  COST  155.324  SU_T105U29  -1
    S_T105U30  COST  52.6571  SU_T105U30  -1
    S_T106U1  COST  53.255  SU_T106U1  -1
    S_T106U2  COST  74.5425  SU_T106U2  -1
    S_T106U3  COST  125.587  SU_T106U3  -1
    S_T106U4  COST  104.43  SU_T106U4  -1
    S_T106U5  COST  177.291  SU_T106U5  -1
    S_T106U6  COST  122.577  SU_T106U6  -1
    S_T106U7  COST  97.4682  SU_T106U7  -1
    S_T106U8  COST  79.1695  SU_T106U8  -1
    S_T106U9  COST  97.1846  SU_T106U9  -1
    S_T106U10  COST  152.751  SU_T106U10  -1
    S_T106U11  COST  103.999  SU_T106U11  -1
    S_T106U12  COST  113.945  SU_T106U12  -1
    S_T106U13  COST  150.301  SU_T106U13  -1
    S_T106U14  COST  152.39  SU_T106U14  -1
    S_T106U15  COST  85.6229  SU_T106U15  -1
    S_T106U16  COST  107.955  SU_T106U16  -1
    S_T106U17  COST  113.227  SU_T106U17  -1
    S_T106U18  COST  68.8559  SU_T106U18  -1
    S_T106U19  COST  164.367  SU_T106U19  -1
    S_T106U20  COST  149.723  SU_T106U20  -1
    S_T106U21  COST  150.803  SU_T106U21  -1
    S_T106U22  COST  170.865  SU_T106U22  -1
    S_T106U23  COST  180.23  SU_T106U23  -1
    S_T106U24  COST  154.68  SU_T106U24  -1
    S_T106U25  COST  199.9  SU_T106U25  -1
    S_T106U26  COST  51.5172  SU_T106U26  -1
    S_T106U27  COST  166.381  SU_T106U27  -1
    S_T106U28  COST  117.125  SU_T106U28  -1
    S_T106U29  COST  187.945  SU_T106U29  -1
    S_T106U30  COST  81.3587  SU_T106U30  -1
    S_T107U1  COST  185.903  SU_T107U1  -1
    S_T107U2  COST  144.414  SU_T107U2  -1
    S_T107U3  COST  170.12  SU_T107U3  -1
    S_T107U4  COST  125.527  SU_T107U4  -1
    S_T107U5  COST  187.39  SU_T107U5  -1
    S_T107U6  COST  78.9037  SU_T107U6  -1
    S_T107U7  COST  151.62  SU_T107U7  -1
    S_T107U8  COST  157.715  SU_T107U8  -1
    S_T107U9  COST  192.165  SU_T107U9  -1
    S_T107U10  COST  65.9369  SU_T107U10  -1
    S_T107U11  COST  153.526  SU_T107U11  -1
    S_T107U12  COST  183.809  SU_T107U12  -1
    S_T107U13  COST  126.253  SU_T107U13  -1
    S_T107U14  COST  89.9162  SU_T107U14  -1
    S_T107U15  COST  114.019  SU_T107U15  -1
    S_T107U16  COST  159.09  SU_T107U16  -1
    S_T107U17  COST  71.0761  SU_T107U17  -1
    S_T107U18  COST  134.216  SU_T107U18  -1
    S_T107U19  COST  116.547  SU_T107U19  -1
    S_T107U20  COST  116.056  SU_T107U20  -1
    S_T107U21  COST  169.443  SU_T107U21  -1
    S_T107U22  COST  194.033  SU_T107U22  -1
    S_T107U23  COST  128.406  SU_T107U23  -1
    S_T107U24  COST  112.06  SU_T107U24  -1
    S_T107U25  COST  162.216  SU_T107U25  -1
    S_T107U26  COST  80.783  SU_T107U26  -1
    S_T107U27  COST  68.8423  SU_T107U27  -1
    S_T107U28  COST  182.888  SU_T107U28  -1
    S_T107U29  COST  160.288  SU_T107U29  -1
    S_T107U30  COST  90.4127  SU_T107U30  -1
    S_T108U1  COST  70.5955  SU_T108U1  -1
    S_T108U2  COST  138.012  SU_T108U2  -1
    S_T108U3  COST  159.52  SU_T108U3  -1
    S_T108U4  COST  167.661  SU_T108U4  -1
    S_T108U5  COST  77.1312  SU_T108U5  -1
    S_T108U6  COST  87.8216  SU_T108U6  -1
    S_T108U7  COST  61.33  SU_T108U7  -1
    S_T108U8  COST  149.879  SU_T108U8  -1
    S_T108U9  COST  193.163  SU_T108U9  -1
    S_T108U10  COST  156.191  SU_T108U10  -1
    S_T108U11  COST  87.8603  SU_T108U11  -1
    S_T108U12  COST  79.7309  SU_T108U12  -1
    S_T108U13  COST  199.92  SU_T108U13  -1
    S_T108U14  COST  114.648  SU_T108U14  -1
    S_T108U15  COST  140.588  SU_T108U15  -1
    S_T108U16  COST  64.2021  SU_T108U16  -1
    S_T108U17  COST  124.875  SU_T108U17  -1
    S_T108U18  COST  59.372  SU_T108U18  -1
    S_T108U19  COST  84.5593  SU_T108U19  -1
    S_T108U20  COST  197.285  SU_T108U20  -1
    S_T108U21  COST  182.479  SU_T108U21  -1
    S_T108U22  COST  123.013  SU_T108U22  -1
    S_T108U23  COST  177.795  SU_T108U23  -1
    S_T108U24  COST  89.2096  SU_T108U24  -1
    S_T108U25  COST  158.946  SU_T108U25  -1
    S_T108U26  COST  117.363  SU_T108U26  -1
    S_T108U27  COST  132.059  SU_T108U27  -1
    S_T108U28  COST  163.065  SU_T108U28  -1
    S_T108U29  COST  131.012  SU_T108U29  -1
    S_T108U30  COST  159.134  SU_T108U30  -1
    S_T109U1  COST  103.968  SU_T109U1  -1
    S_T109U2  COST  195.566  SU_T109U2  -1
    S_T109U3  COST  90.2757  SU_T109U3  -1
    S_T109U4  COST  175.509  SU_T109U4  -1
    S_T109U5  COST  91.5432  SU_T109U5  -1
    S_T109U6  COST  155.898  SU_T109U6  -1
    S_T109U7  COST  108.301  SU_T109U7  -1
    S_T109U8  COST  183.697  SU_T109U8  -1
    S_T109U9  COST  71.7838  SU_T109U9  -1
    S_T109U10  COST  194.444  SU_T109U10  -1
    S_T109U11  COST  197.508  SU_T109U11  -1
    S_T109U12  COST  55.3949  SU_T109U12  -1
    S_T109U13  COST  93.015  SU_T109U13  -1
    S_T109U14  COST  91.9018  SU_T109U14  -1
    S_T109U15  COST  188.475  SU_T109U15  -1
    S_T109U16  COST  181.116  SU_T109U16  -1
    S_T109U17  COST  63.6315  SU_T109U17  -1
    S_T109U18  COST  144.583  SU_T109U18  -1
    S_T109U19  COST  81.4126  SU_T109U19  -1
    S_T109U20  COST  160.583  SU_T109U20  -1
    S_T109U21  COST  120.755  SU_T109U21  -1
    S_T109U22  COST  151.424  SU_T109U22  -1
    S_T109U23  COST  159.466  SU_T109U23  -1
    S_T109U24  COST  62.0027  SU_T109U24  -1
    S_T109U25  COST  178.755  SU_T109U25  -1
    S_T109U26  COST  67.3259  SU_T109U26  -1
    S_T109U27  COST  83.0657  SU_T109U27  -1
    S_T109U28  COST  180.195  SU_T109U28  -1
    S_T109U29  COST  59.2016  SU_T109U29  -1
    S_T109U30  COST  143.512  SU_T109U30  -1
    S_T110U1  COST  133.843  SU_T110U1  -1
    S_T110U2  COST  127.853  SU_T110U2  -1
    S_T110U3  COST  154.454  SU_T110U3  -1
    S_T110U4  COST  86.1022  SU_T110U4  -1
    S_T110U5  COST  162.541  SU_T110U5  -1
    S_T110U6  COST  122.557  SU_T110U6  -1
    S_T110U7  COST  88.8058  SU_T110U7  -1
    S_T110U8  COST  92.7818  SU_T110U8  -1
    S_T110U9  COST  50.2402  SU_T110U9  -1
    S_T110U10  COST  182.212  SU_T110U10  -1
    S_T110U11  COST  141.179  SU_T110U11  -1
    S_T110U12  COST  151.471  SU_T110U12  -1
    S_T110U13  COST  172.812  SU_T110U13  -1
    S_T110U14  COST  148.4  SU_T110U14  -1
    S_T110U15  COST  162.127  SU_T110U15  -1
    S_T110U16  COST  117.853  SU_T110U16  -1
    S_T110U17  COST  145.523  SU_T110U17  -1
    S_T110U18  COST  173.841  SU_T110U18  -1
    S_T110U19  COST  106.434  SU_T110U19  -1
    S_T110U20  COST  125.457  SU_T110U20  -1
    S_T110U21  COST  186.89  SU_T110U21  -1
    S_T110U22  COST  125.273  SU_T110U22  -1
    S_T110U23  COST  100.954  SU_T110U23  -1
    S_T110U24  COST  93.048  SU_T110U24  -1
    S_T110U25  COST  103.437  SU_T110U25  -1
    S_T110U26  COST  154.268  SU_T110U26  -1
    S_T110U27  COST  122.432  SU_T110U27  -1
    S_T110U28  COST  186.359  SU_T110U28  -1
    S_T110U29  COST  165.366  SU_T110U29  -1
    S_T110U30  COST  116.953  SU_T110U30  -1
    S_T111U1  COST  191.67  SU_T111U1  -1
    S_T111U2  COST  128.02  SU_T111U2  -1
    S_T111U3  COST  88.7589  SU_T111U3  -1
    S_T111U4  COST  184.94  SU_T111U4  -1
    S_T111U5  COST  79.3038  SU_T111U5  -1
    S_T111U6  COST  140.817  SU_T111U6  -1
    S_T111U7  COST  150.924  SU_T111U7  -1
    S_T111U8  COST  149.418  SU_T111U8  -1
    S_T111U9  COST  113.405  SU_T111U9  -1
    S_T111U10  COST  95.8553  SU_T111U10  -1
    S_T111U11  COST  147.78  SU_T111U11  -1
    S_T111U12  COST  165.076  SU_T111U12  -1
    S_T111U13  COST  92.8762  SU_T111U13  -1
    S_T111U14  COST  101.849  SU_T111U14  -1
    S_T111U15  COST  115.717  SU_T111U15  -1
    S_T111U16  COST  132.399  SU_T111U16  -1
    S_T111U17  COST  192.18  SU_T111U17  -1
    S_T111U18  COST  118.462  SU_T111U18  -1
    S_T111U19  COST  88.3809  SU_T111U19  -1
    S_T111U20  COST  151.652  SU_T111U20  -1
    S_T111U21  COST  140.297  SU_T111U21  -1
    S_T111U22  COST  63.5744  SU_T111U22  -1
    S_T111U23  COST  89.462  SU_T111U23  -1
    S_T111U24  COST  78.4333  SU_T111U24  -1
    S_T111U25  COST  114.641  SU_T111U25  -1
    S_T111U26  COST  115.703  SU_T111U26  -1
    S_T111U27  COST  114.338  SU_T111U27  -1
    S_T111U28  COST  128.176  SU_T111U28  -1
    S_T111U29  COST  59.8369  SU_T111U29  -1
    S_T111U30  COST  133.958  SU_T111U30  -1
    S_T112U1  COST  171.254  SU_T112U1  -1
    S_T112U2  COST  169.395  SU_T112U2  -1
    S_T112U3  COST  60.9268  SU_T112U3  -1
    S_T112U4  COST  109.183  SU_T112U4  -1
    S_T112U5  COST  91.8716  SU_T112U5  -1
    S_T112U6  COST  180.997  SU_T112U6  -1
    S_T112U7  COST  174.595  SU_T112U7  -1
    S_T112U8  COST  141.121  SU_T112U8  -1
    S_T112U9  COST  181.171  SU_T112U9  -1
    S_T112U10  COST  89.1543  SU_T112U10  -1
    S_T112U11  COST  162.852  SU_T112U11  -1
    S_T112U12  COST  127.551  SU_T112U12  -1
    S_T112U13  COST  110.132  SU_T112U13  -1
    S_T112U14  COST  152.259  SU_T112U14  -1
    S_T112U15  COST  169.842  SU_T112U15  -1
    S_T112U16  COST  112.289  SU_T112U16  -1
    S_T112U17  COST  92.5817  SU_T112U17  -1
    S_T112U18  COST  157.937  SU_T112U18  -1
    S_T112U19  COST  141.507  SU_T112U19  -1
    S_T112U20  COST  95.6785  SU_T112U20  -1
    S_T112U21  COST  50.5871  SU_T112U21  -1
    S_T112U22  COST  110.961  SU_T112U22  -1
    S_T112U23  COST  169.773  SU_T112U23  -1
    S_T112U24  COST  86.6811  SU_T112U24  -1
    S_T112U25  COST  100.886  SU_T112U25  -1
    S_T112U26  COST  115.8  SU_T112U26  -1
    S_T112U27  COST  69.5677  SU_T112U27  -1
    S_T112U28  COST  73.0945  SU_T112U28  -1
    S_T112U29  COST  86.5458  SU_T112U29  -1
    S_T112U30  COST  138.695  SU_T112U30  -1
    S_T113U1  COST  183.328  SU_T113U1  -1
    S_T113U2  COST  55.2735  SU_T113U2  -1
    S_T113U3  COST  167.988  SU_T113U3  -1
    S_T113U4  COST  132.453  SU_T113U4  -1
    S_T113U5  COST  121.115  SU_T113U5  -1
    S_T113U6  COST  51.652  SU_T113U6  -1
    S_T113U7  COST  73.2513  SU_T113U7  -1
    S_T113U8  COST  156.32  SU_T113U8  -1
    S_T113U9  COST  183.28  SU_T113U9  -1
    S_T113U10  COST  71.4269  SU_T113U10  -1
    S_T113U11  COST  168.496  SU_T113U11  -1
    S_T113U12  COST  178.02  SU_T113U12  -1
    S_T113U13  COST  182.331  SU_T113U13  -1
    S_T113U14  COST  162.14  SU_T113U14  -1
    S_T113U15  COST  158.74  SU_T113U15  -1
    S_T113U16  COST  127.748  SU_T113U16  -1
    S_T113U17  COST  76.1316  SU_T113U17  -1
    S_T113U18  COST  76.337  SU_T113U18  -1
    S_T113U19  COST  187.275  SU_T113U19  -1
    S_T113U20  COST  59.4782  SU_T113U20  -1
    S_T113U21  COST  140.274  SU_T113U21  -1
    S_T113U22  COST  195.878  SU_T113U22  -1
    S_T113U23  COST  133.969  SU_T113U23  -1
    S_T113U24  COST  141.61  SU_T113U24  -1
    S_T113U25  COST  93.0862  SU_T113U25  -1
    S_T113U26  COST  171.003  SU_T113U26  -1
    S_T113U27  COST  140.511  SU_T113U27  -1
    S_T113U28  COST  73.5376  SU_T113U28  -1
    S_T113U29  COST  96.907  SU_T113U29  -1
    S_T113U30  COST  70.7425  SU_T113U30  -1
    S_T114U1  COST  132.848  SU_T114U1  -1
    S_T114U2  COST  91.1618  SU_T114U2  -1
    S_T114U3  COST  166.751  SU_T114U3  -1
    S_T114U4  COST  179.282  SU_T114U4  -1
    S_T114U5  COST  111.544  SU_T114U5  -1
    S_T114U6  COST  68.7435  SU_T114U6  -1
    S_T114U7  COST  153.254  SU_T114U7  -1
    S_T114U8  COST  88.1993  SU_T114U8  -1
    S_T114U9  COST  78.1889  SU_T114U9  -1
    S_T114U10  COST  64.8028  SU_T114U10  -1
    S_T114U11  COST  144.18  SU_T114U11  -1
    S_T114U12  COST  130.312  SU_T114U12  -1
    S_T114U13  COST  172.716  SU_T114U13  -1
    S_T114U14  COST  173.64  SU_T114U14  -1
    S_T114U15  COST  76.9485  SU_T114U15  -1
    S_T114U16  COST  58.1768  SU_T114U16  -1
    S_T114U17  COST  171.13  SU_T114U17  -1
    S_T114U18  COST  58.2071  SU_T114U18  -1
    S_T114U19  COST  190.362  SU_T114U19  -1
    S_T114U20  COST  171.414  SU_T114U20  -1
    S_T114U21  COST  189.819  SU_T114U21  -1
    S_T114U22  COST  162.155  SU_T114U22  -1
    S_T114U23  COST  58.9888  SU_T114U23  -1
    S_T114U24  COST  68.6651  SU_T114U24  -1
    S_T114U25  COST  93.4887  SU_T114U25  -1
    S_T114U26  COST  108.144  SU_T114U26  -1
    S_T114U27  COST  190.274  SU_T114U27  -1
    S_T114U28  COST  108.543  SU_T114U28  -1
    S_T114U29  COST  150.567  SU_T114U29  -1
    S_T114U30  COST  137.841  SU_T114U30  -1
    S_T115U1  COST  157.88  SU_T115U1  -1
    S_T115U2  COST  127.168  SU_T115U2  -1
    S_T115U3  COST  175.618  SU_T115U3  -1
    S_T115U4  COST  126.126  SU_T115U4  -1
    S_T115U5  COST  178.262  SU_T115U5  -1
    S_T115U6  COST  107.915  SU_T115U6  -1
    S_T115U7  COST  140.366  SU_T115U7  -1
    S_T115U8  COST  126.225  SU_T115U8  -1
    S_T115U9  COST  198.811  SU_T115U9  -1
    S_T115U10  COST  105.544  SU_T115U10  -1
    S_T115U11  COST  180.925  SU_T115U11  -1
    S_T115U12  COST  85.0884  SU_T115U12  -1
    S_T115U13  COST  157.271  SU_T115U13  -1
    S_T115U14  COST  95.9598  SU_T115U14  -1
    S_T115U15  COST  89.5963  SU_T115U15  -1
    S_T115U16  COST  159.926  SU_T115U16  -1
    S_T115U17  COST  99.2907  SU_T115U17  -1
    S_T115U18  COST  121.743  SU_T115U18  -1
    S_T115U19  COST  122.845  SU_T115U19  -1
    S_T115U20  COST  54.4686  SU_T115U20  -1
    S_T115U21  COST  61.2684  SU_T115U21  -1
    S_T115U22  COST  178.168  SU_T115U22  -1
    S_T115U23  COST  190.499  SU_T115U23  -1
    S_T115U24  COST  176.298  SU_T115U24  -1
    S_T115U25  COST  148.904  SU_T115U25  -1
    S_T115U26  COST  121.557  SU_T115U26  -1
    S_T115U27  COST  163.383  SU_T115U27  -1
    S_T115U28  COST  66.7454  SU_T115U28  -1
    S_T115U29  COST  170.231  SU_T115U29  -1
    S_T115U30  COST  122.238  SU_T115U30  -1
    S_T116U1  COST  178.826  SU_T116U1  -1
    S_T116U2  COST  164.427  SU_T116U2  -1
    S_T116U3  COST  103.439  SU_T116U3  -1
    S_T116U4  COST  170.175  SU_T116U4  -1
    S_T116U5  COST  185.5  SU_T116U5  -1
    S_T116U6  COST  58.7326  SU_T116U6  -1
    S_T116U7  COST  147.268  SU_T116U7  -1
    S_T116U8  COST  163.259  SU_T116U8  -1
    S_T116U9  COST  129.68  SU_T116U9  -1
    S_T116U10  COST  171.827  SU_T116U10  -1
    S_T116U11  COST  75.8253  SU_T116U11  -1
    S_T116U12  COST  181.677  SU_T116U12  -1
    S_T116U13  COST  148.427  SU_T116U13  -1
    S_T116U14  COST  92.2687  SU_T116U14  -1
    S_T116U15  COST  179.281  SU_T116U15  -1
    S_T116U16  COST  126.739  SU_T116U16  -1
    S_T116U17  COST  58.0188  SU_T116U17  -1
    S_T116U18  COST  57.4024  SU_T116U18  -1
    S_T116U19  COST  107.409  SU_T116U19  -1
    S_T116U20  COST  95.8473  SU_T116U20  -1
    S_T116U21  COST  130.653  SU_T116U21  -1
    S_T116U22  COST  60.8584  SU_T116U22  -1
    S_T116U23  COST  182.335  SU_T116U23  -1
    S_T116U24  COST  156.634  SU_T116U24  -1
    S_T116U25  COST  168.585  SU_T116U25  -1
    S_T116U26  COST  186.255  SU_T116U26  -1
    S_T116U27  COST  120.221  SU_T116U27  -1
    S_T116U28  COST  146.19  SU_T116U28  -1
    S_T116U29  COST  93.9219  SU_T116U29  -1
    S_T116U30  COST  126.341  SU_T116U30  -1
    S_T117U1  COST  195.345  SU_T117U1  -1
    S_T117U2  COST  180.601  SU_T117U2  -1
    S_T117U3  COST  153.695  SU_T117U3  -1
    S_T117U4  COST  177.564  SU_T117U4  -1
    S_T117U5  COST  66.8579  SU_T117U5  -1
    S_T117U6  COST  136.56  SU_T117U6  -1
    S_T117U7  COST  177.476  SU_T117U7  -1
    S_T117U8  COST  75.1206  SU_T117U8  -1
    S_T117U9  COST  103.036  SU_T117U9  -1
    S_T117U10  COST  150.842  SU_T117U10  -1
    S_T117U11  COST  158.168  SU_T117U11  -1
    S_T117U12  COST  98.8553  SU_T117U12  -1
    S_T117U13  COST  181.611  SU_T117U13  -1
    S_T117U14  COST  170.725  SU_T117U14  -1
    S_T117U15  COST  178.193  SU_T117U15  -1
    S_T117U16  COST  102.314  SU_T117U16  -1
    S_T117U17  COST  73.9449  SU_T117U17  -1
    S_T117U18  COST  110.674  SU_T117U18  -1
    S_T117U19  COST  155.864  SU_T117U19  -1
    S_T117U20  COST  85.4514  SU_T117U20  -1
    S_T117U21  COST  108.8  SU_T117U21  -1
    S_T117U22  COST  153.504  SU_T117U22  -1
    S_T117U23  COST  101.916  SU_T117U23  -1
    S_T117U24  COST  65.1914  SU_T117U24  -1
    S_T117U25  COST  87.3088  SU_T117U25  -1
    S_T117U26  COST  75.0146  SU_T117U26  -1
    S_T117U27  COST  156.369  SU_T117U27  -1
    S_T117U28  COST  55.4638  SU_T117U28  -1
    S_T117U29  COST  60.9959  SU_T117U29  -1
    S_T117U30  COST  84.2249  SU_T117U30  -1
    S_T118U1  COST  96.46  SU_T118U1  -1
    S_T118U2  COST  155.068  SU_T118U2  -1
    S_T118U3  COST  61.4454  SU_T118U3  -1
    S_T118U4  COST  142.533  SU_T118U4  -1
    S_T118U5  COST  51.413  SU_T118U5  -1
    S_T118U6  COST  88.91  SU_T118U6  -1
    S_T118U7  COST  118.132  SU_T118U7  -1
    S_T118U8  COST  187.544  SU_T118U8  -1
    S_T118U9  COST  73.0526  SU_T118U9  -1
    S_T118U10  COST  89.9032  SU_T118U10  -1
    S_T118U11  COST  125.866  SU_T118U11  -1
    S_T118U12  COST  189.916  SU_T118U12  -1
    S_T118U13  COST  153.233  SU_T118U13  -1
    S_T118U14  COST  169.293  SU_T118U14  -1
    S_T118U15  COST  117.135  SU_T118U15  -1
    S_T118U16  COST  95.4019  SU_T118U16  -1
    S_T118U17  COST  90.9191  SU_T118U17  -1
    S_T118U18  COST  183.176  SU_T118U18  -1
    S_T118U19  COST  133.387  SU_T118U19  -1
    S_T118U20  COST  119.018  SU_T118U20  -1
    S_T118U21  COST  92.5618  SU_T118U21  -1
    S_T118U22  COST  145.07  SU_T118U22  -1
    S_T118U23  COST  100.673  SU_T118U23  -1
    S_T118U24  COST  86.344  SU_T118U24  -1
    S_T118U25  COST  128.261  SU_T118U25  -1
    S_T118U26  COST  52.9169  SU_T118U26  -1
    S_T118U27  COST  83.2176  SU_T118U27  -1
    S_T118U28  COST  58.7413  SU_T118U28  -1
    S_T118U29  COST  181.163  SU_T118U29  -1
    S_T118U30  COST  51.3498  SU_T118U30  -1
    S_T119U1  COST  111.023  SU_T119U1  -1
    S_T119U2  COST  94.6518  SU_T119U2  -1
    S_T119U3  COST  138.519  SU_T119U3  -1
    S_T119U4  COST  92.4501  SU_T119U4  -1
    S_T119U5  COST  199.189  SU_T119U5  -1
    S_T119U6  COST  163.401  SU_T119U6  -1
    S_T119U7  COST  56.4755  SU_T119U7  -1
    S_T119U8  COST  98.0165  SU_T119U8  -1
    S_T119U9  COST  148.134  SU_T119U9  -1
    S_T119U10  COST  195.161  SU_T119U10  -1
    S_T119U11  COST  199.735  SU_T119U11  -1
    S_T119U12  COST  78.6816  SU_T119U12  -1
    S_T119U13  COST  122.907  SU_T119U13  -1
    S_T119U14  COST  129.207  SU_T119U14  -1
    S_T119U15  COST  158.598  SU_T119U15  -1
    S_T119U16  COST  65.7646  SU_T119U16  -1
    S_T119U17  COST  73.7679  SU_T119U17  -1
    S_T119U18  COST  96.6555  SU_T119U18  -1
    S_T119U19  COST  51.6198  SU_T119U19  -1
    S_T119U20  COST  66.9905  SU_T119U20  -1
    S_T119U21  COST  123.78  SU_T119U21  -1
    S_T119U22  COST  137.589  SU_T119U22  -1
    S_T119U23  COST  164.848  SU_T119U23  -1
    S_T119U24  COST  121.805  SU_T119U24  -1
    S_T119U25  COST  162.85  SU_T119U25  -1
    S_T119U26  COST  133.119  SU_T119U26  -1
    S_T119U27  COST  164.594  SU_T119U27  -1
    S_T119U28  COST  187.664  SU_T119U28  -1
    S_T119U29  COST  197.618  SU_T119U29  -1
    S_T119U30  COST  166.138  SU_T119U30  -1
    S_T120U1  COST  120.749  SU_T120U1  -1
    S_T120U2  COST  56.9604  SU_T120U2  -1
    S_T120U3  COST  143.915  SU_T120U3  -1
    S_T120U4  COST  125.848  SU_T120U4  -1
    S_T120U5  COST  95.9294  SU_T120U5  -1
    S_T120U6  COST  85.8888  SU_T120U6  -1
    S_T120U7  COST  173.07  SU_T120U7  -1
    S_T120U8  COST  126.279  SU_T120U8  -1
    S_T120U9  COST  159.639  SU_T120U9  -1
    S_T120U10  COST  160.56  SU_T120U10  -1
    S_T120U11  COST  179.681  SU_T120U11  -1
    S_T120U12  COST  115.776  SU_T120U12  -1
    S_T120U13  COST  143.629  SU_T120U13  -1
    S_T120U14  COST  163.435  SU_T120U14  -1
    S_T120U15  COST  185.744  SU_T120U15  -1
    S_T120U16  COST  101.94  SU_T120U16  -1
    S_T120U17  COST  103.459  SU_T120U17  -1
    S_T120U18  COST  194.283  SU_T120U18  -1
    S_T120U19  COST  118.415  SU_T120U19  -1
    S_T120U20  COST  98.7058  SU_T120U20  -1
    S_T120U21  COST  70.2121  SU_T120U21  -1
    S_T120U22  COST  122.825  SU_T120U22  -1
    S_T120U23  COST  120.705  SU_T120U23  -1
    S_T120U24  COST  71.7399  SU_T120U24  -1
    S_T120U25  COST  187.179  SU_T120U25  -1
    S_T120U26  COST  163.614  SU_T120U26  -1
    S_T120U27  COST  171.466  SU_T120U27  -1
    S_T120U28  COST  89.4554  SU_T120U28  -1
    S_T120U29  COST  119.826  SU_T120U29  -1
    S_T120U30  COST  160.146  SU_T120U30  -1
    S_T121U1  COST  181.248  SU_T121U1  -1
    S_T121U2  COST  187.262  SU_T121U2  -1
    S_T121U3  COST  123.604  SU_T121U3  -1
    S_T121U4  COST  164.047  SU_T121U4  -1
    S_T121U5  COST  191.533  SU_T121U5  -1
    S_T121U6  COST  180.824  SU_T121U6  -1
    S_T121U7  COST  178.139  SU_T121U7  -1
    S_T121U8  COST  65.5269  SU_T121U8  -1
    S_T121U9  COST  65.1746  SU_T121U9  -1
    S_T121U10  COST  132.295  SU_T121U10  -1
    S_T121U11  COST  115.803  SU_T121U11  -1
    S_T121U12  COST  195.195  SU_T121U12  -1
    S_T121U13  COST  178.771  SU_T121U13  -1
    S_T121U14  COST  135.421  SU_T121U14  -1
    S_T121U15  COST  134.238  SU_T121U15  -1
    S_T121U16  COST  164.697  SU_T121U16  -1
    S_T121U17  COST  183.141  SU_T121U17  -1
    S_T121U18  COST  71.4236  SU_T121U18  -1
    S_T121U19  COST  74.6867  SU_T121U19  -1
    S_T121U20  COST  195.217  SU_T121U20  -1
    S_T121U21  COST  53.3674  SU_T121U21  -1
    S_T121U22  COST  154.312  SU_T121U22  -1
    S_T121U23  COST  58.4003  SU_T121U23  -1
    S_T121U24  COST  130.306  SU_T121U24  -1
    S_T121U25  COST  98.3675  SU_T121U25  -1
    S_T121U26  COST  174.981  SU_T121U26  -1
    S_T121U27  COST  144.263  SU_T121U27  -1
    S_T121U28  COST  88.1047  SU_T121U28  -1
    S_T121U29  COST  197.453  SU_T121U29  -1
    S_T121U30  COST  167.85  SU_T121U30  -1
    S_T122U1  COST  172.55  SU_T122U1  -1
    S_T122U2  COST  99.016  SU_T122U2  -1
    S_T122U3  COST  61.9481  SU_T122U3  -1
    S_T122U4  COST  117.193  SU_T122U4  -1
    S_T122U5  COST  184.347  SU_T122U5  -1
    S_T122U6  COST  68.4926  SU_T122U6  -1
    S_T122U7  COST  54.4604  SU_T122U7  -1
    S_T122U8  COST  148.98  SU_T122U8  -1
    S_T122U9  COST  164.54  SU_T122U9  -1
    S_T122U10  COST  148.855  SU_T122U10  -1
    S_T122U11  COST  65.6844  SU_T122U11  -1
    S_T122U12  COST  129.124  SU_T122U12  -1
    S_T122U13  COST  178.492  SU_T122U13  -1
    S_T122U14  COST  192.474  SU_T122U14  -1
    S_T122U15  COST  101.153  SU_T122U15  -1
    S_T122U16  COST  132.111  SU_T122U16  -1
    S_T122U17  COST  146.416  SU_T122U17  -1
    S_T122U18  COST  184.369  SU_T122U18  -1
    S_T122U19  COST  102.358  SU_T122U19  -1
    S_T122U20  COST  170.243  SU_T122U20  -1
    S_T122U21  COST  93.9388  SU_T122U21  -1
    S_T122U22  COST  150.495  SU_T122U22  -1
    S_T122U23  COST  88.5021  SU_T122U23  -1
    S_T122U24  COST  122.003  SU_T122U24  -1
    S_T122U25  COST  72.7186  SU_T122U25  -1
    S_T122U26  COST  165.604  SU_T122U26  -1
    S_T122U27  COST  50.8098  SU_T122U27  -1
    S_T122U28  COST  195.894  SU_T122U28  -1
    S_T122U29  COST  67.9883  SU_T122U29  -1
    S_T122U30  COST  180.146  SU_T122U30  -1
    S_T123U1  COST  141.154  SU_T123U1  -1
    S_T123U2  COST  81.1766  SU_T123U2  -1
    S_T123U3  COST  161.425  SU_T123U3  -1
    S_T123U4  COST  85.4505  SU_T123U4  -1
    S_T123U5  COST  136.424  SU_T123U5  -1
    S_T123U6  COST  78.2578  SU_T123U6  -1
    S_T123U7  COST  62.1063  SU_T123U7  -1
    S_T123U8  COST  167.538  SU_T123U8  -1
    S_T123U9  COST  79.2582  SU_T123U9  -1
    S_T123U10  COST  71.3982  SU_T123U10  -1
    S_T123U11  COST  174.454  SU_T123U11  -1
    S_T123U12  COST  113.724  SU_T123U12  -1
    S_T123U13  COST  68.4383  SU_T123U13  -1
    S_T123U14  COST  151.33  SU_T123U14  -1
    S_T123U15  COST  133.502  SU_T123U15  -1
    S_T123U16  COST  52.0276  SU_T123U16  -1
    S_T123U17  COST  197.737  SU_T123U17  -1
    S_T123U18  COST  151.818  SU_T123U18  -1
    S_T123U19  COST  157.508  SU_T123U19  -1
    S_T123U20  COST  85.1299  SU_T123U20  -1
    S_T123U21  COST  148.216  SU_T123U21  -1
    S_T123U22  COST  79.1822  SU_T123U22  -1
    S_T123U23  COST  73.1221  SU_T123U23  -1
    S_T123U24  COST  127.2  SU_T123U24  -1
    S_T123U25  COST  154.111  SU_T123U25  -1
    S_T123U26  COST  94.7086  SU_T123U26  -1
    S_T123U27  COST  94.7507  SU_T123U27  -1
    S_T123U28  COST  74.5413  SU_T123U28  -1
    S_T123U29  COST  87.6481  SU_T123U29  -1
    S_T123U30  COST  152.582  SU_T123U30  -1
    S_T124U1  COST  166.692  SU_T124U1  -1
    S_T124U2  COST  136.965  SU_T124U2  -1
    S_T124U3  COST  92.4329  SU_T124U3  -1
    S_T124U4  COST  53.6309  SU_T124U4  -1
    S_T124U5  COST  158.27  SU_T124U5  -1
    S_T124U6  COST  77.4754  SU_T124U6  -1
    S_T124U7  COST  133.999  SU_T124U7  -1
    S_T124U8  COST  171.892  SU_T124U8  -1
    S_T124U9  COST  52.7571  SU_T124U9  -1
    S_T124U10  COST  95.2088  SU_T124U10  -1
    S_T124U11  COST  72.5817  SU_T124U11  -1
    S_T124U12  COST  125.664  SU_T124U12  -1
    S_T124U13  COST  126.976  SU_T124U13  -1
    S_T124U14  COST  99.9101  SU_T124U14  -1
    S_T124U15  COST  63.428  SU_T124U15  -1
    S_T124U16  COST  103.369  SU_T124U16  -1
    S_T124U17  COST  95.7257  SU_T124U17  -1
    S_T124U18  COST  179.593  SU_T124U18  -1
    S_T124U19  COST  78.9476  SU_T124U19  -1
    S_T124U20  COST  142.438  SU_T124U20  -1
    S_T124U21  COST  78.2024  SU_T124U21  -1
    S_T124U22  COST  72.2725  SU_T124U22  -1
    S_T124U23  COST  129.072  SU_T124U23  -1
    S_T124U24  COST  58.2664  SU_T124U24  -1
    S_T124U25  COST  155.449  SU_T124U25  -1
    S_T124U26  COST  77.5108  SU_T124U26  -1
    S_T124U27  COST  172.635  SU_T124U27  -1
    S_T124U28  COST  128.068  SU_T124U28  -1
    S_T124U29  COST  50.8166  SU_T124U29  -1
    S_T124U30  COST  186.773  SU_T124U30  -1
    S_T125U1  COST  117.606  SU_T125U1  -1
    S_T125U2  COST  193.346  SU_T125U2  -1
    S_T125U3  COST  176.356  SU_T125U3  -1
    S_T125U4  COST  75.2317  SU_T125U4  -1
    S_T125U5  COST  79.2663  SU_T125U5  -1
    S_T125U6  COST  118.797  SU_T125U6  -1
    S_T125U7  COST  124.586  SU_T125U7  -1
    S_T125U8  COST  93.6083  SU_T125U8  -1
    S_T125U9  COST  194.107  SU_T125U9  -1
    S_T125U10  COST  199.445  SU_T125U10  -1
    S_T125U11  COST  141.644  SU_T125U11  -1
    S_T125U12  COST  185.217  SU_T125U12  -1
    S_T125U13  COST  180.271  SU_T125U13  -1
    S_T125U14  COST  174.951  SU_T125U14  -1
    S_T125U15  COST  93.7123  SU_T125U15  -1
    S_T125U16  COST  96.2704  SU_T125U16  -1
    S_T125U17  COST  137.385  SU_T125U17  -1
    S_T125U18  COST  178.08  SU_T125U18  -1
    S_T125U19  COST  131.627  SU_T125U19  -1
    S_T125U20  COST  64.264  SU_T125U20  -1
    S_T125U21  COST  158.822  SU_T125U21  -1
    S_T125U22  COST  157.468  SU_T125U22  -1
    S_T125U23  COST  181.657  SU_T125U23  -1
    S_T125U24  COST  193.675  SU_T125U24  -1
    S_T125U25  COST  189.999  SU_T125U25  -1
    S_T125U26  COST  154.007  SU_T125U26  -1
    S_T125U27  COST  90.7561  SU_T125U27  -1
    S_T125U28  COST  140.538  SU_T125U28  -1
    S_T125U29  COST  180.062  SU_T125U29  -1
    S_T125U30  COST  110.729  SU_T125U30  -1
    S_T126U1  COST  195.727  SU_T126U1  -1
    S_T126U2  COST  168.859  SU_T126U2  -1
    S_T126U3  COST  152.219  SU_T126U3  -1
    S_T126U4  COST  182.56  SU_T126U4  -1
    S_T126U5  COST  77.89  SU_T126U5  -1
    S_T126U6  COST  124.077  SU_T126U6  -1
    S_T126U7  COST  165.446  SU_T126U7  -1
    S_T126U8  COST  100.658  SU_T126U8  -1
    S_T126U9  COST  162.254  SU_T126U9  -1
    S_T126U10  COST  98.6913  SU_T126U10  -1
    S_T126U11  COST  148.668  SU_T126U11  -1
    S_T126U12  COST  189.664  SU_T126U12  -1
    S_T126U13  COST  158.509  SU_T126U13  -1
    S_T126U14  COST  176.895  SU_T126U14  -1
    S_T126U15  COST  90.8361  SU_T126U15  -1
    S_T126U16  COST  175.39  SU_T126U16  -1
    S_T126U17  COST  118.424  SU_T126U17  -1
    S_T126U18  COST  55.4945  SU_T126U18  -1
    S_T126U19  COST  174.011  SU_T126U19  -1
    S_T126U20  COST  93.8623  SU_T126U20  -1
    S_T126U21  COST  165.767  SU_T126U21  -1
    S_T126U22  COST  162.261  SU_T126U22  -1
    S_T126U23  COST  118.845  SU_T126U23  -1
    S_T126U24  COST  191.272  SU_T126U24  -1
    S_T126U25  COST  65.7898  SU_T126U25  -1
    S_T126U26  COST  125.087  SU_T126U26  -1
    S_T126U27  COST  129.604  SU_T126U27  -1
    S_T126U28  COST  151.347  SU_T126U28  -1
    S_T126U29  COST  84.9567  SU_T126U29  -1
    S_T126U30  COST  173.23  SU_T126U30  -1
    S_T127U1  COST  144.628  SU_T127U1  -1
    S_T127U2  COST  93.9007  SU_T127U2  -1
    S_T127U3  COST  101.303  SU_T127U3  -1
    S_T127U4  COST  91.2197  SU_T127U4  -1
    S_T127U5  COST  64.109  SU_T127U5  -1
    S_T127U6  COST  143.347  SU_T127U6  -1
    S_T127U7  COST  94.7059  SU_T127U7  -1
    S_T127U8  COST  83.5668  SU_T127U8  -1
    S_T127U9  COST  123.216  SU_T127U9  -1
    S_T127U10  COST  160.141  SU_T127U10  -1
    S_T127U11  COST  158.015  SU_T127U11  -1
    S_T127U12  COST  155.849  SU_T127U12  -1
    S_T127U13  COST  107.441  SU_T127U13  -1
    S_T127U14  COST  173.694  SU_T127U14  -1
    S_T127U15  COST  116.653  SU_T127U15  -1
    S_T127U16  COST  57.1758  SU_T127U16  -1
    S_T127U17  COST  199.637  SU_T127U17  -1
    S_T127U18  COST  171.565  SU_T127U18  -1
    S_T127U19  COST  84.6971  SU_T127U19  -1
    S_T127U20  COST  95.6863  SU_T127U20  -1
    S_T127U21  COST  167.979  SU_T127U21  -1
    S_T127U22  COST  187.166  SU_T127U22  -1
    S_T127U23  COST  177.146  SU_T127U23  -1
    S_T127U24  COST  182.132  SU_T127U24  -1
    S_T127U25  COST  140.377  SU_T127U25  -1
    S_T127U26  COST  183.231  SU_T127U26  -1
    S_T127U27  COST  120.932  SU_T127U27  -1
    S_T127U28  COST  145.782  SU_T127U28  -1
    S_T127U29  COST  188.942  SU_T127U29  -1
    S_T127U30  COST  78.4235  SU_T127U30  -1
    S_T128U1  COST  63.8404  SU_T128U1  -1
    S_T128U2  COST  102.093  SU_T128U2  -1
    S_T128U3  COST  105.931  SU_T128U3  -1
    S_T128U4  COST  110.916  SU_T128U4  -1
    S_T128U5  COST  136.532  SU_T128U5  -1
    S_T128U6  COST  129.098  SU_T128U6  -1
    S_T128U7  COST  175.681  SU_T128U7  -1
    S_T128U8  COST  188.307  SU_T128U8  -1
    S_T128U9  COST  69.3121  SU_T128U9  -1
    S_T128U10  COST  184.096  SU_T128U10  -1
    S_T128U11  COST  56.9393  SU_T128U11  -1
    S_T128U12  COST  81.9341  SU_T128U12  -1
    S_T128U13  COST  146.029  SU_T128U13  -1
    S_T128U14  COST  122.528  SU_T128U14  -1
    S_T128U15  COST  166.851  SU_T128U15  -1
    S_T128U16  COST  183.57  SU_T128U16  -1
    S_T128U17  COST  171.786  SU_T128U17  -1
    S_T128U18  COST  78.4779  SU_T128U18  -1
    S_T128U19  COST  158.193  SU_T128U19  -1
    S_T128U20  COST  177.491  SU_T128U20  -1
    S_T128U21  COST  176.274  SU_T128U21  -1
    S_T128U22  COST  97.4897  SU_T128U22  -1
    S_T128U23  COST  54.7169  SU_T128U23  -1
    S_T128U24  COST  175.367  SU_T128U24  -1
    S_T128U25  COST  164.732  SU_T128U25  -1
    S_T128U26  COST  98.3391  SU_T128U26  -1
    S_T128U27  COST  197.949  SU_T128U27  -1
    S_T128U28  COST  190.14  SU_T128U28  -1
    S_T128U29  COST  93.7382  SU_T128U29  -1
    S_T128U30  COST  189.426  SU_T128U30  -1
    S_T129U1  COST  136.945  SU_T129U1  -1
    S_T129U2  COST  160.943  SU_T129U2  -1
    S_T129U3  COST  90.8428  SU_T129U3  -1
    S_T129U4  COST  143.123  SU_T129U4  -1
    S_T129U5  COST  135.428  SU_T129U5  -1
    S_T129U6  COST  71.2282  SU_T129U6  -1
    S_T129U7  COST  137.359  SU_T129U7  -1
    S_T129U8  COST  119.289  SU_T129U8  -1
    S_T129U9  COST  184.634  SU_T129U9  -1
    S_T129U10  COST  156.69  SU_T129U10  -1
    S_T129U11  COST  55.0319  SU_T129U11  -1
    S_T129U12  COST  154.224  SU_T129U12  -1
    S_T129U13  COST  101.032  SU_T129U13  -1
    S_T129U14  COST  121.928  SU_T129U14  -1
    S_T129U15  COST  63.7977  SU_T129U15  -1
    S_T129U16  COST  115.576  SU_T129U16  -1
    S_T129U17  COST  137.28  SU_T129U17  -1
    S_T129U18  COST  71.687  SU_T129U18  -1
    S_T129U19  COST  71.3211  SU_T129U19  -1
    S_T129U20  COST  58.2027  SU_T129U20  -1
    S_T129U21  COST  76.6114  SU_T129U21  -1
    S_T129U22  COST  135.055  SU_T129U22  -1
    S_T129U23  COST  58.2181  SU_T129U23  -1
    S_T129U24  COST  156.13  SU_T129U24  -1
    S_T129U25  COST  170.974  SU_T129U25  -1
    S_T129U26  COST  193.939  SU_T129U26  -1
    S_T129U27  COST  101.235  SU_T129U27  -1
    S_T129U28  COST  134.58  SU_T129U28  -1
    S_T129U29  COST  159.047  SU_T129U29  -1
    S_T129U30  COST  74.3773  SU_T129U30  -1
    S_T130U1  COST  70.0203  SU_T130U1  -1
    S_T130U2  COST  198.46  SU_T130U2  -1
    S_T130U3  COST  116.713  SU_T130U3  -1
    S_T130U4  COST  52.06  SU_T130U4  -1
    S_T130U5  COST  69.2936  SU_T130U5  -1
    S_T130U6  COST  172.303  SU_T130U6  -1
    S_T130U7  COST  127.91  SU_T130U7  -1
    S_T130U8  COST  150.453  SU_T130U8  -1
    S_T130U9  COST  140.4  SU_T130U9  -1
    S_T130U10  COST  52.1801  SU_T130U10  -1
    S_T130U11  COST  136.576  SU_T130U11  -1
    S_T130U12  COST  180.004  SU_T130U12  -1
    S_T130U13  COST  129.175  SU_T130U13  -1
    S_T130U14  COST  176.06  SU_T130U14  -1
    S_T130U15  COST  100.812  SU_T130U15  -1
    S_T130U16  COST  178.688  SU_T130U16  -1
    S_T130U17  COST  188.561  SU_T130U17  -1
    S_T130U18  COST  162.427  SU_T130U18  -1
    S_T130U19  COST  162.44  SU_T130U19  -1
    S_T130U20  COST  189.896  SU_T130U20  -1
    S_T130U21  COST  93.2444  SU_T130U21  -1
    S_T130U22  COST  93.0224  SU_T130U22  -1
    S_T130U23  COST  109.94  SU_T130U23  -1
    S_T130U24  COST  125.045  SU_T130U24  -1
    S_T130U25  COST  108.795  SU_T130U25  -1
    S_T130U26  COST  193.196  SU_T130U26  -1
    S_T130U27  COST  190.093  SU_T130U27  -1
    S_T130U28  COST  72.0341  SU_T130U28  -1
    S_T130U29  COST  152.138  SU_T130U29  -1
    S_T130U30  COST  90.404  SU_T130U30  -1
    S_T131U1  COST  118.08  SU_T131U1  -1
    S_T131U2  COST  97.7528  SU_T131U2  -1
    S_T131U3  COST  198.607  SU_T131U3  -1
    S_T131U4  COST  125.968  SU_T131U4  -1
    S_T131U5  COST  85.8835  SU_T131U5  -1
    S_T131U6  COST  142.264  SU_T131U6  -1
    S_T131U7  COST  118.925  SU_T131U7  -1
    S_T131U8  COST  137.997  SU_T131U8  -1
    S_T131U9  COST  147.993  SU_T131U9  -1
    S_T131U10  COST  144.655  SU_T131U10  -1
    S_T131U11  COST  131.148  SU_T131U11  -1
    S_T131U12  COST  133.51  SU_T131U12  -1
    S_T131U13  COST  189.437  SU_T131U13  -1
    S_T131U14  COST  115.529  SU_T131U14  -1
    S_T131U15  COST  110.782  SU_T131U15  -1
    S_T131U16  COST  172.042  SU_T131U16  -1
    S_T131U17  COST  129.234  SU_T131U17  -1
    S_T131U18  COST  81.1204  SU_T131U18  -1
    S_T131U19  COST  175.782  SU_T131U19  -1
    S_T131U20  COST  111.672  SU_T131U20  -1
    S_T131U21  COST  159.499  SU_T131U21  -1
    S_T131U22  COST  152.036  SU_T131U22  -1
    S_T131U23  COST  84.2707  SU_T131U23  -1
    S_T131U24  COST  54.9985  SU_T131U24  -1
    S_T131U25  COST  67.7543  SU_T131U25  -1
    S_T131U26  COST  87.5124  SU_T131U26  -1
    S_T131U27  COST  126.845  SU_T131U27  -1
    S_T131U28  COST  135.649  SU_T131U28  -1
    S_T131U29  COST  149.217  SU_T131U29  -1
    S_T131U30  COST  111.408  SU_T131U30  -1
    S_T132U1  COST  52.1773  SU_T132U1  -1
    S_T132U2  COST  110.341  SU_T132U2  -1
    S_T132U3  COST  77.4403  SU_T132U3  -1
    S_T132U4  COST  197.666  SU_T132U4  -1
    S_T132U5  COST  139.956  SU_T132U5  -1
    S_T132U6  COST  162.374  SU_T132U6  -1
    S_T132U7  COST  141.629  SU_T132U7  -1
    S_T132U8  COST  52.3171  SU_T132U8  -1
    S_T132U9  COST  83.641  SU_T132U9  -1
    S_T132U10  COST  112.398  SU_T132U10  -1
    S_T132U11  COST  64.0733  SU_T132U11  -1
    S_T132U12  COST  134.629  SU_T132U12  -1
    S_T132U13  COST  159.781  SU_T132U13  -1
    S_T132U14  COST  191.745  SU_T132U14  -1
    S_T132U15  COST  135.682  SU_T132U15  -1
    S_T132U16  COST  91.2854  SU_T132U16  -1
    S_T132U17  COST  156.168  SU_T132U17  -1
    S_T132U18  COST  184.476  SU_T132U18  -1
    S_T132U19  COST  109.866  SU_T132U19  -1
    S_T132U20  COST  111.194  SU_T132U20  -1
    S_T132U21  COST  167.253  SU_T132U21  -1
    S_T132U22  COST  121.797  SU_T132U22  -1
    S_T132U23  COST  96.4339  SU_T132U23  -1
    S_T132U24  COST  171.663  SU_T132U24  -1
    S_T132U25  COST  170.851  SU_T132U25  -1
    S_T132U26  COST  159.866  SU_T132U26  -1
    S_T132U27  COST  151.959  SU_T132U27  -1
    S_T132U28  COST  165.347  SU_T132U28  -1
    S_T132U29  COST  120.924  SU_T132U29  -1
    S_T132U30  COST  66.2116  SU_T132U30  -1
    S_T133U1  COST  195.793  SU_T133U1  -1
    S_T133U2  COST  97.4007  SU_T133U2  -1
    S_T133U3  COST  145.02  SU_T133U3  -1
    S_T133U4  COST  144.282  SU_T133U4  -1
    S_T133U5  COST  64.243  SU_T133U5  -1
    S_T133U6  COST  98.6203  SU_T133U6  -1
    S_T133U7  COST  55.6029  SU_T133U7  -1
    S_T133U8  COST  66.9704  SU_T133U8  -1
    S_T133U9  COST  199.733  SU_T133U9  -1
    S_T133U10  COST  57.2487  SU_T133U10  -1
    S_T133U11  COST  147.173  SU_T133U11  -1
    S_T133U12  COST  71.7658  SU_T133U12  -1
    S_T133U13  COST  195.322  SU_T133U13  -1
    S_T133U14  COST  168.464  SU_T133U14  -1
    S_T133U15  COST  101.86  SU_T133U15  -1
    S_T133U16  COST  61.8471  SU_T133U16  -1
    S_T133U17  COST  167.709  SU_T133U17  -1
    S_T133U18  COST  187.065  SU_T133U18  -1
    S_T133U19  COST  199.961  SU_T133U19  -1
    S_T133U20  COST  164.496  SU_T133U20  -1
    S_T133U21  COST  89.1868  SU_T133U21  -1
    S_T133U22  COST  184.685  SU_T133U22  -1
    S_T133U23  COST  53.9238  SU_T133U23  -1
    S_T133U24  COST  140.62  SU_T133U24  -1
    S_T133U25  COST  85.1008  SU_T133U25  -1
    S_T133U26  COST  88.8823  SU_T133U26  -1
    S_T133U27  COST  55.3839  SU_T133U27  -1
    S_T133U28  COST  102.802  SU_T133U28  -1
    S_T133U29  COST  52.7557  SU_T133U29  -1
    S_T133U30  COST  170.709  SU_T133U30  -1
    S_T134U1  COST  163.067  SU_T134U1  -1
    S_T134U2  COST  96.4594  SU_T134U2  -1
    S_T134U3  COST  98.4607  SU_T134U3  -1
    S_T134U4  COST  94.6511  SU_T134U4  -1
    S_T134U5  COST  70.5473  SU_T134U5  -1
    S_T134U6  COST  186.995  SU_T134U6  -1
    S_T134U7  COST  133.978  SU_T134U7  -1
    S_T134U8  COST  144.109  SU_T134U8  -1
    S_T134U9  COST  93.8587  SU_T134U9  -1
    S_T134U10  COST  160.315  SU_T134U10  -1
    S_T134U11  COST  101.802  SU_T134U11  -1
    S_T134U12  COST  65.2929  SU_T134U12  -1
    S_T134U13  COST  59.3671  SU_T134U13  -1
    S_T134U14  COST  63.8519  SU_T134U14  -1
    S_T134U15  COST  58.4725  SU_T134U15  -1
    S_T134U16  COST  176.456  SU_T134U16  -1
    S_T134U17  COST  128.319  SU_T134U17  -1
    S_T134U18  COST  95.0733  SU_T134U18  -1
    S_T134U19  COST  90.8004  SU_T134U19  -1
    S_T134U20  COST  80.9296  SU_T134U20  -1
    S_T134U21  COST  100.469  SU_T134U21  -1
    S_T134U22  COST  118.163  SU_T134U22  -1
    S_T134U23  COST  82.0351  SU_T134U23  -1
    S_T134U24  COST  166.484  SU_T134U24  -1
    S_T134U25  COST  58.922  SU_T134U25  -1
    S_T134U26  COST  106.731  SU_T134U26  -1
    S_T134U27  COST  181.162  SU_T134U27  -1
    S_T134U28  COST  166.581  SU_T134U28  -1
    S_T134U29  COST  171.783  SU_T134U29  -1
    S_T134U30  COST  57.9135  SU_T134U30  -1
    S_T135U1  COST  191.324  SU_T135U1  -1
    S_T135U2  COST  65.3396  SU_T135U2  -1
    S_T135U3  COST  170.869  SU_T135U3  -1
    S_T135U4  COST  120.741  SU_T135U4  -1
    S_T135U5  COST  115.856  SU_T135U5  -1
    S_T135U6  COST  155.882  SU_T135U6  -1
    S_T135U7  COST  147.873  SU_T135U7  -1
    S_T135U8  COST  103.754  SU_T135U8  -1
    S_T135U9  COST  146.416  SU_T135U9  -1
    S_T135U10  COST  179.011  SU_T135U10  -1
    S_T135U11  COST  115.02  SU_T135U11  -1
    S_T135U12  COST  190.708  SU_T135U12  -1
    S_T135U13  COST  51.477  SU_T135U13  -1
    S_T135U14  COST  173.042  SU_T135U14  -1
    S_T135U15  COST  86.1317  SU_T135U15  -1
    S_T135U16  COST  157.315  SU_T135U16  -1
    S_T135U17  COST  99.6812  SU_T135U17  -1
    S_T135U18  COST  133.274  SU_T135U18  -1
    S_T135U19  COST  129.931  SU_T135U19  -1
    S_T135U20  COST  192.716  SU_T135U20  -1
    S_T135U21  COST  166.652  SU_T135U21  -1
    S_T135U22  COST  183.945  SU_T135U22  -1
    S_T135U23  COST  129.571  SU_T135U23  -1
    S_T135U24  COST  177.557  SU_T135U24  -1
    S_T135U25  COST  85.9564  SU_T135U25  -1
    S_T135U26  COST  84.5514  SU_T135U26  -1
    S_T135U27  COST  70.1735  SU_T135U27  -1
    S_T135U28  COST  187.017  SU_T135U28  -1
    S_T135U29  COST  162.235  SU_T135U29  -1
    S_T135U30  COST  87.1347  SU_T135U30  -1
    S_T136U1  COST  164.449  SU_T136U1  -1
    S_T136U2  COST  193.16  SU_T136U2  -1
    S_T136U3  COST  194.345  SU_T136U3  -1
    S_T136U4  COST  79.621  SU_T136U4  -1
    S_T136U5  COST  152.716  SU_T136U5  -1
    S_T136U6  COST  167.972  SU_T136U6  -1
    S_T136U7  COST  122.409  SU_T136U7  -1
    S_T136U8  COST  161.045  SU_T136U8  -1
    S_T136U9  COST  174.021  SU_T136U9  -1
    S_T136U10  COST  169.084  SU_T136U10  -1
    S_T136U11  COST  151.874  SU_T136U11  -1
    S_T136U12  COST  54.3254  SU_T136U12  -1
    S_T136U13  COST  66.178  SU_T136U13  -1
    S_T136U14  COST  175.833  SU_T136U14  -1
    S_T136U15  COST  128.027  SU_T136U15  -1
    S_T136U16  COST  134.173  SU_T136U16  -1
    S_T136U17  COST  168.59  SU_T136U17  -1
    S_T136U18  COST  96.5866  SU_T136U18  -1
    S_T136U19  COST  153.643  SU_T136U19  -1
    S_T136U20  COST  181.306  SU_T136U20  -1
    S_T136U21  COST  110.416  SU_T136U21  -1
    S_T136U22  COST  132.671  SU_T136U22  -1
    S_T136U23  COST  67.1657  SU_T136U23  -1
    S_T136U24  COST  167.189  SU_T136U24  -1
    S_T136U25  COST  86.2404  SU_T136U25  -1
    S_T136U26  COST  79.5138  SU_T136U26  -1
    S_T136U27  COST  65.8398  SU_T136U27  -1
    S_T136U28  COST  124.932  SU_T136U28  -1
    S_T136U29  COST  68.9293  SU_T136U29  -1
    S_T136U30  COST  135.808  SU_T136U30  -1
    S_T137U1  COST  123.711  SU_T137U1  -1
    S_T137U2  COST  190.661  SU_T137U2  -1
    S_T137U3  COST  52.9254  SU_T137U3  -1
    S_T137U4  COST  66.2254  SU_T137U4  -1
    S_T137U5  COST  142.902  SU_T137U5  -1
    S_T137U6  COST  79.8338  SU_T137U6  -1
    S_T137U7  COST  148.903  SU_T137U7  -1
    S_T137U8  COST  197.359  SU_T137U8  -1
    S_T137U9  COST  70.1179  SU_T137U9  -1
    S_T137U10  COST  180.245  SU_T137U10  -1
    S_T137U11  COST  50.2718  SU_T137U11  -1
    S_T137U12  COST  101.066  SU_T137U12  -1
    S_T137U13  COST  128.531  SU_T137U13  -1
    S_T137U14  COST  100.223  SU_T137U14  -1
    S_T137U15  COST  52.9589  SU_T137U15  -1
    S_T137U16  COST  154.279  SU_T137U16  -1
    S_T137U17  COST  84.6101  SU_T137U17  -1
    S_T137U18  COST  163.66  SU_T137U18  -1
    S_T137U19  COST  153.35  SU_T137U19  -1
    S_T137U20  COST  152.539  SU_T137U20  -1
    S_T137U21  COST  189.635  SU_T137U21  -1
    S_T137U22  COST  110.937  SU_T137U22  -1
    S_T137U23  COST  115.285  SU_T137U23  -1
    S_T137U24  COST  120.138  SU_T137U24  -1
    S_T137U25  COST  171.624  SU_T137U25  -1
    S_T137U26  COST  188.982  SU_T137U26  -1
    S_T137U27  COST  159.741  SU_T137U27  -1
    S_T137U28  COST  65.9188  SU_T137U28  -1
    S_T137U29  COST  196.798  SU_T137U29  -1
    S_T137U30  COST  189.309  SU_T137U30  -1
    S_T138U1  COST  74.4672  SU_T138U1  -1
    S_T138U2  COST  101.28  SU_T138U2  -1
    S_T138U3  COST  137.248  SU_T138U3  -1
    S_T138U4  COST  164.219  SU_T138U4  -1
    S_T138U5  COST  50.6757  SU_T138U5  -1
    S_T138U6  COST  129.014  SU_T138U6  -1
    S_T138U7  COST  66.6552  SU_T138U7  -1
    S_T138U8  COST  87.9879  SU_T138U8  -1
    S_T138U9  COST  65.2632  SU_T138U9  -1
    S_T138U10  COST  50.7971  SU_T138U10  -1
    S_T138U11  COST  149.058  SU_T138U11  -1
    S_T138U12  COST  117.989  SU_T138U12  -1
    S_T138U13  COST  103.987  SU_T138U13  -1
    S_T138U14  COST  56.0894  SU_T138U14  -1
    S_T138U15  COST  168.627  SU_T138U15  -1
    S_T138U16  COST  157.422  SU_T138U16  -1
    S_T138U17  COST  87.0808  SU_T138U17  -1
    S_T138U18  COST  65.5067  SU_T138U18  -1
    S_T138U19  COST  69.5039  SU_T138U19  -1
    S_T138U20  COST  81.5264  SU_T138U20  -1
    S_T138U21  COST  121.403  SU_T138U21  -1
    S_T138U22  COST  55.211  SU_T138U22  -1
    S_T138U23  COST  139.499  SU_T138U23  -1
    S_T138U24  COST  122.019  SU_T138U24  -1
    S_T138U25  COST  59.4083  SU_T138U25  -1
    S_T138U26  COST  124.213  SU_T138U26  -1
    S_T138U27  COST  182.855  SU_T138U27  -1
    S_T138U28  COST  74.5319  SU_T138U28  -1
    S_T138U29  COST  71.1664  SU_T138U29  -1
    S_T138U30  COST  76.8944  SU_T138U30  -1
    S_T139U1  COST  53.771  SU_T139U1  -1
    S_T139U2  COST  171.555  SU_T139U2  -1
    S_T139U3  COST  69.1352  SU_T139U3  -1
    S_T139U4  COST  150.842  SU_T139U4  -1
    S_T139U5  COST  117.074  SU_T139U5  -1
    S_T139U6  COST  167.68  SU_T139U6  -1
    S_T139U7  COST  128.131  SU_T139U7  -1
    S_T139U8  COST  174.529  SU_T139U8  -1
    S_T139U9  COST  154.741  SU_T139U9  -1
    S_T139U10  COST  53.042  SU_T139U10  -1
    S_T139U11  COST  127.056  SU_T139U11  -1
    S_T139U12  COST  68.7046  SU_T139U12  -1
    S_T139U13  COST  164.638  SU_T139U13  -1
    S_T139U14  COST  163.745  SU_T139U14  -1
    S_T139U15  COST  142.469  SU_T139U15  -1
    S_T139U16  COST  145.993  SU_T139U16  -1
    S_T139U17  COST  191.868  SU_T139U17  -1
    S_T139U18  COST  107.212  SU_T139U18  -1
    S_T139U19  COST  75.7811  SU_T139U19  -1
    S_T139U20  COST  65.8095  SU_T139U20  -1
    S_T139U21  COST  101.164  SU_T139U21  -1
    S_T139U22  COST  156.752  SU_T139U22  -1
    S_T139U23  COST  150.878  SU_T139U23  -1
    S_T139U24  COST  133.793  SU_T139U24  -1
    S_T139U25  COST  66.6492  SU_T139U25  -1
    S_T139U26  COST  114.3  SU_T139U26  -1
    S_T139U27  COST  134.944  SU_T139U27  -1
    S_T139U28  COST  92.6894  SU_T139U28  -1
    S_T139U29  COST  100.301  SU_T139U29  -1
    S_T139U30  COST  136.368  SU_T139U30  -1
    S_T140U1  COST  68.738  SU_T140U1  -1
    S_T140U2  COST  51.8638  SU_T140U2  -1
    S_T140U3  COST  56.7633  SU_T140U3  -1
    S_T140U4  COST  180.798  SU_T140U4  -1
    S_T140U5  COST  115.445  SU_T140U5  -1
    S_T140U6  COST  175.121  SU_T140U6  -1
    S_T140U7  COST  164.386  SU_T140U7  -1
    S_T140U8  COST  102.204  SU_T140U8  -1
    S_T140U9  COST  120.571  SU_T140U9  -1
    S_T140U10  COST  199.956  SU_T140U10  -1
    S_T140U11  COST  104.266  SU_T140U11  -1
    S_T140U12  COST  143.926  SU_T140U12  -1
    S_T140U13  COST  147.62  SU_T140U13  -1
    S_T140U14  COST  179.446  SU_T140U14  -1
    S_T140U15  COST  59.4286  SU_T140U15  -1
    S_T140U16  COST  153.387  SU_T140U16  -1
    S_T140U17  COST  130.721  SU_T140U17  -1
    S_T140U18  COST  94.0643  SU_T140U18  -1
    S_T140U19  COST  125.035  SU_T140U19  -1
    S_T140U20  COST  101.103  SU_T140U20  -1
    S_T140U21  COST  138.07  SU_T140U21  -1
    S_T140U22  COST  174.45  SU_T140U22  -1
    S_T140U23  COST  150.624  SU_T140U23  -1
    S_T140U24  COST  93.7226  SU_T140U24  -1
    S_T140U25  COST  193.437  SU_T140U25  -1
    S_T140U26  COST  195.434  SU_T140U26  -1
    S_T140U27  COST  76.34  SU_T140U27  -1
    S_T140U28  COST  136.649  SU_T140U28  -1
    S_T140U29  COST  91.3187  SU_T140U29  -1
    S_T140U30  COST  105.049  SU_T140U30  -1
    S_T141U1  COST  177.498  SU_T141U1  -1
    S_T141U2  COST  103.455  SU_T141U2  -1
    S_T141U3  COST  177.617  SU_T141U3  -1
    S_T141U4  COST  59.971  SU_T141U4  -1
    S_T141U5  COST  128.494  SU_T141U5  -1
    S_T141U6  COST  199.57  SU_T141U6  -1
    S_T141U7  COST  164.191  SU_T141U7  -1
    S_T141U8  COST  183.159  SU_T141U8  -1
    S_T141U9  COST  74.8981  SU_T141U9  -1
    S_T141U10  COST  106.741  SU_T141U10  -1
    S_T141U11  COST  144.56  SU_T141U11  -1
    S_T141U12  COST  112.863  SU_T141U12  -1
    S_T141U13  COST  90.251  SU_T141U13  -1
    S_T141U14  COST  50.2369  SU_T141U14  -1
    S_T141U15  COST  54.5569  SU_T141U15  -1
    S_T141U16  COST  56.9387  SU_T141U16  -1
    S_T141U17  COST  124.58  SU_T141U17  -1
    S_T141U18  COST  78.7754  SU_T141U18  -1
    S_T141U19  COST  159.156  SU_T141U19  -1
    S_T141U20  COST  60.7722  SU_T141U20  -1
    S_T141U21  COST  57.9569  SU_T141U21  -1
    S_T141U22  COST  89.0094  SU_T141U22  -1
    S_T141U23  COST  89.1993  SU_T141U23  -1
    S_T141U24  COST  96.4592  SU_T141U24  -1
    S_T141U25  COST  91.7698  SU_T141U25  -1
    S_T141U26  COST  145.433  SU_T141U26  -1
    S_T141U27  COST  187.702  SU_T141U27  -1
    S_T141U28  COST  160.842  SU_T141U28  -1
    S_T141U29  COST  176.506  SU_T141U29  -1
    S_T141U30  COST  161.435  SU_T141U30  -1
    S_T142U1  COST  163.833  SU_T142U1  -1
    S_T142U2  COST  145.809  SU_T142U2  -1
    S_T142U3  COST  65.1633  SU_T142U3  -1
    S_T142U4  COST  141.704  SU_T142U4  -1
    S_T142U5  COST  64.3362  SU_T142U5  -1
    S_T142U6  COST  58.3624  SU_T142U6  -1
    S_T142U7  COST  186.172  SU_T142U7  -1
    S_T142U8  COST  151.566  SU_T142U8  -1
    S_T142U9  COST  167.293  SU_T142U9  -1
    S_T142U10  COST  108.791  SU_T142U10  -1
    S_T142U11  COST  66.5614  SU_T142U11  -1
    S_T142U12  COST  97.4753  SU_T142U12  -1
    S_T142U13  COST  70.5103  SU_T142U13  -1
    S_T142U14  COST  52.7057  SU_T142U14  -1
    S_T142U15  COST  62.9637  SU_T142U15  -1
    S_T142U16  COST  184.792  SU_T142U16  -1
    S_T142U17  COST  180.122  SU_T142U17  -1
    S_T142U18  COST  99.9631  SU_T142U18  -1
    S_T142U19  COST  70.8945  SU_T142U19  -1
    S_T142U20  COST  180.368  SU_T142U20  -1
    S_T142U21  COST  141.308  SU_T142U21  -1
    S_T142U22  COST  149.768  SU_T142U22  -1
    S_T142U23  COST  168.045  SU_T142U23  -1
    S_T142U24  COST  104.024  SU_T142U24  -1
    S_T142U25  COST  188.44  SU_T142U25  -1
    S_T142U26  COST  117.813  SU_T142U26  -1
    S_T142U27  COST  57.2594  SU_T142U27  -1
    S_T142U28  COST  112.095  SU_T142U28  -1
    S_T142U29  COST  89.5261  SU_T142U29  -1
    S_T142U30  COST  74.4164  SU_T142U30  -1
    S_T143U1  COST  169.076  SU_T143U1  -1
    S_T143U2  COST  66.1688  SU_T143U2  -1
    S_T143U3  COST  154.647  SU_T143U3  -1
    S_T143U4  COST  108.751  SU_T143U4  -1
    S_T143U5  COST  195.296  SU_T143U5  -1
    S_T143U6  COST  108.502  SU_T143U6  -1
    S_T143U7  COST  136.545  SU_T143U7  -1
    S_T143U8  COST  76.4965  SU_T143U8  -1
    S_T143U9  COST  193.381  SU_T143U9  -1
    S_T143U10  COST  149.254  SU_T143U10  -1
    S_T143U11  COST  69.1365  SU_T143U11  -1
    S_T143U12  COST  139.225  SU_T143U12  -1
    S_T143U13  COST  172.378  SU_T143U13  -1
    S_T143U14  COST  176.856  SU_T143U14  -1
    S_T143U15  COST  195.404  SU_T143U15  -1
    S_T143U16  COST  103.62  SU_T143U16  -1
    S_T143U17  COST  75.0584  SU_T143U17  -1
    S_T143U18  COST  134.452  SU_T143U18  -1
    S_T143U19  COST  93.2304  SU_T143U19  -1
    S_T143U20  COST  149.623  SU_T143U20  -1
    S_T143U21  COST  194.812  SU_T143U21  -1
    S_T143U22  COST  168.807  SU_T143U22  -1
    S_T143U23  COST  61.878  SU_T143U23  -1
    S_T143U24  COST  97.1872  SU_T143U24  -1
    S_T143U25  COST  192.896  SU_T143U25  -1
    S_T143U26  COST  76.2063  SU_T143U26  -1
    S_T143U27  COST  92.1065  SU_T143U27  -1
    S_T143U28  COST  90.2017  SU_T143U28  -1
    S_T143U29  COST  148.899  SU_T143U29  -1
    S_T143U30  COST  82.3706  SU_T143U30  -1
    S_T144U1  COST  96.9024  SU_T144U1  -1
    S_T144U2  COST  52.797  SU_T144U2  -1
    S_T144U3  COST  70.6842  SU_T144U3  -1
    S_T144U4  COST  169.631  SU_T144U4  -1
    S_T144U5  COST  96.4523  SU_T144U5  -1
    S_T144U6  COST  160.521  SU_T144U6  -1
    S_T144U7  COST  148.318  SU_T144U7  -1
    S_T144U8  COST  189.128  SU_T144U8  -1
    S_T144U9  COST  105.021  SU_T144U9  -1
    S_T144U10  COST  50.2033  SU_T144U10  -1
    S_T144U11  COST  162.921  SU_T144U11  -1
    S_T144U12  COST  181.91  SU_T144U12  -1
    S_T144U13  COST  144.595  SU_T144U13  -1
    S_T144U14  COST  123.206  SU_T144U14  -1
    S_T144U15  COST  105.446  SU_T144U15  -1
    S_T144U16  COST  113.531  SU_T144U16  -1
    S_T144U17  COST  185.431  SU_T144U17  -1
    S_T144U18  COST  197.17  SU_T144U18  -1
    S_T144U19  COST  126.722  SU_T144U19  -1
    S_T144U20  COST  65.3336  SU_T144U20  -1
    S_T144U21  COST  137.354  SU_T144U21  -1
    S_T144U22  COST  145.464  SU_T144U22  -1
    S_T144U23  COST  169.964  SU_T144U23  -1
    S_T144U24  COST  88.9416  SU_T144U24  -1
    S_T144U25  COST  120.086  SU_T144U25  -1
    S_T144U26  COST  184.19  SU_T144U26  -1
    S_T144U27  COST  196.767  SU_T144U27  -1
    S_T144U28  COST  133.356  SU_T144U28  -1
    S_T144U29  COST  125.731  SU_T144U29  -1
    S_T144U30  COST  103.722  SU_T144U30  -1
    S_T145U1  COST  112.72  SU_T145U1  -1
    S_T145U2  COST  133.024  SU_T145U2  -1
    S_T145U3  COST  95.9001  SU_T145U3  -1
    S_T145U4  COST  138.288  SU_T145U4  -1
    S_T145U5  COST  147.677  SU_T145U5  -1
    S_T145U6  COST  194.109  SU_T145U6  -1
    S_T145U7  COST  66.8148  SU_T145U7  -1
    S_T145U8  COST  121.846  SU_T145U8  -1
    S_T145U9  COST  109.22  SU_T145U9  -1
    S_T145U10  COST  122.77  SU_T145U10  -1
    S_T145U11  COST  51.2297  SU_T145U11  -1
    S_T145U12  COST  189.668  SU_T145U12  -1
    S_T145U13  COST  51.9615  SU_T145U13  -1
    S_T145U14  COST  148.065  SU_T145U14  -1
    S_T145U15  COST  59.5413  SU_T145U15  -1
    S_T145U16  COST  126.866  SU_T145U16  -1
    S_T145U17  COST  55.1392  SU_T145U17  -1
    S_T145U18  COST  124.956  SU_T145U18  -1
    S_T145U19  COST  72.2603  SU_T145U19  -1
    S_T145U20  COST  185.66  SU_T145U20  -1
    S_T145U21  COST  198.082  SU_T145U21  -1
    S_T145U22  COST  109.199  SU_T145U22  -1
    S_T145U23  COST  112.489  SU_T145U23  -1
    S_T145U24  COST  96.4149  SU_T145U24  -1
    S_T145U25  COST  128.564  SU_T145U25  -1
    S_T145U26  COST  168.605  SU_T145U26  -1
    S_T145U27  COST  93.9734  SU_T145U27  -1
    S_T145U28  COST  106.43  SU_T145U28  -1
    S_T145U29  COST  187.027  SU_T145U29  -1
    S_T145U30  COST  118.924  SU_T145U30  -1
    S_T146U1  COST  144.126  SU_T146U1  -1
    S_T146U2  COST  147.222  SU_T146U2  -1
    S_T146U3  COST  185.896  SU_T146U3  -1
    S_T146U4  COST  151.109  SU_T146U4  -1
    S_T146U5  COST  145.655  SU_T146U5  -1
    S_T146U6  COST  157.583  SU_T146U6  -1
    S_T146U7  COST  161.408  SU_T146U7  -1
    S_T146U8  COST  59.58  SU_T146U8  -1
    S_T146U9  COST  88.7751  SU_T146U9  -1
    S_T146U10  COST  173.549  SU_T146U10  -1
    S_T146U11  COST  155.114  SU_T146U11  -1
    S_T146U12  COST  191.39  SU_T146U12  -1
    S_T146U13  COST  143.509  SU_T146U13  -1
    S_T146U14  COST  82.061  SU_T146U14  -1
    S_T146U15  COST  113.702  SU_T146U15  -1
    S_T146U16  COST  170.96  SU_T146U16  -1
    S_T146U17  COST  196.614  SU_T146U17  -1
    S_T146U18  COST  122.101  SU_T146U18  -1
    S_T146U19  COST  68.1169  SU_T146U19  -1
    S_T146U20  COST  93.133  SU_T146U20  -1
    S_T146U21  COST  92.3233  SU_T146U21  -1
    S_T146U22  COST  160.111  SU_T146U22  -1
    S_T146U23  COST  142.619  SU_T146U23  -1
    S_T146U24  COST  122.109  SU_T146U24  -1
    S_T146U25  COST  156.182  SU_T146U25  -1
    S_T146U26  COST  79.54  SU_T146U26  -1
    S_T146U27  COST  174.814  SU_T146U27  -1
    S_T146U28  COST  82.0045  SU_T146U28  -1
    S_T146U29  COST  160.941  SU_T146U29  -1
    S_T146U30  COST  160.498  SU_T146U30  -1
    S_T147U1  COST  170.902  SU_T147U1  -1
    S_T147U2  COST  87.3393  SU_T147U2  -1
    S_T147U3  COST  60.5177  SU_T147U3  -1
    S_T147U4  COST  89.1543  SU_T147U4  -1
    S_T147U5  COST  186.142  SU_T147U5  -1
    S_T147U6  COST  123.567  SU_T147U6  -1
    S_T147U7  COST  130.288  SU_T147U7  -1
    S_T147U8  COST  100.875  SU_T147U8  -1
    S_T147U9  COST  91.7852  SU_T147U9  -1
    S_T147U10  COST  102.687  SU_T147U10  -1
    S_T147U11  COST  97.9282  SU_T147U11  -1
    S_T147U12  COST  115.377  SU_T147U12  -1
    S_T147U13  COST  52.4162  SU_T147U13  -1
    S_T147U14  COST  77.7389  SU_T147U14  -1
    S_T147U15  COST  101.229  SU_T147U15  -1
    S_T147U16  COST  126.383  SU_T147U16  -1
    S_T147U17  COST  103.458  SU_T147U17  -1
    S_T147U18  COST  53.472  SU_T147U18  -1
    S_T147U19  COST  122.541  SU_T147U19  -1
    S_T147U20  COST  164.649  SU_T147U20  -1
    S_T147U21  COST  100.849  SU_T147U21  -1
    S_T147U22  COST  132.824  SU_T147U22  -1
    S_T147U23  COST  92.2999  SU_T147U23  -1
    S_T147U24  COST  128.29  SU_T147U24  -1
    S_T147U25  COST  149.992  SU_T147U25  -1
    S_T147U26  COST  63.0623  SU_T147U26  -1
    S_T147U27  COST  143.043  SU_T147U27  -1
    S_T147U28  COST  62.9669  SU_T147U28  -1
    S_T147U29  COST  97.1066  SU_T147U29  -1
    S_T147U30  COST  85.5219  SU_T147U30  -1
    S_T148U1  COST  95.2233  SU_T148U1  -1
    S_T148U2  COST  155.442  SU_T148U2  -1
    S_T148U3  COST  112.504  SU_T148U3  -1
    S_T148U4  COST  130.137  SU_T148U4  -1
    S_T148U5  COST  137.513  SU_T148U5  -1
    S_T148U6  COST  148.312  SU_T148U6  -1
    S_T148U7  COST  166.994  SU_T148U7  -1
    S_T148U8  COST  96.3178  SU_T148U8  -1
    S_T148U9  COST  169.741  SU_T148U9  -1
    S_T148U10  COST  102.845  SU_T148U10  -1
    S_T148U11  COST  133.974  SU_T148U11  -1
    S_T148U12  COST  62.4001  SU_T148U12  -1
    S_T148U13  COST  77.8118  SU_T148U13  -1
    S_T148U14  COST  198.836  SU_T148U14  -1
    S_T148U15  COST  59.1948  SU_T148U15  -1
    S_T148U16  COST  124.497  SU_T148U16  -1
    S_T148U17  COST  188.041  SU_T148U17  -1
    S_T148U18  COST  199.184  SU_T148U18  -1
    S_T148U19  COST  141.194  SU_T148U19  -1
    S_T148U20  COST  118.134  SU_T148U20  -1
    S_T148U21  COST  175.335  SU_T148U21  -1
    S_T148U22  COST  173.627  SU_T148U22  -1
    S_T148U23  COST  174.902  SU_T148U23  -1
    S_T148U24  COST  117.807  SU_T148U24  -1
    S_T148U25  COST  145.609  SU_T148U25  -1
    S_T148U26  COST  83.6388  SU_T148U26  -1
    S_T148U27  COST  187.521  SU_T148U27  -1
    S_T148U28  COST  73.0739  SU_T148U28  -1
    S_T148U29  COST  187.239  SU_T148U29  -1
    S_T148U30  COST  172.612  SU_T148U30  -1
    S_T149U1  COST  190.754  SU_T149U1  -1
    S_T149U2  COST  131.963  SU_T149U2  -1
    S_T149U3  COST  51.0909  SU_T149U3  -1
    S_T149U4  COST  114.326  SU_T149U4  -1
    S_T149U5  COST  77.7071  SU_T149U5  -1
    S_T149U6  COST  76.1975  SU_T149U6  -1
    S_T149U7  COST  94.7292  SU_T149U7  -1
    S_T149U8  COST  125.426  SU_T149U8  -1
    S_T149U9  COST  191.335  SU_T149U9  -1
    S_T149U10  COST  98.7586  SU_T149U10  -1
    S_T149U11  COST  100.779  SU_T149U11  -1
    S_T149U12  COST  104.534  SU_T149U12  -1
    S_T149U13  COST  180.78  SU_T149U13  -1
    S_T149U14  COST  66.7373  SU_T149U14  -1
    S_T149U15  COST  114.219  SU_T149U15  -1
    S_T149U16  COST  54.1775  SU_T149U16  -1
    S_T149U17  COST  52.9284  SU_T149U17  -1
    S_T149U18  COST  71.6156  SU_T149U18  -1
    S_T149U19  COST  140.581  SU_T149U19  -1
    S_T149U20  COST  66.5725  SU_T149U20  -1
    S_T149U21  COST  175.879  SU_T149U21  -1
    S_T149U22  COST  125.341  SU_T149U22  -1
    S_T149U23  COST  50.8892  SU_T149U23  -1
    S_T149U24  COST  177.111  SU_T149U24  -1
    S_T149U25  COST  66.2434  SU_T149U25  -1
    S_T149U26  COST  159.066  SU_T149U26  -1
    S_T149U27  COST  80.9073  SU_T149U27  -1
    S_T149U28  COST  169.542  SU_T149U28  -1
    S_T149U29  COST  152.988  SU_T149U29  -1
    S_T149U30  COST  163.369  SU_T149U30  -1
    S_T150U1  COST  67.1818  SU_T150U1  -1
    S_T150U2  COST  171.519  SU_T150U2  -1
    S_T150U3  COST  82.2681  SU_T150U3  -1
    S_T150U4  COST  198.062  SU_T150U4  -1
    S_T150U5  COST  91.7073  SU_T150U5  -1
    S_T150U6  COST  75.5195  SU_T150U6  -1
    S_T150U7  COST  166.021  SU_T150U7  -1
    S_T150U8  COST  53.9904  SU_T150U8  -1
    S_T150U9  COST  82.1383  SU_T150U9  -1
    S_T150U10  COST  167.743  SU_T150U10  -1
    S_T150U11  COST  145.751  SU_T150U11  -1
    S_T150U12  COST  193.114  SU_T150U12  -1
    S_T150U13  COST  170.545  SU_T150U13  -1
    S_T150U14  COST  78.0171  SU_T150U14  -1
    S_T150U15  COST  132.423  SU_T150U15  -1
    S_T150U16  COST  141.156  SU_T150U16  -1
    S_T150U17  COST  89.797  SU_T150U17  -1
    S_T150U18  COST  154.077  SU_T150U18  -1
    S_T150U19  COST  153.106  SU_T150U19  -1
    S_T150U20  COST  89.3612  SU_T150U20  -1
    S_T150U21  COST  166.047  SU_T150U21  -1
    S_T150U22  COST  141.786  SU_T150U22  -1
    S_T150U23  COST  155.292  SU_T150U23  -1
    S_T150U24  COST  153.235  SU_T150U24  -1
    S_T150U25  COST  118.799  SU_T150U25  -1
    S_T150U26  COST  151.972  SU_T150U26  -1
    S_T150U27  COST  143.741  SU_T150U27  -1
    S_T150U28  COST  192.765  SU_T150U28  -1
    S_T150U29  COST  106.089  SU_T150U29  -1
    S_T150U30  COST  57.0987  SU_T150U30  -1
    S_T151U1  COST  87.6197  SU_T151U1  -1
    S_T151U2  COST  177.822  SU_T151U2  -1
    S_T151U3  COST  129.82  SU_T151U3  -1
    S_T151U4  COST  74.2397  SU_T151U4  -1
    S_T151U5  COST  164.102  SU_T151U5  -1
    S_T151U6  COST  118.742  SU_T151U6  -1
    S_T151U7  COST  187.169  SU_T151U7  -1
    S_T151U8  COST  165.572  SU_T151U8  -1
    S_T151U9  COST  139.796  SU_T151U9  -1
    S_T151U10  COST  152.584  SU_T151U10  -1
    S_T151U11  COST  66.9287  SU_T151U11  -1
    S_T151U12  COST  65.1898  SU_T151U12  -1
    S_T151U13  COST  126.146  SU_T151U13  -1
    S_T151U14  COST  105.213  SU_T151U14  -1
    S_T151U15  COST  56.2249  SU_T151U15  -1
    S_T151U16  COST  86.6351  SU_T151U16  -1
    S_T151U17  COST  53.2608  SU_T151U17  -1
    S_T151U18  COST  108.766  SU_T151U18  -1
    S_T151U19  COST  155.363  SU_T151U19  -1
    S_T151U20  COST  197.697  SU_T151U20  -1
    S_T151U21  COST  114.461  SU_T151U21  -1
    S_T151U22  COST  112.558  SU_T151U22  -1
    S_T151U23  COST  123.474  SU_T151U23  -1
    S_T151U24  COST  114.853  SU_T151U24  -1
    S_T151U25  COST  189.134  SU_T151U25  -1
    S_T151U26  COST  66.7391  SU_T151U26  -1
    S_T151U27  COST  199.576  SU_T151U27  -1
    S_T151U28  COST  103.668  SU_T151U28  -1
    S_T151U29  COST  156.669  SU_T151U29  -1
    S_T151U30  COST  137.157  SU_T151U30  -1
    S_T152U1  COST  171.772  SU_T152U1  -1
    S_T152U2  COST  160.549  SU_T152U2  -1
    S_T152U3  COST  173.702  SU_T152U3  -1
    S_T152U4  COST  189.555  SU_T152U4  -1
    S_T152U5  COST  178.649  SU_T152U5  -1
    S_T152U6  COST  127.179  SU_T152U6  -1
    S_T152U7  COST  149.018  SU_T152U7  -1
    S_T152U8  COST  157.767  SU_T152U8  -1
    S_T152U9  COST  56.7674  SU_T152U9  -1
    S_T152U10  COST  155.823  SU_T152U10  -1
    S_T152U11  COST  169.202  SU_T152U11  -1
    S_T152U12  COST  116.167  SU_T152U12  -1
    S_T152U13  COST  143.754  SU_T152U13  -1
    S_T152U14  COST  170.369  SU_T152U14  -1
    S_T152U15  COST  106.833  SU_T152U15  -1
    S_T152U16  COST  65.3112  SU_T152U16  -1
    S_T152U17  COST  181.073  SU_T152U17  -1
    S_T152U18  COST  117.663  SU_T152U18  -1
    S_T152U19  COST  172.145  SU_T152U19  -1
    S_T152U20  COST  165.736  SU_T152U20  -1
    S_T152U21  COST  73.7139  SU_T152U21  -1
    S_T152U22  COST  78.2552  SU_T152U22  -1
    S_T152U23  COST  189.579  SU_T152U23  -1
    S_T152U24  COST  114.92  SU_T152U24  -1
    S_T152U25  COST  89.8414  SU_T152U25  -1
    S_T152U26  COST  170.415  SU_T152U26  -1
    S_T152U27  COST  56.2732  SU_T152U27  -1
    S_T152U28  COST  134.377  SU_T152U28  -1
    S_T152U29  COST  146.584  SU_T152U29  -1
    S_T152U30  COST  87.5872  SU_T152U30  -1
    S_T153U1  COST  114.217  SU_T153U1  -1
    S_T153U2  COST  194.136  SU_T153U2  -1
    S_T153U3  COST  157.877  SU_T153U3  -1
    S_T153U4  COST  153.389  SU_T153U4  -1
    S_T153U5  COST  87.4998  SU_T153U5  -1
    S_T153U6  COST  153.441  SU_T153U6  -1
    S_T153U7  COST  87.8418  SU_T153U7  -1
    S_T153U8  COST  169.387  SU_T153U8  -1
    S_T153U9  COST  168.995  SU_T153U9  -1
    S_T153U10  COST  190.814  SU_T153U10  -1
    S_T153U11  COST  139.392  SU_T153U11  -1
    S_T153U12  COST  75.5404  SU_T153U12  -1
    S_T153U13  COST  112.981  SU_T153U13  -1
    S_T153U14  COST  59.4457  SU_T153U14  -1
    S_T153U15  COST  167.676  SU_T153U15  -1
    S_T153U16  COST  145.149  SU_T153U16  -1
    S_T153U17  COST  146.128  SU_T153U17  -1
    S_T153U18  COST  148.417  SU_T153U18  -1
    S_T153U19  COST  97.7382  SU_T153U19  -1
    S_T153U20  COST  133.539  SU_T153U20  -1
    S_T153U21  COST  189.997  SU_T153U21  -1
    S_T153U22  COST  82.8455  SU_T153U22  -1
    S_T153U23  COST  91.5497  SU_T153U23  -1
    S_T153U24  COST  102.276  SU_T153U24  -1
    S_T153U25  COST  89.8843  SU_T153U25  -1
    S_T153U26  COST  54.544  SU_T153U26  -1
    S_T153U27  COST  143.274  SU_T153U27  -1
    S_T153U28  COST  131.907  SU_T153U28  -1
    S_T153U29  COST  190.198  SU_T153U29  -1
    S_T153U30  COST  57.17  SU_T153U30  -1
    S_T154U1  COST  75.0952  SU_T154U1  -1
    S_T154U2  COST  150.792  SU_T154U2  -1
    S_T154U3  COST  198.767  SU_T154U3  -1
    S_T154U4  COST  96.6245  SU_T154U4  -1
    S_T154U5  COST  174.764  SU_T154U5  -1
    S_T154U6  COST  133.19  SU_T154U6  -1
    S_T154U7  COST  122.147  SU_T154U7  -1
    S_T154U8  COST  174.267  SU_T154U8  -1
    S_T154U9  COST  72.9564  SU_T154U9  -1
    S_T154U10  COST  111.981  SU_T154U10  -1
    S_T154U11  COST  68.9083  SU_T154U11  -1
    S_T154U12  COST  126.832  SU_T154U12  -1
    S_T154U13  COST  74.2951  SU_T154U13  -1
    S_T154U14  COST  189.021  SU_T154U14  -1
    S_T154U15  COST  86.2377  SU_T154U15  -1
    S_T154U16  COST  169.428  SU_T154U16  -1
    S_T154U17  COST  144.707  SU_T154U17  -1
    S_T154U18  COST  97.7228  SU_T154U18  -1
    S_T154U19  COST  87.0445  SU_T154U19  -1
    S_T154U20  COST  145.18  SU_T154U20  -1
    S_T154U21  COST  108.879  SU_T154U21  -1
    S_T154U22  COST  173.41  SU_T154U22  -1
    S_T154U23  COST  125.217  SU_T154U23  -1
    S_T154U24  COST  117.255  SU_T154U24  -1
    S_T154U25  COST  68.0511  SU_T154U25  -1
    S_T154U26  COST  163.619  SU_T154U26  -1
    S_T154U27  COST  58.3509  SU_T154U27  -1
    S_T154U28  COST  73.1092  SU_T154U28  -1
    S_T154U29  COST  100.796  SU_T154U29  -1
    S_T154U30  COST  112.172  SU_T154U30  -1
    S_T155U1  COST  176.157  SU_T155U1  -1
    S_T155U2  COST  70.874  SU_T155U2  -1
    S_T155U3  COST  117.196  SU_T155U3  -1
    S_T155U4  COST  90.2899  SU_T155U4  -1
    S_T155U5  COST  174.891  SU_T155U5  -1
    S_T155U6  COST  157.546  SU_T155U6  -1
    S_T155U7  COST  82.4451  SU_T155U7  -1
    S_T155U8  COST  163.61  SU_T155U8  -1
    S_T155U9  COST  198.428  SU_T155U9  -1
    S_T155U10  COST  88.2205  SU_T155U10  -1
    S_T155U11  COST  115.199  SU_T155U11  -1
    S_T155U12  COST  76.7994  SU_T155U12  -1
    S_T155U13  COST  167.948  SU_T155U13  -1
    S_T155U14  COST  193.597  SU_T155U14  -1
    S_T155U15  COST  82.9429  SU_T155U15  -1
    S_T155U16  COST  163.761  SU_T155U16  -1
    S_T155U17  COST  61.4916  SU_T155U17  -1
    S_T155U18  COST  196.475  SU_T155U18  -1
    S_T155U19  COST  91.68  SU_T155U19  -1
    S_T155U20  COST  183.99  SU_T155U20  -1
    S_T155U21  COST  173.798  SU_T155U21  -1
    S_T155U22  COST  190.22  SU_T155U22  -1
    S_T155U23  COST  146.552  SU_T155U23  -1
    S_T155U24  COST  120.104  SU_T155U24  -1
    S_T155U25  COST  169.282  SU_T155U25  -1
    S_T155U26  COST  120.093  SU_T155U26  -1
    S_T155U27  COST  116.721  SU_T155U27  -1
    S_T155U28  COST  144.488  SU_T155U28  -1
    S_T155U29  COST  131.174  SU_T155U29  -1
    S_T155U30  COST  53.9575  SU_T155U30  -1
    S_T156U1  COST  88.7975  SU_T156U1  -1
    S_T156U2  COST  59.6127  SU_T156U2  -1
    S_T156U3  COST  164.841  SU_T156U3  -1
    S_T156U4  COST  182.1  SU_T156U4  -1
    S_T156U5  COST  90.3051  SU_T156U5  -1
    S_T156U6  COST  156.916  SU_T156U6  -1
    S_T156U7  COST  185.629  SU_T156U7  -1
    S_T156U8  COST  123.953  SU_T156U8  -1
    S_T156U9  COST  192.13  SU_T156U9  -1
    S_T156U10  COST  87.4814  SU_T156U10  -1
    S_T156U11  COST  124.831  SU_T156U11  -1
    S_T156U12  COST  119.354  SU_T156U12  -1
    S_T156U13  COST  196.605  SU_T156U13  -1
    S_T156U14  COST  76.7375  SU_T156U14  -1
    S_T156U15  COST  101.1  SU_T156U15  -1
    S_T156U16  COST  185.959  SU_T156U16  -1
    S_T156U17  COST  70.6644  SU_T156U17  -1
    S_T156U18  COST  158.315  SU_T156U18  -1
    S_T156U19  COST  138.535  SU_T156U19  -1
    S_T156U20  COST  101.578  SU_T156U20  -1
    S_T156U21  COST  182.631  SU_T156U21  -1
    S_T156U22  COST  107.436  SU_T156U22  -1
    S_T156U23  COST  140.631  SU_T156U23  -1
    S_T156U24  COST  98.6992  SU_T156U24  -1
    S_T156U25  COST  110.994  SU_T156U25  -1
    S_T156U26  COST  84.2613  SU_T156U26  -1
    S_T156U27  COST  94.3403  SU_T156U27  -1
    S_T156U28  COST  126.982  SU_T156U28  -1
    S_T156U29  COST  76.9413  SU_T156U29  -1
    S_T156U30  COST  78.2931  SU_T156U30  -1
    S_T157U1  COST  132.002  SU_T157U1  -1
    S_T157U2  COST  57.5054  SU_T157U2  -1
    S_T157U3  COST  170.402  SU_T157U3  -1
    S_T157U4  COST  86.7957  SU_T157U4  -1
    S_T157U5  COST  116.477  SU_T157U5  -1
    S_T157U6  COST  179.432  SU_T157U6  -1
    S_T157U7  COST  166.698  SU_T157U7  -1
    S_T157U8  COST  134.619  SU_T157U8  -1
    S_T157U9  COST  188.393  SU_T157U9  -1
    S_T157U10  COST  54.4215  SU_T157U10  -1
    S_T157U11  COST  197.967  SU_T157U11  -1
    S_T157U12  COST  142.196  SU_T157U12  -1
    S_T157U13  COST  181.867  SU_T157U13  -1
    S_T157U14  COST  149.72  SU_T157U14  -1
    S_T157U15  COST  60.5757  SU_T157U15  -1
    S_T157U16  COST  157.954  SU_T157U16  -1
    S_T157U17  COST  145.065  SU_T157U17  -1
    S_T157U18  COST  164.637  SU_T157U18  -1
    S_T157U19  COST  69.3555  SU_T157U19  -1
    S_T157U20  COST  109.361  SU_T157U20  -1
    S_T157U21  COST  176.227  SU_T157U21  -1
    S_T157U22  COST  96.8192  SU_T157U22  -1
    S_T157U23  COST  64.401  SU_T157U23  -1
    S_T157U24  COST  58.1407  SU_T157U24  -1
    S_T157U25  COST  63.0294  SU_T157U25  -1
    S_T157U26  COST  57.8963  SU_T157U26  -1
    S_T157U27  COST  95.7989  SU_T157U27  -1
    S_T157U28  COST  146.209  SU_T157U28  -1
    S_T157U29  COST  71.2328  SU_T157U29  -1
    S_T157U30  COST  51.2219  SU_T157U30  -1
    S_T158U1  COST  142.414  SU_T158U1  -1
    S_T158U2  COST  197.629  SU_T158U2  -1
    S_T158U3  COST  199.79  SU_T158U3  -1
    S_T158U4  COST  133.806  SU_T158U4  -1
    S_T158U5  COST  90.9993  SU_T158U5  -1
    S_T158U6  COST  103.137  SU_T158U6  -1
    S_T158U7  COST  199.924  SU_T158U7  -1
    S_T158U8  COST  136.412  SU_T158U8  -1
    S_T158U9  COST  74.6941  SU_T158U9  -1
    S_T158U10  COST  118.446  SU_T158U10  -1
    S_T158U11  COST  157.132  SU_T158U11  -1
    S_T158U12  COST  195.825  SU_T158U12  -1
    S_T158U13  COST  140.198  SU_T158U13  -1
    S_T158U14  COST  70.2074  SU_T158U14  -1
    S_T158U15  COST  168.902  SU_T158U15  -1
    S_T158U16  COST  92.4525  SU_T158U16  -1
    S_T158U17  COST  103.249  SU_T158U17  -1
    S_T158U18  COST  150.981  SU_T158U18  -1
    S_T158U19  COST  95.7319  SU_T158U19  -1
    S_T158U20  COST  61.3777  SU_T158U20  -1
    S_T158U21  COST  117.234  SU_T158U21  -1
    S_T158U22  COST  118.647  SU_T158U22  -1
    S_T158U23  COST  157.334  SU_T158U23  -1
    S_T158U24  COST  92.3596  SU_T158U24  -1
    S_T158U25  COST  97.5267  SU_T158U25  -1
    S_T158U26  COST  68.15  SU_T158U26  -1
    S_T158U27  COST  97.3693  SU_T158U27  -1
    S_T158U28  COST  146.827  SU_T158U28  -1
    S_T158U29  COST  61.6759  SU_T158U29  -1
    S_T158U30  COST  153.315  SU_T158U30  -1
    S_T159U1  COST  74.0295  SU_T159U1  -1
    S_T159U2  COST  162.947  SU_T159U2  -1
    S_T159U3  COST  62.3524  SU_T159U3  -1
    S_T159U4  COST  114.89  SU_T159U4  -1
    S_T159U5  COST  145.65  SU_T159U5  -1
    S_T159U6  COST  156.564  SU_T159U6  -1
    S_T159U7  COST  174.799  SU_T159U7  -1
    S_T159U8  COST  137.583  SU_T159U8  -1
    S_T159U9  COST  61.1163  SU_T159U9  -1
    S_T159U10  COST  142.342  SU_T159U10  -1
    S_T159U11  COST  192.58  SU_T159U11  -1
    S_T159U12  COST  131.819  SU_T159U12  -1
    S_T159U13  COST  76.9168  SU_T159U13  -1
    S_T159U14  COST  55.9114  SU_T159U14  -1
    S_T159U15  COST  59.2463  SU_T159U15  -1
    S_T159U16  COST  71.29  SU_T159U16  -1
    S_T159U17  COST  173.378  SU_T159U17  -1
    S_T159U18  COST  86.4453  SU_T159U18  -1
    S_T159U19  COST  91.4129  SU_T159U19  -1
    S_T159U20  COST  88.1267  SU_T159U20  -1
    S_T159U21  COST  194.915  SU_T159U21  -1
    S_T159U22  COST  92.6915  SU_T159U22  -1
    S_T159U23  COST  119.677  SU_T159U23  -1
    S_T159U24  COST  75.8586  SU_T159U24  -1
    S_T159U25  COST  159.414  SU_T159U25  -1
    S_T159U26  COST  73.3513  SU_T159U26  -1
    S_T159U27  COST  83.8542  SU_T159U27  -1
    S_T159U28  COST  140.617  SU_T159U28  -1
    S_T159U29  COST  140.379  SU_T159U29  -1
    S_T159U30  COST  60.3845  SU_T159U30  -1
    S_T160U1  COST  93.5442  SU_T160U1  -1
    S_T160U2  COST  73.9085  SU_T160U2  -1
    S_T160U3  COST  109.098  SU_T160U3  -1
    S_T160U4  COST  117.636  SU_T160U4  -1
    S_T160U5  COST  64.7008  SU_T160U5  -1
    S_T160U6  COST  100.692  SU_T160U6  -1
    S_T160U7  COST  189.881  SU_T160U7  -1
    S_T160U8  COST  146.38  SU_T160U8  -1
    S_T160U9  COST  126.072  SU_T160U9  -1
    S_T160U10  COST  182.258  SU_T160U10  -1
    S_T160U11  COST  137.327  SU_T160U11  -1
    S_T160U12  COST  149.185  SU_T160U12  -1
    S_T160U13  COST  51.6038  SU_T160U13  -1
    S_T160U14  COST  176.489  SU_T160U14  -1
    S_T160U15  COST  96.7063  SU_T160U15  -1
    S_T160U16  COST  73.3821  SU_T160U16  -1
    S_T160U17  COST  153.106  SU_T160U17  -1
    S_T160U18  COST  156.953  SU_T160U18  -1
    S_T160U19  COST  87.8404  SU_T160U19  -1
    S_T160U20  COST  192.937  SU_T160U20  -1
    S_T160U21  COST  100.583  SU_T160U21  -1
    S_T160U22  COST  73.0126  SU_T160U22  -1
    S_T160U23  COST  60.2754  SU_T160U23  -1
    S_T160U24  COST  118.252  SU_T160U24  -1
    S_T160U25  COST  148.97  SU_T160U25  -1
    S_T160U26  COST  83.6991  SU_T160U26  -1
    S_T160U27  COST  156.179  SU_T160U27  -1
    S_T160U28  COST  187.213  SU_T160U28  -1
    S_T160U29  COST  58.2557  SU_T160U29  -1
    S_T160U30  COST  186.419  SU_T160U30  -1
    S_T161U1  COST  168.191  SU_T161U1  -1
    S_T161U2  COST  123.533  SU_T161U2  -1
    S_T161U3  COST  174.174  SU_T161U3  -1
    S_T161U4  COST  86.5764  SU_T161U4  -1
    S_T161U5  COST  178.878  SU_T161U5  -1
    S_T161U6  COST  110.633  SU_T161U6  -1
    S_T161U7  COST  195.789  SU_T161U7  -1
    S_T161U8  COST  155.955  SU_T161U8  -1
    S_T161U9  COST  74.776  SU_T161U9  -1
    S_T161U10  COST  113.461  SU_T161U10  -1
    S_T161U11  COST  120.638  SU_T161U11  -1
    S_T161U12  COST  108.06  SU_T161U12  -1
    S_T161U13  COST  170.445  SU_T161U13  -1
    S_T161U14  COST  85.0313  SU_T161U14  -1
    S_T161U15  COST  193.486  SU_T161U15  -1
    S_T161U16  COST  153.256  SU_T161U16  -1
    S_T161U17  COST  187.012  SU_T161U17  -1
    S_T161U18  COST  170.121  SU_T161U18  -1
    S_T161U19  COST  140.451  SU_T161U19  -1
    S_T161U20  COST  168.754  SU_T161U20  -1
    S_T161U21  COST  150.189  SU_T161U21  -1
    S_T161U22  COST  126.178  SU_T161U22  -1
    S_T161U23  COST  112.452  SU_T161U23  -1
    S_T161U24  COST  198.075  SU_T161U24  -1
    S_T161U25  COST  129.793  SU_T161U25  -1
    S_T161U26  COST  193.16  SU_T161U26  -1
    S_T161U27  COST  154.866  SU_T161U27  -1
    S_T161U28  COST  106.007  SU_T161U28  -1
    S_T161U29  COST  187.618  SU_T161U29  -1
    S_T161U30  COST  90.5669  SU_T161U30  -1
    S_T162U1  COST  180.559  SU_T162U1  -1
    S_T162U2  COST  140.038  SU_T162U2  -1
    S_T162U3  COST  58.4412  SU_T162U3  -1
    S_T162U4  COST  136.837  SU_T162U4  -1
    S_T162U5  COST  136.66  SU_T162U5  -1
    S_T162U6  COST  152.856  SU_T162U6  -1
    S_T162U7  COST  113.637  SU_T162U7  -1
    S_T162U8  COST  71.1167  SU_T162U8  -1
    S_T162U9  COST  138.077  SU_T162U9  -1
    S_T162U10  COST  98.8561  SU_T162U10  -1
    S_T162U11  COST  61.1992  SU_T162U11  -1
    S_T162U12  COST  53.0965  SU_T162U12  -1
    S_T162U13  COST  119.353  SU_T162U13  -1
    S_T162U14  COST  88.4666  SU_T162U14  -1
    S_T162U15  COST  91.2185  SU_T162U15  -1
    S_T162U16  COST  148.973  SU_T162U16  -1
    S_T162U17  COST  165.077  SU_T162U17  -1
    S_T162U18  COST  185.035  SU_T162U18  -1
    S_T162U19  COST  67.1759  SU_T162U19  -1
    S_T162U20  COST  81.0141  SU_T162U20  -1
    S_T162U21  COST  125.955  SU_T162U21  -1
    S_T162U22  COST  186.743  SU_T162U22  -1
    S_T162U23  COST  194.876  SU_T162U23  -1
    S_T162U24  COST  179.759  SU_T162U24  -1
    S_T162U25  COST  71.1356  SU_T162U25  -1
    S_T162U26  COST  147.151  SU_T162U26  -1
    S_T162U27  COST  72.0202  SU_T162U27  -1
    S_T162U28  COST  52.6146  SU_T162U28  -1
    S_T162U29  COST  61.0372  SU_T162U29  -1
    S_T162U30  COST  168.952  SU_T162U30  -1
    S_T163U1  COST  127.796  SU_T163U1  -1
    S_T163U2  COST  89.095  SU_T163U2  -1
    S_T163U3  COST  100.523  SU_T163U3  -1
    S_T163U4  COST  136.292  SU_T163U4  -1
    S_T163U5  COST  118.635  SU_T163U5  -1
    S_T163U6  COST  176.304  SU_T163U6  -1
    S_T163U7  COST  175.806  SU_T163U7  -1
    S_T163U8  COST  158.988  SU_T163U8  -1
    S_T163U9  COST  143.294  SU_T163U9  -1
    S_T163U10  COST  165.231  SU_T163U10  -1
    S_T163U11  COST  118.619  SU_T163U11  -1
    S_T163U12  COST  174.774  SU_T163U12  -1
    S_T163U13  COST  102.374  SU_T163U13  -1
    S_T163U14  COST  146.364  SU_T163U14  -1
    S_T163U15  COST  176.212  SU_T163U15  -1
    S_T163U16  COST  101.226  SU_T163U16  -1
    S_T163U17  COST  136.281  SU_T163U17  -1
    S_T163U18  COST  87.1259  SU_T163U18  -1
    S_T163U19  COST  60.4838  SU_T163U19  -1
    S_T163U20  COST  190.889  SU_T163U20  -1
    S_T163U21  COST  158.866  SU_T163U21  -1
    S_T163U22  COST  159.846  SU_T163U22  -1
    S_T163U23  COST  173.074  SU_T163U23  -1
    S_T163U24  COST  163.315  SU_T163U24  -1
    S_T163U25  COST  121.526  SU_T163U25  -1
    S_T163U26  COST  90.7039  SU_T163U26  -1
    S_T163U27  COST  152.197  SU_T163U27  -1
    S_T163U28  COST  127.161  SU_T163U28  -1
    S_T163U29  COST  55.232  SU_T163U29  -1
    S_T163U30  COST  65.9839  SU_T163U30  -1
    S_T164U1  COST  56.1875  SU_T164U1  -1
    S_T164U2  COST  57.8368  SU_T164U2  -1
    S_T164U3  COST  148.83  SU_T164U3  -1
    S_T164U4  COST  54.9578  SU_T164U4  -1
    S_T164U5  COST  61.8227  SU_T164U5  -1
    S_T164U6  COST  137.686  SU_T164U6  -1
    S_T164U7  COST  123.215  SU_T164U7  -1
    S_T164U8  COST  180.343  SU_T164U8  -1
    S_T164U9  COST  99.1161  SU_T164U9  -1
    S_T164U10  COST  85.5389  SU_T164U10  -1
    S_T164U11  COST  195.723  SU_T164U11  -1
    S_T164U12  COST  95.803  SU_T164U12  -1
    S_T164U13  COST  95.722  SU_T164U13  -1
    S_T164U14  COST  139.063  SU_T164U14  -1
    S_T164U15  COST  88.9328  SU_T164U15  -1
    S_T164U16  COST  54.8094  SU_T164U16  -1
    S_T164U17  COST  94.0094  SU_T164U17  -1
    S_T164U18  COST  164.733  SU_T164U18  -1
    S_T164U19  COST  125.257  SU_T164U19  -1
    S_T164U20  COST  147.297  SU_T164U20  -1
    S_T164U21  COST  179.429  SU_T164U21  -1
    S_T164U22  COST  199.168  SU_T164U22  -1
    S_T164U23  COST  182.325  SU_T164U23  -1
    S_T164U24  COST  109.701  SU_T164U24  -1
    S_T164U25  COST  51.8187  SU_T164U25  -1
    S_T164U26  COST  157.821  SU_T164U26  -1
    S_T164U27  COST  187.463  SU_T164U27  -1
    S_T164U28  COST  73.2915  SU_T164U28  -1
    S_T164U29  COST  103.776  SU_T164U29  -1
    S_T164U30  COST  199.468  SU_T164U30  -1
    S_T165U1  COST  111.311  SU_T165U1  -1
    S_T165U2  COST  152.091  SU_T165U2  -1
    S_T165U3  COST  172.281  SU_T165U3  -1
    S_T165U4  COST  143.446  SU_T165U4  -1
    S_T165U5  COST  56.5184  SU_T165U5  -1
    S_T165U6  COST  129.135  SU_T165U6  -1
    S_T165U7  COST  175.775  SU_T165U7  -1
    S_T165U8  COST  180.403  SU_T165U8  -1
    S_T165U9  COST  100.396  SU_T165U9  -1
    S_T165U10  COST  110.048  SU_T165U10  -1
    S_T165U11  COST  133.936  SU_T165U11  -1
    S_T165U12  COST  196.749  SU_T165U12  -1
    S_T165U13  COST  146.562  SU_T165U13  -1
    S_T165U14  COST  55.1756  SU_T165U14  -1
    S_T165U15  COST  165.267  SU_T165U15  -1
    S_T165U16  COST  156.828  SU_T165U16  -1
    S_T165U17  COST  75.7785  SU_T165U17  -1
    S_T165U18  COST  124.446  SU_T165U18  -1
    S_T165U19  COST  166.785  SU_T165U19  -1
    S_T165U20  COST  136.186  SU_T165U20  -1
    S_T165U21  COST  134.4  SU_T165U21  -1
    S_T165U22  COST  82.5836  SU_T165U22  -1
    S_T165U23  COST  105.492  SU_T165U23  -1
    S_T165U24  COST  77.0581  SU_T165U24  -1
    S_T165U25  COST  82.3204  SU_T165U25  -1
    S_T165U26  COST  198.58  SU_T165U26  -1
    S_T165U27  COST  162.242  SU_T165U27  -1
    S_T165U28  COST  195.338  SU_T165U28  -1
    S_T165U29  COST  83.0366  SU_T165U29  -1
    S_T165U30  COST  161.41  SU_T165U30  -1
    S_T166U1  COST  121.035  SU_T166U1  -1
    S_T166U2  COST  189.491  SU_T166U2  -1
    S_T166U3  COST  194.523  SU_T166U3  -1
    S_T166U4  COST  144.578  SU_T166U4  -1
    S_T166U5  COST  105.513  SU_T166U5  -1
    S_T166U6  COST  69.1435  SU_T166U6  -1
    S_T166U7  COST  120.731  SU_T166U7  -1
    S_T166U8  COST  89.5941  SU_T166U8  -1
    S_T166U9  COST  105.07  SU_T166U9  -1
    S_T166U10  COST  95.6954  SU_T166U10  -1
    S_T166U11  COST  53.0716  SU_T166U11  -1
    S_T166U12  COST  145.541  SU_T166U12  -1
    S_T166U13  COST  136.841  SU_T166U13  -1
    S_T166U14  COST  153.033  SU_T166U14  -1
    S_T166U15  COST  96.7009  SU_T166U15  -1
    S_T166U16  COST  197.237  SU_T166U16  -1
    S_T166U17  COST  192.9  SU_T166U17  -1
    S_T166U18  COST  168.039  SU_T166U18  -1
    S_T166U19  COST  62.4103  SU_T166U19  -1
    S_T166U20  COST  151.565  SU_T166U20  -1
    S_T166U21  COST  61.9608  SU_T166U21  -1
    S_T166U22  COST  61.8353  SU_T166U22  -1
    S_T166U23  COST  114.111  SU_T166U23  -1
    S_T166U24  COST  187.05  SU_T166U24  -1
    S_T166U25  COST  135.373  SU_T166U25  -1
    S_T166U26  COST  129.539  SU_T166U26  -1
    S_T166U27  COST  169.573  SU_T166U27  -1
    S_T166U28  COST  97.7704  SU_T166U28  -1
    S_T166U29  COST  170.241  SU_T166U29  -1
    S_T166U30  COST  196.651  SU_T166U30  -1
    S_T167U1  COST  165.49  SU_T167U1  -1
    S_T167U2  COST  50.0278  SU_T167U2  -1
    S_T167U3  COST  160.64  SU_T167U3  -1
    S_T167U4  COST  76.6358  SU_T167U4  -1
    S_T167U5  COST  100.519  SU_T167U5  -1
    S_T167U6  COST  174.74  SU_T167U6  -1
    S_T167U7  COST  162.514  SU_T167U7  -1
    S_T167U8  COST  120.514  SU_T167U8  -1
    S_T167U9  COST  108.906  SU_T167U9  -1
    S_T167U10  COST  68.6355  SU_T167U10  -1
    S_T167U11  COST  149.77  SU_T167U11  -1
    S_T167U12  COST  192.975  SU_T167U12  -1
    S_T167U13  COST  82.9999  SU_T167U13  -1
    S_T167U14  COST  151.311  SU_T167U14  -1
    S_T167U15  COST  61.9462  SU_T167U15  -1
    S_T167U16  COST  192.181  SU_T167U16  -1
    S_T167U17  COST  185.916  SU_T167U17  -1
    S_T167U18  COST  72.1119  SU_T167U18  -1
    S_T167U19  COST  115.32  SU_T167U19  -1
    S_T167U20  COST  153.041  SU_T167U20  -1
    S_T167U21  COST  76.9844  SU_T167U21  -1
    S_T167U22  COST  162.672  SU_T167U22  -1
    S_T167U23  COST  97.561  SU_T167U23  -1
    S_T167U24  COST  105.278  SU_T167U24  -1
    S_T167U25  COST  164.445  SU_T167U25  -1
    S_T167U26  COST  139.687  SU_T167U26  -1
    S_T167U27  COST  54.8248  SU_T167U27  -1
    S_T167U28  COST  112.525  SU_T167U28  -1
    S_T167U29  COST  114.398  SU_T167U29  -1
    S_T167U30  COST  140.616  SU_T167U30  -1
    S_T168U1  COST  190.452  SU_T168U1  -1
    S_T168U2  COST  51.8094  SU_T168U2  -1
    S_T168U3  COST  155.351  SU_T168U3  -1
    S_T168U4  COST  136.907  SU_T168U4  -1
    S_T168U5  COST  90.5373  SU_T168U5  -1
    S_T168U6  COST  196.335  SU_T168U6  -1
    S_T168U7  COST  190.422  SU_T168U7  -1
    S_T168U8  COST  81.2165  SU_T168U8  -1
    S_T168U9  COST  165.499  SU_T168U9  -1
    S_T168U10  COST  127.884  SU_T168U10  -1
    S_T168U11  COST  51.7358  SU_T168U11  -1
    S_T168U12  COST  143.474  SU_T168U12  -1
    S_T168U13  COST  67.4904  SU_T168U13  -1
    S_T168U14  COST  53.8171  SU_T168U14  -1
    S_T168U15  COST  183.911  SU_T168U15  -1
    S_T168U16  COST  154.932  SU_T168U16  -1
    S_T168U17  COST  126.805  SU_T168U17  -1
    S_T168U18  COST  101.153  SU_T168U18  -1
    S_T168U19  COST  173.18  SU_T168U19  -1
    S_T168U20  COST  130.538  SU_T168U20  -1
    S_T168U21  COST  68.2197  SU_T168U21  -1
    S_T168U22  COST  155.419  SU_T168U22  -1
    S_T168U23  COST  86.491  SU_T168U23  -1
    S_T168U24  COST  161.436  SU_T168U24  -1
    S_T168U25  COST  172.76  SU_T168U25  -1
    S_T168U26  COST  78.8259  SU_T168U26  -1
    S_T168U27  COST  100.55  SU_T168U27  -1
    S_T168U28  COST  128.47  SU_T168U28  -1
    S_T168U29  COST  136.743  SU_T168U29  -1
    S_T168U30  COST  186.324  SU_T168U30  -1
    MARK0001  'MARKER'                 'INTEND'
RHS
    RHS       DEM_T1  1.42345
    RHS       DEM_T2  7.96027
    RHS       DEM_T3  15.3798
    RHS       DEM_T4  16.3386
    RHS       DEM_T5  9.32237
    RHS       DEM_T6  1.3382
    RHS       DEM_T7  13.3609
    RHS       DEM_T8  2.26189
    RHS       DEM_T9  3.15712
    RHS       DEM_T10  14.005
    RHS       DEM_T11  7.24977
    RHS       DEM_T12  7.9606
    RHS       DEM_T13  10.7361
    RHS       DEM_T14  20.5716
    RHS       DEM_T15  20.3088
    RHS       DEM_T16  9.32522
    RHS       DEM_T17  6.30998
    RHS       DEM_T18  7.05184
    RHS       DEM_T19  6.37563
    RHS       DEM_T20  11.6449
    RHS       DEM_T21  13.1372
    RHS       DEM_T22  10.7756
    RHS       DEM_T23  9.15989
    RHS       DEM_T24  5.2257
    RHS       DEM_T25  10.6501
    RHS       DEM_T26  7.82205
    RHS       DEM_T27  11.8319
    RHS       DEM_T28  14.5038
    RHS       DEM_T29  13.6662
    RHS       DEM_T30  10.2498
    RHS       DEM_T31  12.121
    RHS       DEM_T32  6.69712
    RHS       DEM_T33  1.48481
    RHS       DEM_T34  13.5004
    RHS       DEM_T35  6.05137
    RHS       DEM_T36  14.3791
    RHS       DEM_T37  15.9402
    RHS       DEM_T38  19.3186
    RHS       DEM_T39  20.1625
    RHS       DEM_T40  1.21052
    RHS       DEM_T41  20.8075
    RHS       DEM_T42  14.6604
    RHS       DEM_T43  13.8705
    RHS       DEM_T44  1.30426
    RHS       DEM_T45  18.2247
    RHS       DEM_T46  3.90983
    RHS       DEM_T47  17.7466
    RHS       DEM_T48  1.31125
    RHS       DEM_T49  13.9193
    RHS       DEM_T50  9.69603
    RHS       DEM_T51  5.01533
    RHS       DEM_T52  3.15123
    RHS       DEM_T53  9.80255
    RHS       DEM_T54  3.46612
    RHS       DEM_T55  10.7289
    RHS       DEM_T56  13.5043
    RHS       DEM_T57  17.5477
    RHS       DEM_T58  14.573
    RHS       DEM_T59  2.304
    RHS       DEM_T60  7.14865
    RHS       DEM_T61  6.75957
    RHS       DEM_T62  19.3006
    RHS       DEM_T63  18.3556
    RHS       DEM_T64  8.40296
    RHS       DEM_T65  2.42311
    RHS       DEM_T66  18.8821
    RHS       DEM_T67  18.7638
    RHS       DEM_T68  18.0949
    RHS       DEM_T69  17.9016
    RHS       DEM_T70  10.6051
    RHS       DEM_T71  4.54863
    RHS       DEM_T72  10.5498
    RHS       DEM_T73  10.892
    RHS       DEM_T74  10.7986
    RHS       DEM_T75  11.7755
    RHS       DEM_T76  6.15314
    RHS       DEM_T77  8.32482
    RHS       DEM_T78  9.68373
    RHS       DEM_T79  3.62242
    RHS       DEM_T80  10.1073
    RHS       DEM_T81  17.2094
    RHS       DEM_T82  17.5612
    RHS       DEM_T83  9.23128
    RHS       DEM_T84  11.3762
    RHS       DEM_T85  1.67301
    RHS       DEM_T86  14.4887
    RHS       DEM_T87  9.09212
    RHS       DEM_T88  9.90955
    RHS       DEM_T89  18.4735
    RHS       DEM_T90  10.2367
    RHS       DEM_T91  1.42385
    RHS       DEM_T92  5.54982
    RHS       DEM_T93  10.5124
    RHS       DEM_T94  9.48793
    RHS       DEM_T95  18.2074
    RHS       DEM_T96  11.8428
    RHS       DEM_T97  14.7927
    RHS       DEM_T98  10.3865
    RHS       DEM_T99  9.79311
    RHS       DEM_T100  9.92573
    RHS       DEM_T101  9.21843
    RHS       DEM_T102  11.7717
    RHS       DEM_T103  6.00887
    RHS       DEM_T104  18.8211
    RHS       DEM_T105  7.66171
    RHS       DEM_T106  3.95048
    RHS       DEM_T107  2.93101
    RHS       DEM_T108  1.26846
    RHS       DEM_T109  9.45712
    RHS       DEM_T110  4.75222
    RHS       DEM_T111  1.43296
    RHS       DEM_T112  11.4004
    RHS       DEM_T113  14.5996
    RHS       DEM_T114  2.71502
    RHS       DEM_T115  10.2184
    RHS       DEM_T116  15.8726
    RHS       DEM_T117  20.7161
    RHS       DEM_T118  14.3438
    RHS       DEM_T119  5.89679
    RHS       DEM_T120  15.3311
    RHS       DEM_T121  12.9586
    RHS       DEM_T122  5.23599
    RHS       DEM_T123  18.0222
    RHS       DEM_T124  9.54809
    RHS       DEM_T125  20.2396
    RHS       DEM_T126  15.458
    RHS       DEM_T127  13.8913
    RHS       DEM_T128  15.5671
    RHS       DEM_T129  10.5619
    RHS       DEM_T130  11.1045
    RHS       DEM_T131  18.0241
    RHS       DEM_T132  14.6186
    RHS       DEM_T133  18.9449
    RHS       DEM_T134  18.8165
    RHS       DEM_T135  20.5298
    RHS       DEM_T136  15.0043
    RHS       DEM_T137  11.046
    RHS       DEM_T138  4.32623
    RHS       DEM_T139  15.1076
    RHS       DEM_T140  6.83155
    RHS       DEM_T141  6.65895
    RHS       DEM_T142  5.76576
    RHS       DEM_T143  18.5024
    RHS       DEM_T144  18.3593
    RHS       DEM_T145  13.6194
    RHS       DEM_T146  10.4596
    RHS       DEM_T147  14.4423
    RHS       DEM_T148  13.1446
    RHS       DEM_T149  9.31468
    RHS       DEM_T150  8.59262
    RHS       DEM_T151  8.65589
    RHS       DEM_T152  12.7827
    RHS       DEM_T153  13.9534
    RHS       DEM_T154  10.0348
    RHS       DEM_T155  20.3738
    RHS       DEM_T156  2.67691
    RHS       DEM_T157  7.94094
    RHS       DEM_T158  9.38149
    RHS       DEM_T159  1.33843
    RHS       DEM_T160  8.29914
    RHS       DEM_T161  6.4742
    RHS       DEM_T162  11.1207
    RHS       DEM_T163  7.72821
    RHS       DEM_T164  15.5236
    RHS       DEM_T165  11.1986
    RHS       DEM_T166  3.59524
    RHS       DEM_T167  16.0012
    RHS       DEM_T168  2.98458
BOUNDS
 UP BND       X_T1U1  1
 UP BND       X_T1U2  1
 UP BND       X_T1U3  1
 UP BND       X_T1U4  1
 UP BND       X_T1U5  1
 UP BND       X_T1U6  1
 UP BND       X_T1U7  1
 UP BND       X_T1U8  1
 UP BND       X_T1U9  1
 UP BND       X_T1U10  1
 UP BND       X_T1U11  1
 UP BND       X_T1U12  1
 UP BND       X_T1U13  1
 UP BND       X_T1U14  1
 UP BND       X_T1U15  1
 UP BND       X_T1U16  1
 UP BND       X_T1U17  1
 UP BND       X_T1U18  1
 UP BND       X_T1U19  1
 UP BND       X_T1U20  1
 UP BND       X_T1U21  1
 UP BND       X_T1U22  1
 UP BND       X_T1U23  1
 UP BND       X_T1U24  1
 UP BND       X_T1U25  1
 UP BND       X_T1U26  1
 UP BND       X_T1U27  1
 UP BND       X_T1U28  1
 UP BND       X_T1U29  1
 UP BND       X_T1U30  1
 UP BND       X_T2U1  1
 UP BND       X_T2U2  1
 UP BND       X_T2U3  1
 UP BND       X_T2U4  1
 UP BND       X_T2U5  1
 UP BND       X_T2U6  1
 UP BND       X_T2U7  1
 UP BND       X_T2U8  1
 UP BND       X_T2U9  1
 UP BND       X_T2U10  1
 UP BND       X_T2U11  1
 UP BND       X_T2U12  1
 UP BND       X_T2U13  1
 UP BND       X_T2U14  1
 UP BND       X_T2U15  1
 UP BND       X_T2U16  1
 UP BND       X_T2U17  1
 UP BND       X_T2U18  1
 UP BND       X_T2U19  1
 UP BND       X_T2U20  1
 UP BND       X_T2U21  1
 UP BND       X_T2U22  1
 UP BND       X_T2U23  1
 UP BND       X_T2U24  1
 UP BND       X_T2U25  1
 UP BND       X_T2U26  1
 UP BND       X_T2U27  1
 UP BND       X_T2U28  1
 UP BND       X_T2U29  1
 UP BND       X_T2U30  1
 UP BND       X_T3U1  1
 UP BND       X_T3U2  1
 UP BND       X_T3U3  1
 UP BND       X_T3U4  1
 UP BND       X_T3U5  1
 UP BND       X_T3U6  1
 UP BND       X_T3U7  1
 UP BND       X_T3U8  1
 UP BND       X_T3U9  1
 UP BND       X_T3U10  1
 UP BND       X_T3U11  1
 UP BND       X_T3U12  1
 UP BND       X_T3U13  1
 UP BND       X_T3U14  1
 UP BND       X_T3U15  1
 UP BND       X_T3U16  1
 UP BND       X_T3U17  1
 UP BND       X_T3U18  1
 UP BND       X_T3U19  1
 UP BND       X_T3U20  1
 UP BND       X_T3U21  1
 UP BND       X_T3U22  1
 UP BND       X_T3U23  1
 UP BND       X_T3U24  1
 UP BND       X_T3U25  1
 UP BND       X_T3U26  1
 UP BND       X_T3U27  1
 UP BND       X_T3U28  1
 UP BND       X_T3U29  1
 UP BND       X_T3U30  1
 UP BND       X_T4U1  1
 UP BND       X_T4U2  1
 UP BND       X_T4U3  1
 UP BND       X_T4U4  1
 UP BND       X_T4U5  1
 UP BND       X_T4U6  1
 UP BND       X_T4U7  1
 UP BND       X_T4U8  1
 UP BND       X_T4U9  1
 UP BND       X_T4U10  1
 UP BND       X_T4U11  1
 UP BND       X_T4U12  1
 UP BND       X_T4U13  1
 UP BND       X_T4U14  1
 UP BND       X_T4U15  1
 UP BND       X_T4U16  1
 UP BND       X_T4U17  1
 UP BND       X_T4U18  1
 UP BND       X_T4U19  1
 UP BND       X_T4U20  1
 UP BND       X_T4U21  1
 UP BND       X_T4U22  1
 UP BND       X_T4U23  1
 UP BND       X_T4U24  1
 UP BND       X_T4U25  1
 UP BND       X_T4U26  1
 UP BND       X_T4U27  1
 UP BND       X_T4U28  1
 UP BND       X_T4U29  1
 UP BND       X_T4U30  1
 UP BND       X_T5U1  1
 UP BND       X_T5U2  1
 UP BND       X_T5U3  1
 UP BND       X_T5U4  1
 UP BND       X_T5U5  1
 UP BND       X_T5U6  1
 UP BND       X_T5U7  1
 UP BND       X_T5U8  1
 UP BND       X_T5U9  1
 UP BND       X_T5U10  1
 UP BND       X_T5U11  1
 UP BND       X_T5U12  1
 UP BND       X_T5U13  1
 UP BND       X_T5U14  1
 UP BND       X_T5U15  1
 UP BND       X_T5U16  1
 UP BND       X_T5U17  1
 UP BND       X_T5U18  1
 UP BND       X_T5U19  1
 UP BND       X_T5U20  1
 UP BND       X_T5U21  1
 UP BND       X_T5U22  1
 UP BND       X_T5U23  1
 UP BND       X_T5U24  1
 UP BND       X_T5U25  1
 UP BND       X_T5U26  1
 UP BND       X_T5U27  1
 UP BND       X_T5U28  1
 UP BND       X_T5U29  1
 UP BND       X_T5U30  1
 UP BND       X_T6U1  1
 UP BND       X_T6U2  1
 UP BND       X_T6U3  1
 UP BND       X_T6U4  1
 UP BND       X_T6U5  1
 UP BND       X_T6U6  1
 UP BND       X_T6U7  1
 UP BND       X_T6U8  1
 UP BND       X_T6U9  1
 UP BND       X_T6U10  1
 UP BND       X_T6U11  1
 UP BND       X_T6U12  1
 UP BND       X_T6U13  1
 UP BND       X_T6U14  1
 UP BND       X_T6U15  1
 UP BND       X_T6U16  1
 UP BND       X_T6U17  1
 UP BND       X_T6U18  1
 UP BND       X_T6U19  1
 UP BND       X_T6U20  1
 UP BND       X_T6U21  1
 UP BND       X_T6U22  1
 UP BND       X_T6U23  1
 UP BND       X_T6U24  1
 UP BND       X_T6U25  1
 UP BND       X_T6U26  1
 UP BND       X_T6U27  1
 UP BND       X_T6U28  1
 UP BND       X_T6U29  1
 UP BND       X_T6U30  1
 UP BND       X_T7U1  1
 UP BND       X_T7U2  1
 UP BND       X_T7U3  1
 UP BND       X_T7U4  1
 UP BND       X_T7U5  1
 UP BND       X_T7U6  1
 UP BND       X_T7U7  1
 UP BND       X_T7U8  1
 UP BND       X_T7U9  1
 UP BND       X_T7U10  1
 UP BND       X_T7U11  1
 UP BND       X_T7U12  1
 UP BND       X_T7U13  1
 UP BND       X_T7U14  1
 UP BND       X_T7U15  1
 UP BND       X_T7U16  1
 UP BND       X_T7U17  1
 UP BND       X_T7U18  1
 UP BND       X_T7U19  1
 UP BND       X_T7U20  1
 UP BND       X_T7U21  1
 UP BND       X_T7U22  1
 UP BND       X_T7U23  1
 UP BND       X_T7U24  1
 UP BND       X_T7U25  1
 UP BND       X_T7U26  1
 UP BND       X_T7U27  1
 UP BND       X_T7U28  1
 UP BND       X_T7U29  1
 UP BND       X_T7U30  1
 UP BND       X_T8U1  1
 UP BND       X_T8U2  1
 UP BND       X_T8U3  1
 UP BND       X_T8U4  1
 UP BND       X_T8U5  1
 UP BND       X_T8U6  1
 UP BND       X_T8U7  1
 UP BND       X_T8U8  1
 UP BND       X_T8U9  1
 UP BND       X_T8U10  1
 UP BND       X_T8U11  1
 UP BND       X_T8U12  1
 UP BND       X_T8U13  1
 UP BND       X_T8U14  1
 UP BND       X_T8U15  1
 UP BND       X_T8U16  1
 UP BND       X_T8U17  1
 UP BND       X_T8U18  1
 UP BND       X_T8U19  1
 UP BND       X_T8U20  1
 UP BND       X_T8U21  1
 UP BND       X_T8U22  1
 UP BND       X_T8U23  1
 UP BND       X_T8U24  1
 UP BND       X_T8U25  1
 UP BND       X_T8U26  1
 UP BND       X_T8U27  1
 UP BND       X_T8U28  1
 UP BND       X_T8U29  1
 UP BND       X_T8U30  1
 UP BND       X_T9U1  1
 UP BND       X_T9U2  1
 UP BND       X_T9U3  1
 UP BND       X_T9U4  1
 UP BND       X_T9U5  1
 UP BND       X_T9U6  1
 UP BND       X_T9U7  1
 UP BND       X_T9U8  1
 UP BND       X_T9U9  1
 UP BND       X_T9U10  1
 UP BND       X_T9U11  1
 UP BND       X_T9U12  1
 UP BND       X_T9U13  1
 UP BND       X_T9U14  1
 UP BND       X_T9U15  1
 UP BND       X_T9U16  1
 UP BND       X_T9U17  1
 UP BND       X_T9U18  1
 UP BND       X_T9U19  1
 UP BND       X_T9U20  1
 UP BND       X_T9U21  1
 UP BND       X_T9U22  1
 UP BND       X_T9U23  1
 UP BND       X_T9U24  1
 UP BND       X_T9U25  1
 UP BND       X_T9U26  1
 UP BND       X_T9U27  1
 UP BND       X_T9U28  1
 UP BND       X_T9U29  1
 UP BND       X_T9U30  1
 UP BND       X_T10U1  1
 UP BND       X_T10U2  1
 UP BND       X_T10U3  1
 UP BND       X_T10U4  1
 UP BND       X_T10U5  1
 UP BND       X_T10U6  1
 UP BND       X_T10U7  1
 UP BND       X_T10U8  1
 UP BND       X_T10U9  1
 UP BND       X_T10U10  1
 UP BND       X_T10U11  1
 UP BND       X_T10U12  1
 UP BND       X_T10U13  1
 UP BND       X_T10U14  1
 UP BND       X_T10U15  1
 UP BND       X_T10U16  1
 UP BND       X_T10U17  1
 UP BND       X_T10U18  1
 UP BND       X_T10U19  1
 UP BND       X_T10U20  1
 UP BND       X_T10U21  1
 UP BND       X_T10U22  1
 UP BND       X_T10U23  1
 UP BND       X_T10U24  1
 UP BND       X_T10U25  1
 UP BND       X_T10U26  1
 UP BND       X_T10U27  1
 UP BND       X_T10U28  1
 UP BND       X_T10U29  1
 UP BND       X_T10U30  1
 UP BND       X_T11U1  1
 UP BND       X_T11U2  1
 UP BND       X_T11U3  1
 UP BND       X_T11U4  1
 UP BND       X_T11U5  1
 UP BND       X_T11U6  1
 UP BND       X_T11U7  1
 UP BND       X_T11U8  1
 UP BND       X_T11U9  1
 UP BND       X_T11U10  1
 UP BND       X_T11U11  1
 UP BND       X_T11U12  1
 UP BND       X_T11U13  1
 UP BND       X_T11U14  1
 UP BND       X_T11U15  1
 UP BND       X_T11U16  1
 UP BND       X_T11U17  1
 UP BND       X_T11U18  1
 UP BND       X_T11U19  1
 UP BND       X_T11U20  1
 UP BND       X_T11U21  1
 UP BND       X_T11U22  1
 UP BND       X_T11U23  1
 UP BND       X_T11U24  1
 UP BND       X_T11U25  1
 UP BND       X_T11U26  1
 UP BND       X_T11U27  1
 UP BND       X_T11U28  1
 UP BND       X_T11U29  1
 UP BND       X_T11U30  1
 UP BND       X_T12U1  1
 UP BND       X_T12U2  1
 UP BND       X_T12U3  1
 UP BND       X_T12U4  1
 UP BND       X_T12U5  1
 UP BND       X_T12U6  1
 UP BND       X_T12U7  1
 UP BND       X_T12U8  1
 UP BND       X_T12U9  1
 UP BND       X_T12U10  1
 UP BND       X_T12U11  1
 UP BND       X_T12U12  1
 UP BND       X_T12U13  1
 UP BND       X_T12U14  1
 UP BND       X_T12U15  1
 UP BND       X_T12U16  1
 UP BND       X_T12U17  1
 UP BND       X_T12U18  1
 UP BND       X_T12U19  1
 UP BND       X_T12U20  1
 UP BND       X_T12U21  1
 UP BND       X_T12U22  1
 UP BND       X_T12U23  1
 UP BND       X_T12U24  1
 UP BND       X_T12U25  1
 UP BND       X_T12U26  1
 UP BND       X_T12U27  1
 UP BND       X_T12U28  1
 UP BND       X_T12U29  1
 UP BND       X_T12U30  1
 UP BND       X_T13U1  1
 UP BND       X_T13U2  1
 UP BND       X_T13U3  1
 UP BND       X_T13U4  1
 UP BND       X_T13U5  1
 UP BND       X_T13U6  1
 UP BND       X_T13U7  1
 UP BND       X_T13U8  1
 UP BND       X_T13U9  1
 UP BND       X_T13U10  1
 UP BND       X_T13U11  1
 UP BND       X_T13U12  1
 UP BND       X_T13U13  1
 UP BND       X_T13U14  1
 UP BND       X_T13U15  1
 UP BND       X_T13U16  1
 UP BND       X_T13U17  1
 UP BND       X_T13U18  1
 UP BND       X_T13U19  1
 UP BND       X_T13U20  1
 UP BND       X_T13U21  1
 UP BND       X_T13U22  1
 UP BND       X_T13U23  1
 UP BND       X_T13U24  1
 UP BND       X_T13U25  1
 UP BND       X_T13U26  1
 UP BND       X_T13U27  1
 UP BND       X_T13U28  1
 UP BND       X_T13U29  1
 UP BND       X_T13U30  1
 UP BND       X_T14U1  1
 UP BND       X_T14U2  1
 UP BND       X_T14U3  1
 UP BND       X_T14U4  1
 UP BND       X_T14U5  1
 UP BND       X_T14U6  1
 UP BND       X_T14U7  1
 UP BND       X_T14U8  1
 UP BND       X_T14U9  1
 UP BND       X_T14U10  1
 UP BND       X_T14U11  1
 UP BND       X_T14U12  1
 UP BND       X_T14U13  1
 UP BND       X_T14U14  1
 UP BND       X_T14U15  1
 UP BND       X_T14U16  1
 UP BND       X_T14U17  1
 UP BND       X_T14U18  1
 UP BND       X_T14U19  1
 UP BND       X_T14U20  1
 UP BND       X_T14U21  1
 UP BND       X_T14U22  1
 UP BND       X_T14U23  1
 UP BND       X_T14U24  1
 UP BND       X_T14U25  1
 UP BND       X_T14U26  1
 UP BND       X_T14U27  1
 UP BND       X_T14U28  1
 UP BND       X_T14U29  1
 UP BND       X_T14U30  1
 UP BND       X_T15U1  1
 UP BND       X_T15U2  1
 UP BND       X_T15U3  1
 UP BND       X_T15U4  1
 UP BND       X_T15U5  1
 UP BND       X_T15U6  1
 UP BND       X_T15U7  1
 UP BND       X_T15U8  1
 UP BND       X_T15U9  1
 UP BND       X_T15U10  1
 UP BND       X_T15U11  1
 UP BND       X_T15U12  1
 UP BND       X_T15U13  1
 UP BND       X_T15U14  1
 UP BND       X_T15U15  1
 UP BND       X_T15U16  1
 UP BND       X_T15U17  1
 UP BND       X_T15U18  1
 UP BND       X_T15U19  1
 UP BND       X_T15U20  1
 UP BND       X_T15U21  1
 UP BND       X_T15U22  1
 UP BND       X_T15U23  1
 UP BND       X_T15U24  1
 UP BND       X_T15U25  1
 UP BND       X_T15U26  1
 UP BND       X_T15U27  1
 UP BND       X_T15U28  1
 UP BND       X_T15U29  1
 UP BND       X_T15U30  1
 UP BND       X_T16U1  1
 UP BND       X_T16U2  1
 UP BND       X_T16U3  1
 UP BND       X_T16U4  1
 UP BND       X_T16U5  1
 UP BND       X_T16U6  1
 UP BND       X_T16U7  1
 UP BND       X_T16U8  1
 UP BND       X_T16U9  1
 UP BND       X_T16U10  1
 UP BND       X_T16U11  1
 UP BND       X_T16U12  1
 UP BND       X_T16U13  1
 UP BND       X_T16U14  1
 UP BND       X_T16U15  1
 UP BND       X_T16U16  1
 UP BND       X_T16U17  1
 UP BND       X_T16U18  1
 UP BND       X_T16U19  1
 UP BND       X_T16U20  1
 UP BND       X_T16U21  1
 UP BND       X_T16U22  1
 UP BND       X_T16U23  1
 UP BND       X_T16U24  1
 UP BND       X_T16U25  1
 UP BND       X_T16U26  1
 UP BND       X_T16U27  1
 UP BND       X_T16U28  1
 UP BND       X_T16U29  1
 UP BND       X_T16U30  1
 UP BND       X_T17U1  1
 UP BND       X_T17U2  1
 UP BND       X_T17U3  1
 UP BND       X_T17U4  1
 UP BND       X_T17U5  1
 UP BND       X_T17U6  1
 UP BND       X_T17U7  1
 UP BND       X_T17U8  1
 UP BND       X_T17U9  1
 UP BND       X_T17U10  1
 UP BND       X_T17U11  1
 UP BND       X_T17U12  1
 UP BND       X_T17U13  1
 UP BND       X_T17U14  1
 UP BND       X_T17U15  1
 UP BND       X_T17U16  1
 UP BND       X_T17U17  1
 UP BND       X_T17U18  1
 UP BND       X_T17U19  1
 UP BND       X_T17U20  1
 UP BND       X_T17U21  1
 UP BND       X_T17U22  1
 UP BND       X_T17U23  1
 UP BND       X_T17U24  1
 UP BND       X_T17U25  1
 UP BND       X_T17U26  1
 UP BND       X_T17U27  1
 UP BND       X_T17U28  1
 UP BND       X_T17U29  1
 UP BND       X_T17U30  1
 UP BND       X_T18U1  1
 UP BND       X_T18U2  1
 UP BND       X_T18U3  1
 UP BND       X_T18U4  1
 UP BND       X_T18U5  1
 UP BND       X_T18U6  1
 UP BND       X_T18U7  1
 UP BND       X_T18U8  1
 UP BND       X_T18U9  1
 UP BND       X_T18U10  1
 UP BND       X_T18U11  1
 UP BND       X_T18U12  1
 UP BND       X_T18U13  1
 UP BND       X_T18U14  1
 UP BND       X_T18U15  1
 UP BND       X_T18U16  1
 UP BND       X_T18U17  1
 UP BND       X_T18U18  1
 UP BND       X_T18U19  1
 UP BND       X_T18U20  1
 UP BND       X_T18U21  1
 UP BND       X_T18U22  1
 UP BND       X_T18U23  1
 UP BND       X_T18U24  1
 UP BND       X_T18U25  1
 UP BND       X_T18U26  1
 UP BND       X_T18U27  1
 UP BND       X_T18U28  1
 UP BND       X_T18U29  1
 UP BND       X_T18U30  1
 UP BND       X_T19U1  1
 UP BND       X_T19U2  1
 UP BND       X_T19U3  1
 UP BND       X_T19U4  1
 UP BND       X_T19U5  1
 UP BND       X_T19U6  1
 UP BND       X_T19U7  1
 UP BND       X_T19U8  1
 UP BND       X_T19U9  1
 UP BND       X_T19U10  1
 UP BND       X_T19U11  1
 UP BND       X_T19U12  1
 UP BND       X_T19U13  1
 UP BND       X_T19U14  1
 UP BND       X_T19U15  1
 UP BND       X_T19U16  1
 UP BND       X_T19U17  1
 UP BND       X_T19U18  1
 UP BND       X_T19U19  1
 UP BND       X_T19U20  1
 UP BND       X_T19U21  1
 UP BND       X_T19U22  1
 UP BND       X_T19U23  1
 UP BND       X_T19U24  1
 UP BND       X_T19U25  1
 UP BND       X_T19U26  1
 UP BND       X_T19U27  1
 UP BND       X_T19U28  1
 UP BND       X_T19U29  1
 UP BND       X_T19U30  1
 UP BND       X_T20U1  1
 UP BND       X_T20U2  1
 UP BND       X_T20U3  1
 UP BND       X_T20U4  1
 UP BND       X_T20U5  1
 UP BND       X_T20U6  1
 UP BND       X_T20U7  1
 UP BND       X_T20U8  1
 UP BND       X_T20U9  1
 UP BND       X_T20U10  1
 UP BND       X_T20U11  1
 UP BND       X_T20U12  1
 UP BND       X_T20U13  1
 UP BND       X_T20U14  1
 UP BND       X_T20U15  1
 UP BND       X_T20U16  1
 UP BND       X_T20U17  1
 UP BND       X_T20U18  1
 UP BND       X_T20U19  1
 UP BND       X_T20U20  1
 UP BND       X_T20U21  1
 UP BND       X_T20U22  1
 UP BND       X_T20U23  1
 UP BND       X_T20U24  1
 UP BND       X_T20U25  1
 UP BND       X_T20U26  1
 UP BND       X_T20U27  1
 UP BND       X_T20U28  1
 UP BND       X_T20U29  1
 UP BND       X_T20U30  1
 UP BND       X_T21U1  1
 UP BND       X_T21U2  1
 UP BND       X_T21U3  1
 UP BND       X_T21U4  1
 UP BND       X_T21U5  1
 UP BND       X_T21U6  1
 UP BND       X_T21U7  1
 UP BND       X_T21U8  1
 UP BND       X_T21U9  1
 UP BND       X_T21U10  1
 UP BND       X_T21U11  1
 UP BND       X_T21U12  1
 UP BND       X_T21U13  1
 UP BND       X_T21U14  1
 UP BND       X_T21U15  1
 UP BND       X_T21U16  1
 UP BND       X_T21U17  1
 UP BND       X_T21U18  1
 UP BND       X_T21U19  1
 UP BND       X_T21U20  1
 UP BND       X_T21U21  1
 UP BND       X_T21U22  1
 UP BND       X_T21U23  1
 UP BND       X_T21U24  1
 UP BND       X_T21U25  1
 UP BND       X_T21U26  1
 UP BND       X_T21U27  1
 UP BND       X_T21U28  1
 UP BND       X_T21U29  1
 UP BND       X_T21U30  1
 UP BND       X_T22U1  1
 UP BND       X_T22U2  1
 UP BND       X_T22U3  1
 UP BND       X_T22U4  1
 UP BND       X_T22U5  1
 UP BND       X_T22U6  1
 UP BND       X_T22U7  1
 UP BND       X_T22U8  1
 UP BND       X_T22U9  1
 UP BND       X_T22U10  1
 UP BND       X_T22U11  1
 UP BND       X_T22U12  1
 UP BND       X_T22U13  1
 UP BND       X_T22U14  1
 UP BND       X_T22U15  1
 UP BND       X_T22U16  1
 UP BND       X_T22U17  1
 UP BND       X_T22U18  1
 UP BND       X_T22U19  1
 UP BND       X_T22U20  1
 UP BND       X_T22U21  1
 UP BND       X_T22U22  1
 UP BND       X_T22U23  1
 UP BND       X_T22U24  1
 UP BND       X_T22U25  1
 UP BND       X_T22U26  1
 UP BND       X_T22U27  1
 UP BND       X_T22U28  1
 UP BND       X_T22U29  1
 UP BND       X_T22U30  1
 UP BND       X_T23U1  1
 UP BND       X_T23U2  1
 UP BND       X_T23U3  1
 UP BND       X_T23U4  1
 UP BND       X_T23U5  1
 UP BND       X_T23U6  1
 UP BND       X_T23U7  1
 UP BND       X_T23U8  1
 UP BND       X_T23U9  1
 UP BND       X_T23U10  1
 UP BND       X_T23U11  1
 UP BND       X_T23U12  1
 UP BND       X_T23U13  1
 UP BND       X_T23U14  1
 UP BND       X_T23U15  1
 UP BND       X_T23U16  1
 UP BND       X_T23U17  1
 UP BND       X_T23U18  1
 UP BND       X_T23U19  1
 UP BND       X_T23U20  1
 UP BND       X_T23U21  1
 UP BND       X_T23U22  1
 UP BND       X_T23U23  1
 UP BND       X_T23U24  1
 UP BND       X_T23U25  1
 UP BND       X_T23U26  1
 UP BND       X_T23U27  1
 UP BND       X_T23U28  1
 UP BND       X_T23U29  1
 UP BND       X_T23U30  1
 UP BND       X_T24U1  1
 UP BND       X_T24U2  1
 UP BND       X_T24U3  1
 UP BND       X_T24U4  1
 UP BND       X_T24U5  1
 UP BND       X_T24U6  1
 UP BND       X_T24U7  1
 UP BND       X_T24U8  1
 UP BND       X_T24U9  1
 UP BND       X_T24U10  1
 UP BND       X_T24U11  1
 UP BND       X_T24U12  1
 UP BND       X_T24U13  1
 UP BND       X_T24U14  1
 UP BND       X_T24U15  1
 UP BND       X_T24U16  1
 UP BND       X_T24U17  1
 UP BND       X_T24U18  1
 UP BND       X_T24U19  1
 UP BND       X_T24U20  1
 UP BND       X_T24U21  1
 UP BND       X_T24U22  1
 UP BND       X_T24U23  1
 UP BND       X_T24U24  1
 UP BND       X_T24U25  1
 UP BND       X_T24U26  1
 UP BND       X_T24U27  1
 UP BND       X_T24U28  1
 UP BND       X_T24U29  1
 UP BND       X_T24U30  1
 UP BND       X_T25U1  1
 UP BND       X_T25U2  1
 UP BND       X_T25U3  1
 UP BND       X_T25U4  1
 UP BND       X_T25U5  1
 UP BND       X_T25U6  1
 UP BND       X_T25U7  1
 UP BND       X_T25U8  1
 UP BND       X_T25U9  1
 UP BND       X_T25U10  1
 UP BND       X_T25U11  1
 UP BND       X_T25U12  1
 UP BND       X_T25U13  1
 UP BND       X_T25U14  1
 UP BND       X_T25U15  1
 UP BND       X_T25U16  1
 UP BND       X_T25U17  1
 UP BND       X_T25U18  1
 UP BND       X_T25U19  1
 UP BND       X_T25U20  1
 UP BND       X_T25U21  1
 UP BND       X_T25U22  1
 UP BND       X_T25U23  1
 UP BND       X_T25U24  1
 UP BND       X_T25U25  1
 UP BND       X_T25U26  1
 UP BND       X_T25U27  1
 UP BND       X_T25U28  1
 UP BND       X_T25U29  1
 UP BND       X_T25U30  1
 UP BND       X_T26U1  1
 UP BND       X_T26U2  1
 UP BND       X_T26U3  1
 UP BND       X_T26U4  1
 UP BND       X_T26U5  1
 UP BND       X_T26U6  1
 UP BND       X_T26U7  1
 UP BND       X_T26U8  1
 UP BND       X_T26U9  1
 UP BND       X_T26U10  1
 UP BND       X_T26U11  1
 UP BND       X_T26U12  1
 UP BND       X_T26U13  1
 UP BND       X_T26U14  1
 UP BND       X_T26U15  1
 UP BND       X_T26U16  1
 UP BND       X_T26U17  1
 UP BND       X_T26U18  1
 UP BND       X_T26U19  1
 UP BND       X_T26U20  1
 UP BND       X_T26U21  1
 UP BND       X_T26U22  1
 UP BND       X_T26U23  1
 UP BND       X_T26U24  1
 UP BND       X_T26U25  1
 UP BND       X_T26U26  1
 UP BND       X_T26U27  1
 UP BND       X_T26U28  1
 UP BND       X_T26U29  1
 UP BND       X_T26U30  1
 UP BND       X_T27U1  1
 UP BND       X_T27U2  1
 UP BND       X_T27U3  1
 UP BND       X_T27U4  1
 UP BND       X_T27U5  1
 UP BND       X_T27U6  1
 UP BND       X_T27U7  1
 UP BND       X_T27U8  1
 UP BND       X_T27U9  1
 UP BND       X_T27U10  1
 UP BND       X_T27U11  1
 UP BND       X_T27U12  1
 UP BND       X_T27U13  1
 UP BND       X_T27U14  1
 UP BND       X_T27U15  1
 UP BND       X_T27U16  1
 UP BND       X_T27U17  1
 UP BND       X_T27U18  1
 UP BND       X_T27U19  1
 UP BND       X_T27U20  1
 UP BND       X_T27U21  1
 UP BND       X_T27U22  1
 UP BND       X_T27U23  1
 UP BND       X_T27U24  1
 UP BND       X_T27U25  1
 UP BND       X_T27U26  1
 UP BND       X_T27U27  1
 UP BND       X_T27U28  1
 UP BND       X_T27U29  1
 UP BND       X_T27U30  1
 UP BND       X_T28U1  1
 UP BND       X_T28U2  1
 UP BND       X_T28U3  1
 UP BND       X_T28U4  1
 UP BND       X_T28U5  1
 UP BND       X_T28U6  1
 UP BND       X_T28U7  1
 UP BND       X_T28U8  1
 UP BND       X_T28U9  1
 UP BND       X_T28U10  1
 UP BND       X_T28U11  1
 UP BND       X_T28U12  1
 UP BND       X_T28U13  1
 UP BND       X_T28U14  1
 UP BND       X_T28U15  1
 UP BND       X_T28U16  1
 UP BND       X_T28U17  1
 UP BND       X_T28U18  1
 UP BND       X_T28U19  1
 UP BND       X_T28U20  1
 UP BND       X_T28U21  1
 UP BND       X_T28U22  1
 UP BND       X_T28U23  1
 UP BND       X_T28U24  1
 UP BND       X_T28U25  1
 UP BND       X_T28U26  1
 UP BND       X_T28U27  1
 UP BND       X_T28U28  1
 UP BND       X_T28U29  1
 UP BND       X_T28U30  1
 UP BND       X_T29U1  1
 UP BND       X_T29U2  1
 UP BND       X_T29U3  1
 UP BND       X_T29U4  1
 UP BND       X_T29U5  1
 UP BND       X_T29U6  1
 UP BND       X_T29U7  1
 UP BND       X_T29U8  1
 UP BND       X_T29U9  1
 UP BND       X_T29U10  1
 UP BND       X_T29U11  1
 UP BND       X_T29U12  1
 UP BND       X_T29U13  1
 UP BND       X_T29U14  1
 UP BND       X_T29U15  1
 UP BND       X_T29U16  1
 UP BND       X_T29U17  1
 UP BND       X_T29U18  1
 UP BND       X_T29U19  1
 UP BND       X_T29U20  1
 UP BND       X_T29U21  1
 UP BND       X_T29U22  1
 UP BND       X_T29U23  1
 UP BND       X_T29U24  1
 UP BND       X_T29U25  1
 UP BND       X_T29U26  1
 UP BND       X_T29U27  1
 UP BND       X_T29U28  1
 UP BND       X_T29U29  1
 UP BND       X_T29U30  1
 UP BND       X_T30U1  1
 UP BND       X_T30U2  1
 UP BND       X_T30U3  1
 UP BND       X_T30U4  1
 UP BND       X_T30U5  1
 UP BND       X_T30U6  1
 UP BND       X_T30U7  1
 UP BND       X_T30U8  1
 UP BND       X_T30U9  1
 UP BND       X_T30U10  1
 UP BND       X_T30U11  1
 UP BND       X_T30U12  1
 UP BND       X_T30U13  1
 UP BND       X_T30U14  1
 UP BND       X_T30U15  1
 UP BND       X_T30U16  1
 UP BND       X_T30U17  1
 UP BND       X_T30U18  1
 UP BND       X_T30U19  1
 UP BND       X_T30U20  1
 UP BND       X_T30U21  1
 UP BND       X_T30U22  1
 UP BND       X_T30U23  1
 UP BND       X_T30U24  1
 UP BND       X_T30U25  1
 UP BND       X_T30U26  1
 UP BND       X_T30U27  1
 UP BND       X_T30U28  1
 UP BND       X_T30U29  1
 UP BND       X_T30U30  1
 UP BND       X_T31U1  1
 UP BND       X_T31U2  1
 UP BND       X_T31U3  1
 UP BND       X_T31U4  1
 UP BND       X_T31U5  1
 UP BND       X_T31U6  1
 UP BND       X_T31U7  1
 UP BND       X_T31U8  1
 UP BND       X_T31U9  1
 UP BND       X_T31U10  1
 UP BND       X_T31U11  1
 UP BND       X_T31U12  1
 UP BND       X_T31U13  1
 UP BND       X_T31U14  1
 UP BND       X_T31U15  1
 UP BND       X_T31U16  1
 UP BND       X_T31U17  1
 UP BND       X_T31U18  1
 UP BND       X_T31U19  1
 UP BND       X_T31U20  1
 UP BND       X_T31U21  1
 UP BND       X_T31U22  1
 UP BND       X_T31U23  1
 UP BND       X_T31U24  1
 UP BND       X_T31U25  1
 UP BND       X_T31U26  1
 UP BND       X_T31U27  1
 UP BND       X_T31U28  1
 UP BND       X_T31U29  1
 UP BND       X_T31U30  1
 UP BND       X_T32U1  1
 UP BND       X_T32U2  1
 UP BND       X_T32U3  1
 UP BND       X_T32U4  1
 UP BND       X_T32U5  1
 UP BND       X_T32U6  1
 UP BND       X_T32U7  1
 UP BND       X_T32U8  1
 UP BND       X_T32U9  1
 UP BND       X_T32U10  1
 UP BND       X_T32U11  1
 UP BND       X_T32U12  1
 UP BND       X_T32U13  1
 UP BND       X_T32U14  1
 UP BND       X_T32U15  1
 UP BND       X_T32U16  1
 UP BND       X_T32U17  1
 UP BND       X_T32U18  1
 UP BND       X_T32U19  1
 UP BND       X_T32U20  1
 UP BND       X_T32U21  1
 UP BND       X_T32U22  1
 UP BND       X_T32U23  1
 UP BND       X_T32U24  1
 UP BND       X_T32U25  1
 UP BND       X_T32U26  1
 UP BND       X_T32U27  1
 UP BND       X_T32U28  1
 UP BND       X_T32U29  1
 UP BND       X_T32U30  1
 UP BND       X_T33U1  1
 UP BND       X_T33U2  1
 UP BND       X_T33U3  1
 UP BND       X_T33U4  1
 UP BND       X_T33U5  1
 UP BND       X_T33U6  1
 UP BND       X_T33U7  1
 UP BND       X_T33U8  1
 UP BND       X_T33U9  1
 UP BND       X_T33U10  1
 UP BND       X_T33U11  1
 UP BND       X_T33U12  1
 UP BND       X_T33U13  1
 UP BND       X_T33U14  1
 UP BND       X_T33U15  1
 UP BND       X_T33U16  1
 UP BND       X_T33U17  1
 UP BND       X_T33U18  1
 UP BND       X_T33U19  1
 UP BND       X_T33U20  1
 UP BND       X_T33U21  1
 UP BND       X_T33U22  1
 UP BND       X_T33U23  1
 UP BND       X_T33U24  1
 UP BND       X_T33U25  1
 UP BND       X_T33U26  1
 UP BND       X_T33U27  1
 UP BND       X_T33U28  1
 UP BND       X_T33U29  1
 UP BND       X_T33U30  1
 UP BND       X_T34U1  1
 UP BND       X_T34U2  1
 UP BND       X_T34U3  1
 UP BND       X_T34U4  1
 UP BND       X_T34U5  1
 UP BND       X_T34U6  1
 UP BND       X_T34U7  1
 UP BND       X_T34U8  1
 UP BND       X_T34U9  1
 UP BND       X_T34U10  1
 UP BND       X_T34U11  1
 UP BND       X_T34U12  1
 UP BND       X_T34U13  1
 UP BND       X_T34U14  1
 UP BND       X_T34U15  1
 UP BND       X_T34U16  1
 UP BND       X_T34U17  1
 UP BND       X_T34U18  1
 UP BND       X_T34U19  1
 UP BND       X_T34U20  1
 UP BND       X_T34U21  1
 UP BND       X_T34U22  1
 UP BND       X_T34U23  1
 UP BND       X_T34U24  1
 UP BND       X_T34U25  1
 UP BND       X_T34U26  1
 UP BND       X_T34U27  1
 UP BND       X_T34U28  1
 UP BND       X_T34U29  1
 UP BND       X_T34U30  1
 UP BND       X_T35U1  1
 UP BND       X_T35U2  1
 UP BND       X_T35U3  1
 UP BND       X_T35U4  1
 UP BND       X_T35U5  1
 UP BND       X_T35U6  1
 UP BND       X_T35U7  1
 UP BND       X_T35U8  1
 UP BND       X_T35U9  1
 UP BND       X_T35U10  1
 UP BND       X_T35U11  1
 UP BND       X_T35U12  1
 UP BND       X_T35U13  1
 UP BND       X_T35U14  1
 UP BND       X_T35U15  1
 UP BND       X_T35U16  1
 UP BND       X_T35U17  1
 UP BND       X_T35U18  1
 UP BND       X_T35U19  1
 UP BND       X_T35U20  1
 UP BND       X_T35U21  1
 UP BND       X_T35U22  1
 UP BND       X_T35U23  1
 UP BND       X_T35U24  1
 UP BND       X_T35U25  1
 UP BND       X_T35U26  1
 UP BND       X_T35U27  1
 UP BND       X_T35U28  1
 UP BND       X_T35U29  1
 UP BND       X_T35U30  1
 UP BND       X_T36U1  1
 UP BND       X_T36U2  1
 UP BND       X_T36U3  1
 UP BND       X_T36U4  1
 UP BND       X_T36U5  1
 UP BND       X_T36U6  1
 UP BND       X_T36U7  1
 UP BND       X_T36U8  1
 UP BND       X_T36U9  1
 UP BND       X_T36U10  1
 UP BND       X_T36U11  1
 UP BND       X_T36U12  1
 UP BND       X_T36U13  1
 UP BND       X_T36U14  1
 UP BND       X_T36U15  1
 UP BND       X_T36U16  1
 UP BND       X_T36U17  1
 UP BND       X_T36U18  1
 UP BND       X_T36U19  1
 UP BND       X_T36U20  1
 UP BND       X_T36U21  1
 UP BND       X_T36U22  1
 UP BND       X_T36U23  1
 UP BND       X_T36U24  1
 UP BND       X_T36U25  1
 UP BND       X_T36U26  1
 UP BND       X_T36U27  1
 UP BND       X_T36U28  1
 UP BND       X_T36U29  1
 UP BND       X_T36U30  1
 UP BND       X_T37U1  1
 UP BND       X_T37U2  1
 UP BND       X_T37U3  1
 UP BND       X_T37U4  1
 UP BND       X_T37U5  1
 UP BND       X_T37U6  1
 UP BND       X_T37U7  1
 UP BND       X_T37U8  1
 UP BND       X_T37U9  1
 UP BND       X_T37U10  1
 UP BND       X_T37U11  1
 UP BND       X_T37U12  1
 UP BND       X_T37U13  1
 UP BND       X_T37U14  1
 UP BND       X_T37U15  1
 UP BND       X_T37U16  1
 UP BND       X_T37U17  1
 UP BND       X_T37U18  1
 UP BND       X_T37U19  1
 UP BND       X_T37U20  1
 UP BND       X_T37U21  1
 UP BND       X_T37U22  1
 UP BND       X_T37U23  1
 UP BND       X_T37U24  1
 UP BND       X_T37U25  1
 UP BND       X_T37U26  1
 UP BND       X_T37U27  1
 UP BND       X_T37U28  1
 UP BND       X_T37U29  1
 UP BND       X_T37U30  1
 UP BND       X_T38U1  1
 UP BND       X_T38U2  1
 UP BND       X_T38U3  1
 UP BND       X_T38U4  1
 UP BND       X_T38U5  1
 UP BND       X_T38U6  1
 UP BND       X_T38U7  1
 UP BND       X_T38U8  1
 UP BND       X_T38U9  1
 UP BND       X_T38U10  1
 UP BND       X_T38U11  1
 UP BND       X_T38U12  1
 UP BND       X_T38U13  1
 UP BND       X_T38U14  1
 UP BND       X_T38U15  1
 UP BND       X_T38U16  1
 UP BND       X_T38U17  1
 UP BND       X_T38U18  1
 UP BND       X_T38U19  1
 UP BND       X_T38U20  1
 UP BND       X_T38U21  1
 UP BND       X_T38U22  1
 UP BND       X_T38U23  1
 UP BND       X_T38U24  1
 UP BND       X_T38U25  1
 UP BND       X_T38U26  1
 UP BND       X_T38U27  1
 UP BND       X_T38U28  1
 UP BND       X_T38U29  1
 UP BND       X_T38U30  1
 UP BND       X_T39U1  1
 UP BND       X_T39U2  1
 UP BND       X_T39U3  1
 UP BND       X_T39U4  1
 UP BND       X_T39U5  1
 UP BND       X_T39U6  1
 UP BND       X_T39U7  1
 UP BND       X_T39U8  1
 UP BND       X_T39U9  1
 UP BND       X_T39U10  1
 UP BND       X_T39U11  1
 UP BND       X_T39U12  1
 UP BND       X_T39U13  1
 UP BND       X_T39U14  1
 UP BND       X_T39U15  1
 UP BND       X_T39U16  1
 UP BND       X_T39U17  1
 UP BND       X_T39U18  1
 UP BND       X_T39U19  1
 UP BND       X_T39U20  1
 UP BND       X_T39U21  1
 UP BND       X_T39U22  1
 UP BND       X_T39U23  1
 UP BND       X_T39U24  1
 UP BND       X_T39U25  1
 UP BND       X_T39U26  1
 UP BND       X_T39U27  1
 UP BND       X_T39U28  1
 UP BND       X_T39U29  1
 UP BND       X_T39U30  1
 UP BND       X_T40U1  1
 UP BND       X_T40U2  1
 UP BND       X_T40U3  1
 UP BND       X_T40U4  1
 UP BND       X_T40U5  1
 UP BND       X_T40U6  1
 UP BND       X_T40U7  1
 UP BND       X_T40U8  1
 UP BND       X_T40U9  1
 UP BND       X_T40U10  1
 UP BND       X_T40U11  1
 UP BND       X_T40U12  1
 UP BND       X_T40U13  1
 UP BND       X_T40U14  1
 UP BND       X_T40U15  1
 UP BND       X_T40U16  1
 UP BND       X_T40U17  1
 UP BND       X_T40U18  1
 UP BND       X_T40U19  1
 UP BND       X_T40U20  1
 UP BND       X_T40U21  1
 UP BND       X_T40U22  1
 UP BND       X_T40U23  1
 UP BND       X_T40U24  1
 UP BND       X_T40U25  1
 UP BND       X_T40U26  1
 UP BND       X_T40U27  1
 UP BND       X_T40U28  1
 UP BND       X_T40U29  1
 UP BND       X_T40U30  1
 UP BND       X_T41U1  1
 UP BND       X_T41U2  1
 UP BND       X_T41U3  1
 UP BND       X_T41U4  1
 UP BND       X_T41U5  1
 UP BND       X_T41U6  1
 UP BND       X_T41U7  1
 UP BND       X_T41U8  1
 UP BND       X_T41U9  1
 UP BND       X_T41U10  1
 UP BND       X_T41U11  1
 UP BND       X_T41U12  1
 UP BND       X_T41U13  1
 UP BND       X_T41U14  1
 UP BND       X_T41U15  1
 UP BND       X_T41U16  1
 UP BND       X_T41U17  1
 UP BND       X_T41U18  1
 UP BND       X_T41U19  1
 UP BND       X_T41U20  1
 UP BND       X_T41U21  1
 UP BND       X_T41U22  1
 UP BND       X_T41U23  1
 UP BND       X_T41U24  1
 UP BND       X_T41U25  1
 UP BND       X_T41U26  1
 UP BND       X_T41U27  1
 UP BND       X_T41U28  1
 UP BND       X_T41U29  1
 UP BND       X_T41U30  1
 UP BND       X_T42U1  1
 UP BND       X_T42U2  1
 UP BND       X_T42U3  1
 UP BND       X_T42U4  1
 UP BND       X_T42U5  1
 UP BND       X_T42U6  1
 UP BND       X_T42U7  1
 UP BND       X_T42U8  1
 UP BND       X_T42U9  1
 UP BND       X_T42U10  1
 UP BND       X_T42U11  1
 UP BND       X_T42U12  1
 UP BND       X_T42U13  1
 UP BND       X_T42U14  1
 UP BND       X_T42U15  1
 UP BND       X_T42U16  1
 UP BND       X_T42U17  1
 UP BND       X_T42U18  1
 UP BND       X_T42U19  1
 UP BND       X_T42U20  1
 UP BND       X_T42U21  1
 UP BND       X_T42U22  1
 UP BND       X_T42U23  1
 UP BND       X_T42U24  1
 UP BND       X_T42U25  1
 UP BND       X_T42U26  1
 UP BND       X_T42U27  1
 UP BND       X_T42U28  1
 UP BND       X_T42U29  1
 UP BND       X_T42U30  1
 UP BND       X_T43U1  1
 UP BND       X_T43U2  1
 UP BND       X_T43U3  1
 UP BND       X_T43U4  1
 UP BND       X_T43U5  1
 UP BND       X_T43U6  1
 UP BND       X_T43U7  1
 UP BND       X_T43U8  1
 UP BND       X_T43U9  1
 UP BND       X_T43U10  1
 UP BND       X_T43U11  1
 UP BND       X_T43U12  1
 UP BND       X_T43U13  1
 UP BND       X_T43U14  1
 UP BND       X_T43U15  1
 UP BND       X_T43U16  1
 UP BND       X_T43U17  1
 UP BND       X_T43U18  1
 UP BND       X_T43U19  1
 UP BND       X_T43U20  1
 UP BND       X_T43U21  1
 UP BND       X_T43U22  1
 UP BND       X_T43U23  1
 UP BND       X_T43U24  1
 UP BND       X_T43U25  1
 UP BND       X_T43U26  1
 UP BND       X_T43U27  1
 UP BND       X_T43U28  1
 UP BND       X_T43U29  1
 UP BND       X_T43U30  1
 UP BND       X_T44U1  1
 UP BND       X_T44U2  1
 UP BND       X_T44U3  1
 UP BND       X_T44U4  1
 UP BND       X_T44U5  1
 UP BND       X_T44U6  1
 UP BND       X_T44U7  1
 UP BND       X_T44U8  1
 UP BND       X_T44U9  1
 UP BND       X_T44U10  1
 UP BND       X_T44U11  1
 UP BND       X_T44U12  1
 UP BND       X_T44U13  1
 UP BND       X_T44U14  1
 UP BND       X_T44U15  1
 UP BND       X_T44U16  1
 UP BND       X_T44U17  1
 UP BND       X_T44U18  1
 UP BND       X_T44U19  1
 UP BND       X_T44U20  1
 UP BND       X_T44U21  1
 UP BND       X_T44U22  1
 UP BND       X_T44U23  1
 UP BND       X_T44U24  1
 UP BND       X_T44U25  1
 UP BND       X_T44U26  1
 UP BND       X_T44U27  1
 UP BND       X_T44U28  1
 UP BND       X_T44U29  1
 UP BND       X_T44U30  1
 UP BND       X_T45U1  1
 UP BND       X_T45U2  1
 UP BND       X_T45U3  1
 UP BND       X_T45U4  1
 UP BND       X_T45U5  1
 UP BND       X_T45U6  1
 UP BND       X_T45U7  1
 UP BND       X_T45U8  1
 UP BND       X_T45U9  1
 UP BND       X_T45U10  1
 UP BND       X_T45U11  1
 UP BND       X_T45U12  1
 UP BND       X_T45U13  1
 UP BND       X_T45U14  1
 UP BND       X_T45U15  1
 UP BND       X_T45U16  1
 UP BND       X_T45U17  1
 UP BND       X_T45U18  1
 UP BND       X_T45U19  1
 UP BND       X_T45U20  1
 UP BND       X_T45U21  1
 UP BND       X_T45U22  1
 UP BND       X_T45U23  1
 UP BND       X_T45U24  1
 UP BND       X_T45U25  1
 UP BND       X_T45U26  1
 UP BND       X_T45U27  1
 UP BND       X_T45U28  1
 UP BND       X_T45U29  1
 UP BND       X_T45U30  1
 UP BND       X_T46U1  1
 UP BND       X_T46U2  1
 UP BND       X_T46U3  1
 UP BND       X_T46U4  1
 UP BND       X_T46U5  1
 UP BND       X_T46U6  1
 UP BND       X_T46U7  1
 UP BND       X_T46U8  1
 UP BND       X_T46U9  1
 UP BND       X_T46U10  1
 UP BND       X_T46U11  1
 UP BND       X_T46U12  1
 UP BND       X_T46U13  1
 UP BND       X_T46U14  1
 UP BND       X_T46U15  1
 UP BND       X_T46U16  1
 UP BND       X_T46U17  1
 UP BND       X_T46U18  1
 UP BND       X_T46U19  1
 UP BND       X_T46U20  1
 UP BND       X_T46U21  1
 UP BND       X_T46U22  1
 UP BND       X_T46U23  1
 UP BND       X_T46U24  1
 UP BND       X_T46U25  1
 UP BND       X_T46U26  1
 UP BND       X_T46U27  1
 UP BND       X_T46U28  1
 UP BND       X_T46U29  1
 UP BND       X_T46U30  1
 UP BND       X_T47U1  1
 UP BND       X_T47U2  1
 UP BND       X_T47U3  1
 UP BND       X_T47U4  1
 UP BND       X_T47U5  1
 UP BND       X_T47U6  1
 UP BND       X_T47U7  1
 UP BND       X_T47U8  1
 UP BND       X_T47U9  1
 UP BND       X_T47U10  1
 UP BND       X_T47U11  1
 UP BND       X_T47U12  1
 UP BND       X_T47U13  1
 UP BND       X_T47U14  1
 UP BND       X_T47U15  1
 UP BND       X_T47U16  1
 UP BND       X_T47U17  1
 UP BND       X_T47U18  1
 UP BND       X_T47U19  1
 UP BND       X_T47U20  1
 UP BND       X_T47U21  1
 UP BND       X_T47U22  1
 UP BND       X_T47U23  1
 UP BND       X_T47U24  1
 UP BND       X_T47U25  1
 UP BND       X_T47U26  1
 UP BND       X_T47U27  1
 UP BND       X_T47U28  1
 UP BND       X_T47U29  1
 UP BND       X_T47U30  1
 UP BND       X_T48U1  1
 UP BND       X_T48U2  1
 UP BND       X_T48U3  1
 UP BND       X_T48U4  1
 UP BND       X_T48U5  1
 UP BND       X_T48U6  1
 UP BND       X_T48U7  1
 UP BND       X_T48U8  1
 UP BND       X_T48U9  1
 UP BND       X_T48U10  1
 UP BND       X_T48U11  1
 UP BND       X_T48U12  1
 UP BND       X_T48U13  1
 UP BND       X_T48U14  1
 UP BND       X_T48U15  1
 UP BND       X_T48U16  1
 UP BND       X_T48U17  1
 UP BND       X_T48U18  1
 UP BND       X_T48U19  1
 UP BND       X_T48U20  1
 UP BND       X_T48U21  1
 UP BND       X_T48U22  1
 UP BND       X_T48U23  1
 UP BND       X_T48U24  1
 UP BND       X_T48U25  1
 UP BND       X_T48U26  1
 UP BND       X_T48U27  1
 UP BND       X_T48U28  1
 UP BND       X_T48U29  1
 UP BND       X_T48U30  1
 UP BND       X_T49U1  1
 UP BND       X_T49U2  1
 UP BND       X_T49U3  1
 UP BND       X_T49U4  1
 UP BND       X_T49U5  1
 UP BND       X_T49U6  1
 UP BND       X_T49U7  1
 UP BND       X_T49U8  1
 UP BND       X_T49U9  1
 UP BND       X_T49U10  1
 UP BND       X_T49U11  1
 UP BND       X_T49U12  1
 UP BND       X_T49U13  1
 UP BND       X_T49U14  1
 UP BND       X_T49U15  1
 UP BND       X_T49U16  1
 UP BND       X_T49U17  1
 UP BND       X_T49U18  1
 UP BND       X_T49U19  1
 UP BND       X_T49U20  1
 UP BND       X_T49U21  1
 UP BND       X_T49U22  1
 UP BND       X_T49U23  1
 UP BND       X_T49U24  1
 UP BND       X_T49U25  1
 UP BND       X_T49U26  1
 UP BND       X_T49U27  1
 UP BND       X_T49U28  1
 UP BND       X_T49U29  1
 UP BND       X_T49U30  1
 UP BND       X_T50U1  1
 UP BND       X_T50U2  1
 UP BND       X_T50U3  1
 UP BND       X_T50U4  1
 UP BND       X_T50U5  1
 UP BND       X_T50U6  1
 UP BND       X_T50U7  1
 UP BND       X_T50U8  1
 UP BND       X_T50U9  1
 UP BND       X_T50U10  1
 UP BND       X_T50U11  1
 UP BND       X_T50U12  1
 UP BND       X_T50U13  1
 UP BND       X_T50U14  1
 UP BND       X_T50U15  1
 UP BND       X_T50U16  1
 UP BND       X_T50U17  1
 UP BND       X_T50U18  1
 UP BND       X_T50U19  1
 UP BND       X_T50U20  1
 UP BND       X_T50U21  1
 UP BND       X_T50U22  1
 UP BND       X_T50U23  1
 UP BND       X_T50U24  1
 UP BND       X_T50U25  1
 UP BND       X_T50U26  1
 UP BND       X_T50U27  1
 UP BND       X_T50U28  1
 UP BND       X_T50U29  1
 UP BND       X_T50U30  1
 UP BND       X_T51U1  1
 UP BND       X_T51U2  1
 UP BND       X_T51U3  1
 UP BND       X_T51U4  1
 UP BND       X_T51U5  1
 UP BND       X_T51U6  1
 UP BND       X_T51U7  1
 UP BND       X_T51U8  1
 UP BND       X_T51U9  1
 UP BND       X_T51U10  1
 UP BND       X_T51U11  1
 UP BND       X_T51U12  1
 UP BND       X_T51U13  1
 UP BND       X_T51U14  1
 UP BND       X_T51U15  1
 UP BND       X_T51U16  1
 UP BND       X_T51U17  1
 UP BND       X_T51U18  1
 UP BND       X_T51U19  1
 UP BND       X_T51U20  1
 UP BND       X_T51U21  1
 UP BND       X_T51U22  1
 UP BND       X_T51U23  1
 UP BND       X_T51U24  1
 UP BND       X_T51U25  1
 UP BND       X_T51U26  1
 UP BND       X_T51U27  1
 UP BND       X_T51U28  1
 UP BND       X_T51U29  1
 UP BND       X_T51U30  1
 UP BND       X_T52U1  1
 UP BND       X_T52U2  1
 UP BND       X_T52U3  1
 UP BND       X_T52U4  1
 UP BND       X_T52U5  1
 UP BND       X_T52U6  1
 UP BND       X_T52U7  1
 UP BND       X_T52U8  1
 UP BND       X_T52U9  1
 UP BND       X_T52U10  1
 UP BND       X_T52U11  1
 UP BND       X_T52U12  1
 UP BND       X_T52U13  1
 UP BND       X_T52U14  1
 UP BND       X_T52U15  1
 UP BND       X_T52U16  1
 UP BND       X_T52U17  1
 UP BND       X_T52U18  1
 UP BND       X_T52U19  1
 UP BND       X_T52U20  1
 UP BND       X_T52U21  1
 UP BND       X_T52U22  1
 UP BND       X_T52U23  1
 UP BND       X_T52U24  1
 UP BND       X_T52U25  1
 UP BND       X_T52U26  1
 UP BND       X_T52U27  1
 UP BND       X_T52U28  1
 UP BND       X_T52U29  1
 UP BND       X_T52U30  1
 UP BND       X_T53U1  1
 UP BND       X_T53U2  1
 UP BND       X_T53U3  1
 UP BND       X_T53U4  1
 UP BND       X_T53U5  1
 UP BND       X_T53U6  1
 UP BND       X_T53U7  1
 UP BND       X_T53U8  1
 UP BND       X_T53U9  1
 UP BND       X_T53U10  1
 UP BND       X_T53U11  1
 UP BND       X_T53U12  1
 UP BND       X_T53U13  1
 UP BND       X_T53U14  1
 UP BND       X_T53U15  1
 UP BND       X_T53U16  1
 UP BND       X_T53U17  1
 UP BND       X_T53U18  1
 UP BND       X_T53U19  1
 UP BND       X_T53U20  1
 UP BND       X_T53U21  1
 UP BND       X_T53U22  1
 UP BND       X_T53U23  1
 UP BND       X_T53U24  1
 UP BND       X_T53U25  1
 UP BND       X_T53U26  1
 UP BND       X_T53U27  1
 UP BND       X_T53U28  1
 UP BND       X_T53U29  1
 UP BND       X_T53U30  1
 UP BND       X_T54U1  1
 UP BND       X_T54U2  1
 UP BND       X_T54U3  1
 UP BND       X_T54U4  1
 UP BND       X_T54U5  1
 UP BND       X_T54U6  1
 UP BND       X_T54U7  1
 UP BND       X_T54U8  1
 UP BND       X_T54U9  1
 UP BND       X_T54U10  1
 UP BND       X_T54U11  1
 UP BND       X_T54U12  1
 UP BND       X_T54U13  1
 UP BND       X_T54U14  1
 UP BND       X_T54U15  1
 UP BND       X_T54U16  1
 UP BND       X_T54U17  1
 UP BND       X_T54U18  1
 UP BND       X_T54U19  1
 UP BND       X_T54U20  1
 UP BND       X_T54U21  1
 UP BND       X_T54U22  1
 UP BND       X_T54U23  1
 UP BND       X_T54U24  1
 UP BND       X_T54U25  1
 UP BND       X_T54U26  1
 UP BND       X_T54U27  1
 UP BND       X_T54U28  1
 UP BND       X_T54U29  1
 UP BND       X_T54U30  1
 UP BND       X_T55U1  1
 UP BND       X_T55U2  1
 UP BND       X_T55U3  1
 UP BND       X_T55U4  1
 UP BND       X_T55U5  1
 UP BND       X_T55U6  1
 UP BND       X_T55U7  1
 UP BND       X_T55U8  1
 UP BND       X_T55U9  1
 UP BND       X_T55U10  1
 UP BND       X_T55U11  1
 UP BND       X_T55U12  1
 UP BND       X_T55U13  1
 UP BND       X_T55U14  1
 UP BND       X_T55U15  1
 UP BND       X_T55U16  1
 UP BND       X_T55U17  1
 UP BND       X_T55U18  1
 UP BND       X_T55U19  1
 UP BND       X_T55U20  1
 UP BND       X_T55U21  1
 UP BND       X_T55U22  1
 UP BND       X_T55U23  1
 UP BND       X_T55U24  1
 UP BND       X_T55U25  1
 UP BND       X_T55U26  1
 UP BND       X_T55U27  1
 UP BND       X_T55U28  1
 UP BND       X_T55U29  1
 UP BND       X_T55U30  1
 UP BND       X_T56U1  1
 UP BND       X_T56U2  1
 UP BND       X_T56U3  1
 UP BND       X_T56U4  1
 UP BND       X_T56U5  1
 UP BND       X_T56U6  1
 UP BND       X_T56U7  1
 UP BND       X_T56U8  1
 UP BND       X_T56U9  1
 UP BND       X_T56U10  1
 UP BND       X_T56U11  1
 UP BND       X_T56U12  1
 UP BND       X_T56U13  1
 UP BND       X_T56U14  1
 UP BND       X_T56U15  1
 UP BND       X_T56U16  1
 UP BND       X_T56U17  1
 UP BND       X_T56U18  1
 UP BND       X_T56U19  1
 UP BND       X_T56U20  1
 UP BND       X_T56U21  1
 UP BND       X_T56U22  1
 UP BND       X_T56U23  1
 UP BND       X_T56U24  1
 UP BND       X_T56U25  1
 UP BND       X_T56U26  1
 UP BND       X_T56U27  1
 UP BND       X_T56U28  1
 UP BND       X_T56U29  1
 UP BND       X_T56U30  1
 UP BND       X_T57U1  1
 UP BND       X_T57U2  1
 UP BND       X_T57U3  1
 UP BND       X_T57U4  1
 UP BND       X_T57U5  1
 UP BND       X_T57U6  1
 UP BND       X_T57U7  1
 UP BND       X_T57U8  1
 UP BND       X_T57U9  1
 UP BND       X_T57U10  1
 UP BND       X_T57U11  1
 UP BND       X_T57U12  1
 UP BND       X_T57U13  1
 UP BND       X_T57U14  1
 UP BND       X_T57U15  1
 UP BND       X_T57U16  1
 UP BND       X_T57U17  1
 UP BND       X_T57U18  1
 UP BND       X_T57U19  1
 UP BND       X_T57U20  1
 UP BND       X_T57U21  1
 UP BND       X_T57U22  1
 UP BND       X_T57U23  1
 UP BND       X_T57U24  1
 UP BND       X_T57U25  1
 UP BND       X_T57U26  1
 UP BND       X_T57U27  1
 UP BND       X_T57U28  1
 UP BND       X_T57U29  1
 UP BND       X_T57U30  1
 UP BND       X_T58U1  1
 UP BND       X_T58U2  1
 UP BND       X_T58U3  1
 UP BND       X_T58U4  1
 UP BND       X_T58U5  1
 UP BND       X_T58U6  1
 UP BND       X_T58U7  1
 UP BND       X_T58U8  1
 UP BND       X_T58U9  1
 UP BND       X_T58U10  1
 UP BND       X_T58U11  1
 UP BND       X_T58U12  1
 UP BND       X_T58U13  1
 UP BND       X_T58U14  1
 UP BND       X_T58U15  1
 UP BND       X_T58U16  1
 UP BND       X_T58U17  1
 UP BND       X_T58U18  1
 UP BND       X_T58U19  1
 UP BND       X_T58U20  1
 UP BND       X_T58U21  1
 UP BND       X_T58U22  1
 UP BND       X_T58U23  1
 UP BND       X_T58U24  1
 UP BND       X_T58U25  1
 UP BND       X_T58U26  1
 UP BND       X_T58U27  1
 UP BND       X_T58U28  1
 UP BND       X_T58U29  1
 UP BND       X_T58U30  1
 UP BND       X_T59U1  1
 UP BND       X_T59U2  1
 UP BND       X_T59U3  1
 UP BND       X_T59U4  1
 UP BND       X_T59U5  1
 UP BND       X_T59U6  1
 UP BND       X_T59U7  1
 UP BND       X_T59U8  1
 UP BND       X_T59U9  1
 UP BND       X_T59U10  1
 UP BND       X_T59U11  1
 UP BND       X_T59U12  1
 UP BND       X_T59U13  1
 UP BND       X_T59U14  1
 UP BND       X_T59U15  1
 UP BND       X_T59U16  1
 UP BND       X_T59U17  1
 UP BND       X_T59U18  1
 UP BND       X_T59U19  1
 UP BND       X_T59U20  1
 UP BND       X_T59U21  1
 UP BND       X_T59U22  1
 UP BND       X_T59U23  1
 UP BND       X_T59U24  1
 UP BND       X_T59U25  1
 UP BND       X_T59U26  1
 UP BND       X_T59U27  1
 UP BND       X_T59U28  1
 UP BND       X_T59U29  1
 UP BND       X_T59U30  1
 UP BND       X_T60U1  1
 UP BND       X_T60U2  1
 UP BND       X_T60U3  1
 UP BND       X_T60U4  1
 UP BND       X_T60U5  1
 UP BND       X_T60U6  1
 UP BND       X_T60U7  1
 UP BND       X_T60U8  1
 UP BND       X_T60U9  1
 UP BND       X_T60U10  1
 UP BND       X_T60U11  1
 UP BND       X_T60U12  1
 UP BND       X_T60U13  1
 UP BND       X_T60U14  1
 UP BND       X_T60U15  1
 UP BND       X_T60U16  1
 UP BND       X_T60U17  1
 UP BND       X_T60U18  1
 UP BND       X_T60U19  1
 UP BND       X_T60U20  1
 UP BND       X_T60U21  1
 UP BND       X_T60U22  1
 UP BND       X_T60U23  1
 UP BND       X_T60U24  1
 UP BND       X_T60U25  1
 UP BND       X_T60U26  1
 UP BND       X_T60U27  1
 UP BND       X_T60U28  1
 UP BND       X_T60U29  1
 UP BND       X_T60U30  1
 UP BND       X_T61U1  1
 UP BND       X_T61U2  1
 UP BND       X_T61U3  1
 UP BND       X_T61U4  1
 UP BND       X_T61U5  1
 UP BND       X_T61U6  1
 UP BND       X_T61U7  1
 UP BND       X_T61U8  1
 UP BND       X_T61U9  1
 UP BND       X_T61U10  1
 UP BND       X_T61U11  1
 UP BND       X_T61U12  1
 UP BND       X_T61U13  1
 UP BND       X_T61U14  1
 UP BND       X_T61U15  1
 UP BND       X_T61U16  1
 UP BND       X_T61U17  1
 UP BND       X_T61U18  1
 UP BND       X_T61U19  1
 UP BND       X_T61U20  1
 UP BND       X_T61U21  1
 UP BND       X_T61U22  1
 UP BND       X_T61U23  1
 UP BND       X_T61U24  1
 UP BND       X_T61U25  1
 UP BND       X_T61U26  1
 UP BND       X_T61U27  1
 UP BND       X_T61U28  1
 UP BND       X_T61U29  1
 UP BND       X_T61U30  1
 UP BND       X_T62U1  1
 UP BND       X_T62U2  1
 UP BND       X_T62U3  1
 UP BND       X_T62U4  1
 UP BND       X_T62U5  1
 UP BND       X_T62U6  1
 UP BND       X_T62U7  1
 UP BND       X_T62U8  1
 UP BND       X_T62U9  1
 UP BND       X_T62U10  1
 UP BND       X_T62U11  1
 UP BND       X_T62U12  1
 UP BND       X_T62U13  1
 UP BND       X_T62U14  1
 UP BND       X_T62U15  1
 UP BND       X_T62U16  1
 UP BND       X_T62U17  1
 UP BND       X_T62U18  1
 UP BND       X_T62U19  1
 UP BND       X_T62U20  1
 UP BND       X_T62U21  1
 UP BND       X_T62U22  1
 UP BND       X_T62U23  1
 UP BND       X_T62U24  1
 UP BND       X_T62U25  1
 UP BND       X_T62U26  1
 UP BND       X_T62U27  1
 UP BND       X_T62U28  1
 UP BND       X_T62U29  1
 UP BND       X_T62U30  1
 UP BND       X_T63U1  1
 UP BND       X_T63U2  1
 UP BND       X_T63U3  1
 UP BND       X_T63U4  1
 UP BND       X_T63U5  1
 UP BND       X_T63U6  1
 UP BND       X_T63U7  1
 UP BND       X_T63U8  1
 UP BND       X_T63U9  1
 UP BND       X_T63U10  1
 UP BND       X_T63U11  1
 UP BND       X_T63U12  1
 UP BND       X_T63U13  1
 UP BND       X_T63U14  1
 UP BND       X_T63U15  1
 UP BND       X_T63U16  1
 UP BND       X_T63U17  1
 UP BND       X_T63U18  1
 UP BND       X_T63U19  1
 UP BND       X_T63U20  1
 UP BND       X_T63U21  1
 UP BND       X_T63U22  1
 UP BND       X_T63U23  1
 UP BND       X_T63U24  1
 UP BND       X_T63U25  1
 UP BND       X_T63U26  1
 UP BND       X_T63U27  1
 UP BND       X_T63U28  1
 UP BND       X_T63U29  1
 UP BND       X_T63U30  1
 UP BND       X_T64U1  1
 UP BND       X_T64U2  1
 UP BND       X_T64U3  1
 UP BND       X_T64U4  1
 UP BND       X_T64U5  1
 UP BND       X_T64U6  1
 UP BND       X_T64U7  1
 UP BND       X_T64U8  1
 UP BND       X_T64U9  1
 UP BND       X_T64U10  1
 UP BND       X_T64U11  1
 UP BND       X_T64U12  1
 UP BND       X_T64U13  1
 UP BND       X_T64U14  1
 UP BND       X_T64U15  1
 UP BND       X_T64U16  1
 UP BND       X_T64U17  1
 UP BND       X_T64U18  1
 UP BND       X_T64U19  1
 UP BND       X_T64U20  1
 UP BND       X_T64U21  1
 UP BND       X_T64U22  1
 UP BND       X_T64U23  1
 UP BND       X_T64U24  1
 UP BND       X_T64U25  1
 UP BND       X_T64U26  1
 UP BND       X_T64U27  1
 UP BND       X_T64U28  1
 UP BND       X_T64U29  1
 UP BND       X_T64U30  1
 UP BND       X_T65U1  1
 UP BND       X_T65U2  1
 UP BND       X_T65U3  1
 UP BND       X_T65U4  1
 UP BND       X_T65U5  1
 UP BND       X_T65U6  1
 UP BND       X_T65U7  1
 UP BND       X_T65U8  1
 UP BND       X_T65U9  1
 UP BND       X_T65U10  1
 UP BND       X_T65U11  1
 UP BND       X_T65U12  1
 UP BND       X_T65U13  1
 UP BND       X_T65U14  1
 UP BND       X_T65U15  1
 UP BND       X_T65U16  1
 UP BND       X_T65U17  1
 UP BND       X_T65U18  1
 UP BND       X_T65U19  1
 UP BND       X_T65U20  1
 UP BND       X_T65U21  1
 UP BND       X_T65U22  1
 UP BND       X_T65U23  1
 UP BND       X_T65U24  1
 UP BND       X_T65U25  1
 UP BND       X_T65U26  1
 UP BND       X_T65U27  1
 UP BND       X_T65U28  1
 UP BND       X_T65U29  1
 UP BND       X_T65U30  1
 UP BND       X_T66U1  1
 UP BND       X_T66U2  1
 UP BND       X_T66U3  1
 UP BND       X_T66U4  1
 UP BND       X_T66U5  1
 UP BND       X_T66U6  1
 UP BND       X_T66U7  1
 UP BND       X_T66U8  1
 UP BND       X_T66U9  1
 UP BND       X_T66U10  1
 UP BND       X_T66U11  1
 UP BND       X_T66U12  1
 UP BND       X_T66U13  1
 UP BND       X_T66U14  1
 UP BND       X_T66U15  1
 UP BND       X_T66U16  1
 UP BND       X_T66U17  1
 UP BND       X_T66U18  1
 UP BND       X_T66U19  1
 UP BND       X_T66U20  1
 UP BND       X_T66U21  1
 UP BND       X_T66U22  1
 UP BND       X_T66U23  1
 UP BND       X_T66U24  1
 UP BND       X_T66U25  1
 UP BND       X_T66U26  1
 UP BND       X_T66U27  1
 UP BND       X_T66U28  1
 UP BND       X_T66U29  1
 UP BND       X_T66U30  1
 UP BND       X_T67U1  1
 UP BND       X_T67U2  1
 UP BND       X_T67U3  1
 UP BND       X_T67U4  1
 UP BND       X_T67U5  1
 UP BND       X_T67U6  1
 UP BND       X_T67U7  1
 UP BND       X_T67U8  1
 UP BND       X_T67U9  1
 UP BND       X_T67U10  1
 UP BND       X_T67U11  1
 UP BND       X_T67U12  1
 UP BND       X_T67U13  1
 UP BND       X_T67U14  1
 UP BND       X_T67U15  1
 UP BND       X_T67U16  1
 UP BND       X_T67U17  1
 UP BND       X_T67U18  1
 UP BND       X_T67U19  1
 UP BND       X_T67U20  1
 UP BND       X_T67U21  1
 UP BND       X_T67U22  1
 UP BND       X_T67U23  1
 UP BND       X_T67U24  1
 UP BND       X_T67U25  1
 UP BND       X_T67U26  1
 UP BND       X_T67U27  1
 UP BND       X_T67U28  1
 UP BND       X_T67U29  1
 UP BND       X_T67U30  1
 UP BND       X_T68U1  1
 UP BND       X_T68U2  1
 UP BND       X_T68U3  1
 UP BND       X_T68U4  1
 UP BND       X_T68U5  1
 UP BND       X_T68U6  1
 UP BND       X_T68U7  1
 UP BND       X_T68U8  1
 UP BND       X_T68U9  1
 UP BND       X_T68U10  1
 UP BND       X_T68U11  1
 UP BND       X_T68U12  1
 UP BND       X_T68U13  1
 UP BND       X_T68U14  1
 UP BND       X_T68U15  1
 UP BND       X_T68U16  1
 UP BND       X_T68U17  1
 UP BND       X_T68U18  1
 UP BND       X_T68U19  1
 UP BND       X_T68U20  1
 UP BND       X_T68U21  1
 UP BND       X_T68U22  1
 UP BND       X_T68U23  1
 UP BND       X_T68U24  1
 UP BND       X_T68U25  1
 UP BND       X_T68U26  1
 UP BND       X_T68U27  1
 UP BND       X_T68U28  1
 UP BND       X_T68U29  1
 UP BND       X_T68U30  1
 UP BND       X_T69U1  1
 UP BND       X_T69U2  1
 UP BND       X_T69U3  1
 UP BND       X_T69U4  1
 UP BND       X_T69U5  1
 UP BND       X_T69U6  1
 UP BND       X_T69U7  1
 UP BND       X_T69U8  1
 UP BND       X_T69U9  1
 UP BND       X_T69U10  1
 UP BND       X_T69U11  1
 UP BND       X_T69U12  1
 UP BND       X_T69U13  1
 UP BND       X_T69U14  1
 UP BND       X_T69U15  1
 UP BND       X_T69U16  1
 UP BND       X_T69U17  1
 UP BND       X_T69U18  1
 UP BND       X_T69U19  1
 UP BND       X_T69U20  1
 UP BND       X_T69U21  1
 UP BND       X_T69U22  1
 UP BND       X_T69U23  1
 UP BND       X_T69U24  1
 UP BND       X_T69U25  1
 UP BND       X_T69U26  1
 UP BND       X_T69U27  1
 UP BND       X_T69U28  1
 UP BND       X_T69U29  1
 UP BND       X_T69U30  1
 UP BND       X_T70U1  1
 UP BND       X_T70U2  1
 UP BND       X_T70U3  1
 UP BND       X_T70U4  1
 UP BND       X_T70U5  1
 UP BND       X_T70U6  1
 UP BND       X_T70U7  1
 UP BND       X_T70U8  1
 UP BND       X_T70U9  1
 UP BND       X_T70U10  1
 UP BND       X_T70U11  1
 UP BND       X_T70U12  1
 UP BND       X_T70U13  1
 UP BND       X_T70U14  1
 UP BND       X_T70U15  1
 UP BND       X_T70U16  1
 UP BND       X_T70U17  1
 UP BND       X_T70U18  1
 UP BND       X_T70U19  1
 UP BND       X_T70U20  1
 UP BND       X_T70U21  1
 UP BND       X_T70U22  1
 UP BND       X_T70U23  1
 UP BND       X_T70U24  1
 UP BND       X_T70U25  1
 UP BND       X_T70U26  1
 UP BND       X_T70U27  1
 UP BND       X_T70U28  1
 UP BND       X_T70U29  1
 UP BND       X_T70U30  1
 UP BND       X_T71U1  1
 UP BND       X_T71U2  1
 UP BND       X_T71U3  1
 UP BND       X_T71U4  1
 UP BND       X_T71U5  1
 UP BND       X_T71U6  1
 UP BND       X_T71U7  1
 UP BND       X_T71U8  1
 UP BND       X_T71U9  1
 UP BND       X_T71U10  1
 UP BND       X_T71U11  1
 UP BND       X_T71U12  1
 UP BND       X_T71U13  1
 UP BND       X_T71U14  1
 UP BND       X_T71U15  1
 UP BND       X_T71U16  1
 UP BND       X_T71U17  1
 UP BND       X_T71U18  1
 UP BND       X_T71U19  1
 UP BND       X_T71U20  1
 UP BND       X_T71U21  1
 UP BND       X_T71U22  1
 UP BND       X_T71U23  1
 UP BND       X_T71U24  1
 UP BND       X_T71U25  1
 UP BND       X_T71U26  1
 UP BND       X_T71U27  1
 UP BND       X_T71U28  1
 UP BND       X_T71U29  1
 UP BND       X_T71U30  1
 UP BND       X_T72U1  1
 UP BND       X_T72U2  1
 UP BND       X_T72U3  1
 UP BND       X_T72U4  1
 UP BND       X_T72U5  1
 UP BND       X_T72U6  1
 UP BND       X_T72U7  1
 UP BND       X_T72U8  1
 UP BND       X_T72U9  1
 UP BND       X_T72U10  1
 UP BND       X_T72U11  1
 UP BND       X_T72U12  1
 UP BND       X_T72U13  1
 UP BND       X_T72U14  1
 UP BND       X_T72U15  1
 UP BND       X_T72U16  1
 UP BND       X_T72U17  1
 UP BND       X_T72U18  1
 UP BND       X_T72U19  1
 UP BND       X_T72U20  1
 UP BND       X_T72U21  1
 UP BND       X_T72U22  1
 UP BND       X_T72U23  1
 UP BND       X_T72U24  1
 UP BND       X_T72U25  1
 UP BND       X_T72U26  1
 UP BND       X_T72U27  1
 UP BND       X_T72U28  1
 UP BND       X_T72U29  1
 UP BND       X_T72U30  1
 UP BND       X_T73U1  1
 UP BND       X_T73U2  1
 UP BND       X_T73U3  1
 UP BND       X_T73U4  1
 UP BND       X_T73U5  1
 UP BND       X_T73U6  1
 UP BND       X_T73U7  1
 UP BND       X_T73U8  1
 UP BND       X_T73U9  1
 UP BND       X_T73U10  1
 UP BND       X_T73U11  1
 UP BND       X_T73U12  1
 UP BND       X_T73U13  1
 UP BND       X_T73U14  1
 UP BND       X_T73U15  1
 UP BND       X_T73U16  1
 UP BND       X_T73U17  1
 UP BND       X_T73U18  1
 UP BND       X_T73U19  1
 UP BND       X_T73U20  1
 UP BND       X_T73U21  1
 UP BND       X_T73U22  1
 UP BND       X_T73U23  1
 UP BND       X_T73U24  1
 UP BND       X_T73U25  1
 UP BND       X_T73U26  1
 UP BND       X_T73U27  1
 UP BND       X_T73U28  1
 UP BND       X_T73U29  1
 UP BND       X_T73U30  1
 UP BND       X_T74U1  1
 UP BND       X_T74U2  1
 UP BND       X_T74U3  1
 UP BND       X_T74U4  1
 UP BND       X_T74U5  1
 UP BND       X_T74U6  1
 UP BND       X_T74U7  1
 UP BND       X_T74U8  1
 UP BND       X_T74U9  1
 UP BND       X_T74U10  1
 UP BND       X_T74U11  1
 UP BND       X_T74U12  1
 UP BND       X_T74U13  1
 UP BND       X_T74U14  1
 UP BND       X_T74U15  1
 UP BND       X_T74U16  1
 UP BND       X_T74U17  1
 UP BND       X_T74U18  1
 UP BND       X_T74U19  1
 UP BND       X_T74U20  1
 UP BND       X_T74U21  1
 UP BND       X_T74U22  1
 UP BND       X_T74U23  1
 UP BND       X_T74U24  1
 UP BND       X_T74U25  1
 UP BND       X_T74U26  1
 UP BND       X_T74U27  1
 UP BND       X_T74U28  1
 UP BND       X_T74U29  1
 UP BND       X_T74U30  1
 UP BND       X_T75U1  1
 UP BND       X_T75U2  1
 UP BND       X_T75U3  1
 UP BND       X_T75U4  1
 UP BND       X_T75U5  1
 UP BND       X_T75U6  1
 UP BND       X_T75U7  1
 UP BND       X_T75U8  1
 UP BND       X_T75U9  1
 UP BND       X_T75U10  1
 UP BND       X_T75U11  1
 UP BND       X_T75U12  1
 UP BND       X_T75U13  1
 UP BND       X_T75U14  1
 UP BND       X_T75U15  1
 UP BND       X_T75U16  1
 UP BND       X_T75U17  1
 UP BND       X_T75U18  1
 UP BND       X_T75U19  1
 UP BND       X_T75U20  1
 UP BND       X_T75U21  1
 UP BND       X_T75U22  1
 UP BND       X_T75U23  1
 UP BND       X_T75U24  1
 UP BND       X_T75U25  1
 UP BND       X_T75U26  1
 UP BND       X_T75U27  1
 UP BND       X_T75U28  1
 UP BND       X_T75U29  1
 UP BND       X_T75U30  1
 UP BND       X_T76U1  1
 UP BND       X_T76U2  1
 UP BND       X_T76U3  1
 UP BND       X_T76U4  1
 UP BND       X_T76U5  1
 UP BND       X_T76U6  1
 UP BND       X_T76U7  1
 UP BND       X_T76U8  1
 UP BND       X_T76U9  1
 UP BND       X_T76U10  1
 UP BND       X_T76U11  1
 UP BND       X_T76U12  1
 UP BND       X_T76U13  1
 UP BND       X_T76U14  1
 UP BND       X_T76U15  1
 UP BND       X_T76U16  1
 UP BND       X_T76U17  1
 UP BND       X_T76U18  1
 UP BND       X_T76U19  1
 UP BND       X_T76U20  1
 UP BND       X_T76U21  1
 UP BND       X_T76U22  1
 UP BND       X_T76U23  1
 UP BND       X_T76U24  1
 UP BND       X_T76U25  1
 UP BND       X_T76U26  1
 UP BND       X_T76U27  1
 UP BND       X_T76U28  1
 UP BND       X_T76U29  1
 UP BND       X_T76U30  1
 UP BND       X_T77U1  1
 UP BND       X_T77U2  1
 UP BND       X_T77U3  1
 UP BND       X_T77U4  1
 UP BND       X_T77U5  1
 UP BND       X_T77U6  1
 UP BND       X_T77U7  1
 UP BND       X_T77U8  1
 UP BND       X_T77U9  1
 UP BND       X_T77U10  1
 UP BND       X_T77U11  1
 UP BND       X_T77U12  1
 UP BND       X_T77U13  1
 UP BND       X_T77U14  1
 UP BND       X_T77U15  1
 UP BND       X_T77U16  1
 UP BND       X_T77U17  1
 UP BND       X_T77U18  1
 UP BND       X_T77U19  1
 UP BND       X_T77U20  1
 UP BND       X_T77U21  1
 UP BND       X_T77U22  1
 UP BND       X_T77U23  1
 UP BND       X_T77U24  1
 UP BND       X_T77U25  1
 UP BND       X_T77U26  1
 UP BND       X_T77U27  1
 UP BND       X_T77U28  1
 UP BND       X_T77U29  1
 UP BND       X_T77U30  1
 UP BND       X_T78U1  1
 UP BND       X_T78U2  1
 UP BND       X_T78U3  1
 UP BND       X_T78U4  1
 UP BND       X_T78U5  1
 UP BND       X_T78U6  1
 UP BND       X_T78U7  1
 UP BND       X_T78U8  1
 UP BND       X_T78U9  1
 UP BND       X_T78U10  1
 UP BND       X_T78U11  1
 UP BND       X_T78U12  1
 UP BND       X_T78U13  1
 UP BND       X_T78U14  1
 UP BND       X_T78U15  1
 UP BND       X_T78U16  1
 UP BND       X_T78U17  1
 UP BND       X_T78U18  1
 UP BND       X_T78U19  1
 UP BND       X_T78U20  1
 UP BND       X_T78U21  1
 UP BND       X_T78U22  1
 UP BND       X_T78U23  1
 UP BND       X_T78U24  1
 UP BND       X_T78U25  1
 UP BND       X_T78U26  1
 UP BND       X_T78U27  1
 UP BND       X_T78U28  1
 UP BND       X_T78U29  1
 UP BND       X_T78U30  1
 UP BND       X_T79U1  1
 UP BND       X_T79U2  1
 UP BND       X_T79U3  1
 UP BND       X_T79U4  1
 UP BND       X_T79U5  1
 UP BND       X_T79U6  1
 UP BND       X_T79U7  1
 UP BND       X_T79U8  1
 UP BND       X_T79U9  1
 UP BND       X_T79U10  1
 UP BND       X_T79U11  1
 UP BND       X_T79U12  1
 UP BND       X_T79U13  1
 UP BND       X_T79U14  1
 UP BND       X_T79U15  1
 UP BND       X_T79U16  1
 UP BND       X_T79U17  1
 UP BND       X_T79U18  1
 UP BND       X_T79U19  1
 UP BND       X_T79U20  1
 UP BND       X_T79U21  1
 UP BND       X_T79U22  1
 UP BND       X_T79U23  1
 UP BND       X_T79U24  1
 UP BND       X_T79U25  1
 UP BND       X_T79U26  1
 UP BND       X_T79U27  1
 UP BND       X_T79U28  1
 UP BND       X_T79U29  1
 UP BND       X_T79U30  1
 UP BND       X_T80U1  1
 UP BND       X_T80U2  1
 UP BND       X_T80U3  1
 UP BND       X_T80U4  1
 UP BND       X_T80U5  1
 UP BND       X_T80U6  1
 UP BND       X_T80U7  1
 UP BND       X_T80U8  1
 UP BND       X_T80U9  1
 UP BND       X_T80U10  1
 UP BND       X_T80U11  1
 UP BND       X_T80U12  1
 UP BND       X_T80U13  1
 UP BND       X_T80U14  1
 UP BND       X_T80U15  1
 UP BND       X_T80U16  1
 UP BND       X_T80U17  1
 UP BND       X_T80U18  1
 UP BND       X_T80U19  1
 UP BND       X_T80U20  1
 UP BND       X_T80U21  1
 UP BND       X_T80U22  1
 UP BND       X_T80U23  1
 UP BND       X_T80U24  1
 UP BND       X_T80U25  1
 UP BND       X_T80U26  1
 UP BND       X_T80U27  1
 UP BND       X_T80U28  1
 UP BND       X_T80U29  1
 UP BND       X_T80U30  1
 UP BND       X_T81U1  1
 UP BND       X_T81U2  1
 UP BND       X_T81U3  1
 UP BND       X_T81U4  1
 UP BND       X_T81U5  1
 UP BND       X_T81U6  1
 UP BND       X_T81U7  1
 UP BND       X_T81U8  1
 UP BND       X_T81U9  1
 UP BND       X_T81U10  1
 UP BND       X_T81U11  1
 UP BND       X_T81U12  1
 UP BND       X_T81U13  1
 UP BND       X_T81U14  1
 UP BND       X_T81U15  1
 UP BND       X_T81U16  1
 UP BND       X_T81U17  1
 UP BND       X_T81U18  1
 UP BND       X_T81U19  1
 UP BND       X_T81U20  1
 UP BND       X_T81U21  1
 UP BND       X_T81U22  1
 UP BND       X_T81U23  1
 UP BND       X_T81U24  1
 UP BND       X_T81U25  1
 UP BND       X_T81U26  1
 UP BND       X_T81U27  1
 UP BND       X_T81U28  1
 UP BND       X_T81U29  1
 UP BND       X_T81U30  1
 UP BND       X_T82U1  1
 UP BND       X_T82U2  1
 UP BND       X_T82U3  1
 UP BND       X_T82U4  1
 UP BND       X_T82U5  1
 UP BND       X_T82U6  1
 UP BND       X_T82U7  1
 UP BND       X_T82U8  1
 UP BND       X_T82U9  1
 UP BND       X_T82U10  1
 UP BND       X_T82U11  1
 UP BND       X_T82U12  1
 UP BND       X_T82U13  1
 UP BND       X_T82U14  1
 UP BND       X_T82U15  1
 UP BND       X_T82U16  1
 UP BND       X_T82U17  1
 UP BND       X_T82U18  1
 UP BND       X_T82U19  1
 UP BND       X_T82U20  1
 UP BND       X_T82U21  1
 UP BND       X_T82U22  1
 UP BND       X_T82U23  1
 UP BND       X_T82U24  1
 UP BND       X_T82U25  1
 UP BND       X_T82U26  1
 UP BND       X_T82U27  1
 UP BND       X_T82U28  1
 UP BND       X_T82U29  1
 UP BND       X_T82U30  1
 UP BND       X_T83U1  1
 UP BND       X_T83U2  1
 UP BND       X_T83U3  1
 UP BND       X_T83U4  1
 UP BND       X_T83U5  1
 UP BND       X_T83U6  1
 UP BND       X_T83U7  1
 UP BND       X_T83U8  1
 UP BND       X_T83U9  1
 UP BND       X_T83U10  1
 UP BND       X_T83U11  1
 UP BND       X_T83U12  1
 UP BND       X_T83U13  1
 UP BND       X_T83U14  1
 UP BND       X_T83U15  1
 UP BND       X_T83U16  1
 UP BND       X_T83U17  1
 UP BND       X_T83U18  1
 UP BND       X_T83U19  1
 UP BND       X_T83U20  1
 UP BND       X_T83U21  1
 UP BND       X_T83U22  1
 UP BND       X_T83U23  1
 UP BND       X_T83U24  1
 UP BND       X_T83U25  1
 UP BND       X_T83U26  1
 UP BND       X_T83U27  1
 UP BND       X_T83U28  1
 UP BND       X_T83U29  1
 UP BND       X_T83U30  1
 UP BND       X_T84U1  1
 UP BND       X_T84U2  1
 UP BND       X_T84U3  1
 UP BND       X_T84U4  1
 UP BND       X_T84U5  1
 UP BND       X_T84U6  1
 UP BND       X_T84U7  1
 UP BND       X_T84U8  1
 UP BND       X_T84U9  1
 UP BND       X_T84U10  1
 UP BND       X_T84U11  1
 UP BND       X_T84U12  1
 UP BND       X_T84U13  1
 UP BND       X_T84U14  1
 UP BND       X_T84U15  1
 UP BND       X_T84U16  1
 UP BND       X_T84U17  1
 UP BND       X_T84U18  1
 UP BND       X_T84U19  1
 UP BND       X_T84U20  1
 UP BND       X_T84U21  1
 UP BND       X_T84U22  1
 UP BND       X_T84U23  1
 UP BND       X_T84U24  1
 UP BND       X_T84U25  1
 UP BND       X_T84U26  1
 UP BND       X_T84U27  1
 UP BND       X_T84U28  1
 UP BND       X_T84U29  1
 UP BND       X_T84U30  1
 UP BND       X_T85U1  1
 UP BND       X_T85U2  1
 UP BND       X_T85U3  1
 UP BND       X_T85U4  1
 UP BND       X_T85U5  1
 UP BND       X_T85U6  1
 UP BND       X_T85U7  1
 UP BND       X_T85U8  1
 UP BND       X_T85U9  1
 UP BND       X_T85U10  1
 UP BND       X_T85U11  1
 UP BND       X_T85U12  1
 UP BND       X_T85U13  1
 UP BND       X_T85U14  1
 UP BND       X_T85U15  1
 UP BND       X_T85U16  1
 UP BND       X_T85U17  1
 UP BND       X_T85U18  1
 UP BND       X_T85U19  1
 UP BND       X_T85U20  1
 UP BND       X_T85U21  1
 UP BND       X_T85U22  1
 UP BND       X_T85U23  1
 UP BND       X_T85U24  1
 UP BND       X_T85U25  1
 UP BND       X_T85U26  1
 UP BND       X_T85U27  1
 UP BND       X_T85U28  1
 UP BND       X_T85U29  1
 UP BND       X_T85U30  1
 UP BND       X_T86U1  1
 UP BND       X_T86U2  1
 UP BND       X_T86U3  1
 UP BND       X_T86U4  1
 UP BND       X_T86U5  1
 UP BND       X_T86U6  1
 UP BND       X_T86U7  1
 UP BND       X_T86U8  1
 UP BND       X_T86U9  1
 UP BND       X_T86U10  1
 UP BND       X_T86U11  1
 UP BND       X_T86U12  1
 UP BND       X_T86U13  1
 UP BND       X_T86U14  1
 UP BND       X_T86U15  1
 UP BND       X_T86U16  1
 UP BND       X_T86U17  1
 UP BND       X_T86U18  1
 UP BND       X_T86U19  1
 UP BND       X_T86U20  1
 UP BND       X_T86U21  1
 UP BND       X_T86U22  1
 UP BND       X_T86U23  1
 UP BND       X_T86U24  1
 UP BND       X_T86U25  1
 UP BND       X_T86U26  1
 UP BND       X_T86U27  1
 UP BND       X_T86U28  1
 UP BND       X_T86U29  1
 UP BND       X_T86U30  1
 UP BND       X_T87U1  1
 UP BND       X_T87U2  1
 UP BND       X_T87U3  1
 UP BND       X_T87U4  1
 UP BND       X_T87U5  1
 UP BND       X_T87U6  1
 UP BND       X_T87U7  1
 UP BND       X_T87U8  1
 UP BND       X_T87U9  1
 UP BND       X_T87U10  1
 UP BND       X_T87U11  1
 UP BND       X_T87U12  1
 UP BND       X_T87U13  1
 UP BND       X_T87U14  1
 UP BND       X_T87U15  1
 UP BND       X_T87U16  1
 UP BND       X_T87U17  1
 UP BND       X_T87U18  1
 UP BND       X_T87U19  1
 UP BND       X_T87U20  1
 UP BND       X_T87U21  1
 UP BND       X_T87U22  1
 UP BND       X_T87U23  1
 UP BND       X_T87U24  1
 UP BND       X_T87U25  1
 UP BND       X_T87U26  1
 UP BND       X_T87U27  1
 UP BND       X_T87U28  1
 UP BND       X_T87U29  1
 UP BND       X_T87U30  1
 UP BND       X_T88U1  1
 UP BND       X_T88U2  1
 UP BND       X_T88U3  1
 UP BND       X_T88U4  1
 UP BND       X_T88U5  1
 UP BND       X_T88U6  1
 UP BND       X_T88U7  1
 UP BND       X_T88U8  1
 UP BND       X_T88U9  1
 UP BND       X_T88U10  1
 UP BND       X_T88U11  1
 UP BND       X_T88U12  1
 UP BND       X_T88U13  1
 UP BND       X_T88U14  1
 UP BND       X_T88U15  1
 UP BND       X_T88U16  1
 UP BND       X_T88U17  1
 UP BND       X_T88U18  1
 UP BND       X_T88U19  1
 UP BND       X_T88U20  1
 UP BND       X_T88U21  1
 UP BND       X_T88U22  1
 UP BND       X_T88U23  1
 UP BND       X_T88U24  1
 UP BND       X_T88U25  1
 UP BND       X_T88U26  1
 UP BND       X_T88U27  1
 UP BND       X_T88U28  1
 UP BND       X_T88U29  1
 UP BND       X_T88U30  1
 UP BND       X_T89U1  1
 UP BND       X_T89U2  1
 UP BND       X_T89U3  1
 UP BND       X_T89U4  1
 UP BND       X_T89U5  1
 UP BND       X_T89U6  1
 UP BND       X_T89U7  1
 UP BND       X_T89U8  1
 UP BND       X_T89U9  1
 UP BND       X_T89U10  1
 UP BND       X_T89U11  1
 UP BND       X_T89U12  1
 UP BND       X_T89U13  1
 UP BND       X_T89U14  1
 UP BND       X_T89U15  1
 UP BND       X_T89U16  1
 UP BND       X_T89U17  1
 UP BND       X_T89U18  1
 UP BND       X_T89U19  1
 UP BND       X_T89U20  1
 UP BND       X_T89U21  1
 UP BND       X_T89U22  1
 UP BND       X_T89U23  1
 UP BND       X_T89U24  1
 UP BND       X_T89U25  1
 UP BND       X_T89U26  1
 UP BND       X_T89U27  1
 UP BND       X_T89U28  1
 UP BND       X_T89U29  1
 UP BND       X_T89U30  1
 UP BND       X_T90U1  1
 UP BND       X_T90U2  1
 UP BND       X_T90U3  1
 UP BND       X_T90U4  1
 UP BND       X_T90U5  1
 UP BND       X_T90U6  1
 UP BND       X_T90U7  1
 UP BND       X_T90U8  1
 UP BND       X_T90U9  1
 UP BND       X_T90U10  1
 UP BND       X_T90U11  1
 UP BND       X_T90U12  1
 UP BND       X_T90U13  1
 UP BND       X_T90U14  1
 UP BND       X_T90U15  1
 UP BND       X_T90U16  1
 UP BND       X_T90U17  1
 UP BND       X_T90U18  1
 UP BND       X_T90U19  1
 UP BND       X_T90U20  1
 UP BND       X_T90U21  1
 UP BND       X_T90U22  1
 UP BND       X_T90U23  1
 UP BND       X_T90U24  1
 UP BND       X_T90U25  1
 UP BND       X_T90U26  1
 UP BND       X_T90U27  1
 UP BND       X_T90U28  1
 UP BND       X_T90U29  1
 UP BND       X_T90U30  1
 UP BND       X_T91U1  1
 UP BND       X_T91U2  1
 UP BND       X_T91U3  1
 UP BND       X_T91U4  1
 UP BND       X_T91U5  1
 UP BND       X_T91U6  1
 UP BND       X_T91U7  1
 UP BND       X_T91U8  1
 UP BND       X_T91U9  1
 UP BND       X_T91U10  1
 UP BND       X_T91U11  1
 UP BND       X_T91U12  1
 UP BND       X_T91U13  1
 UP BND       X_T91U14  1
 UP BND       X_T91U15  1
 UP BND       X_T91U16  1
 UP BND       X_T91U17  1
 UP BND       X_T91U18  1
 UP BND       X_T91U19  1
 UP BND       X_T91U20  1
 UP BND       X_T91U21  1
 UP BND       X_T91U22  1
 UP BND       X_T91U23  1
 UP BND       X_T91U24  1
 UP BND       X_T91U25  1
 UP BND       X_T91U26  1
 UP BND       X_T91U27  1
 UP BND       X_T91U28  1
 UP BND       X_T91U29  1
 UP BND       X_T91U30  1
 UP BND       X_T92U1  1
 UP BND       X_T92U2  1
 UP BND       X_T92U3  1
 UP BND       X_T92U4  1
 UP BND       X_T92U5  1
 UP BND       X_T92U6  1
 UP BND       X_T92U7  1
 UP BND       X_T92U8  1
 UP BND       X_T92U9  1
 UP BND       X_T92U10  1
 UP BND       X_T92U11  1
 UP BND       X_T92U12  1
 UP BND       X_T92U13  1
 UP BND       X_T92U14  1
 UP BND       X_T92U15  1
 UP BND       X_T92U16  1
 UP BND       X_T92U17  1
 UP BND       X_T92U18  1
 UP BND       X_T92U19  1
 UP BND       X_T92U20  1
 UP BND       X_T92U21  1
 UP BND       X_T92U22  1
 UP BND       X_T92U23  1
 UP BND       X_T92U24  1
 UP BND       X_T92U25  1
 UP BND       X_T92U26  1
 UP BND       X_T92U27  1
 UP BND       X_T92U28  1
 UP BND       X_T92U29  1
 UP BND       X_T92U30  1
 UP BND       X_T93U1  1
 UP BND       X_T93U2  1
 UP BND       X_T93U3  1
 UP BND       X_T93U4  1
 UP BND       X_T93U5  1
 UP BND       X_T93U6  1
 UP BND       X_T93U7  1
 UP BND       X_T93U8  1
 UP BND       X_T93U9  1
 UP BND       X_T93U10  1
 UP BND       X_T93U11  1
 UP BND       X_T93U12  1
 UP BND       X_T93U13  1
 UP BND       X_T93U14  1
 UP BND       X_T93U15  1
 UP BND       X_T93U16  1
 UP BND       X_T93U17  1
 UP BND       X_T93U18  1
 UP BND       X_T93U19  1
 UP BND       X_T93U20  1
 UP BND       X_T93U21  1
 UP BND       X_T93U22  1
 UP BND       X_T93U23  1
 UP BND       X_T93U24  1
 UP BND       X_T93U25  1
 UP BND       X_T93U26  1
 UP BND       X_T93U27  1
 UP BND       X_T93U28  1
 UP BND       X_T93U29  1
 UP BND       X_T93U30  1
 UP BND       X_T94U1  1
 UP BND       X_T94U2  1
 UP BND       X_T94U3  1
 UP BND       X_T94U4  1
 UP BND       X_T94U5  1
 UP BND       X_T94U6  1
 UP BND       X_T94U7  1
 UP BND       X_T94U8  1
 UP BND       X_T94U9  1
 UP BND       X_T94U10  1
 UP BND       X_T94U11  1
 UP BND       X_T94U12  1
 UP BND       X_T94U13  1
 UP BND       X_T94U14  1
 UP BND       X_T94U15  1
 UP BND       X_T94U16  1
 UP BND       X_T94U17  1
 UP BND       X_T94U18  1
 UP BND       X_T94U19  1
 UP BND       X_T94U20  1
 UP BND       X_T94U21  1
 UP BND       X_T94U22  1
 UP BND       X_T94U23  1
 UP BND       X_T94U24  1
 UP BND       X_T94U25  1
 UP BND       X_T94U26  1
 UP BND       X_T94U27  1
 UP BND       X_T94U28  1
 UP BND       X_T94U29  1
 UP BND       X_T94U30  1
 UP BND       X_T95U1  1
 UP BND       X_T95U2  1
 UP BND       X_T95U3  1
 UP BND       X_T95U4  1
 UP BND       X_T95U5  1
 UP BND       X_T95U6  1
 UP BND       X_T95U7  1
 UP BND       X_T95U8  1
 UP BND       X_T95U9  1
 UP BND       X_T95U10  1
 UP BND       X_T95U11  1
 UP BND       X_T95U12  1
 UP BND       X_T95U13  1
 UP BND       X_T95U14  1
 UP BND       X_T95U15  1
 UP BND       X_T95U16  1
 UP BND       X_T95U17  1
 UP BND       X_T95U18  1
 UP BND       X_T95U19  1
 UP BND       X_T95U20  1
 UP BND       X_T95U21  1
 UP BND       X_T95U22  1
 UP BND       X_T95U23  1
 UP BND       X_T95U24  1
 UP BND       X_T95U25  1
 UP BND       X_T95U26  1
 UP BND       X_T95U27  1
 UP BND       X_T95U28  1
 UP BND       X_T95U29  1
 UP BND       X_T95U30  1
 UP BND       X_T96U1  1
 UP BND       X_T96U2  1
 UP BND       X_T96U3  1
 UP BND       X_T96U4  1
 UP BND       X_T96U5  1
 UP BND       X_T96U6  1
 UP BND       X_T96U7  1
 UP BND       X_T96U8  1
 UP BND       X_T96U9  1
 UP BND       X_T96U10  1
 UP BND       X_T96U11  1
 UP BND       X_T96U12  1
 UP BND       X_T96U13  1
 UP BND       X_T96U14  1
 UP BND       X_T96U15  1
 UP BND       X_T96U16  1
 UP BND       X_T96U17  1
 UP BND       X_T96U18  1
 UP BND       X_T96U19  1
 UP BND       X_T96U20  1
 UP BND       X_T96U21  1
 UP BND       X_T96U22  1
 UP BND       X_T96U23  1
 UP BND       X_T96U24  1
 UP BND       X_T96U25  1
 UP BND       X_T96U26  1
 UP BND       X_T96U27  1
 UP BND       X_T96U28  1
 UP BND       X_T96U29  1
 UP BND       X_T96U30  1
 UP BND       X_T97U1  1
 UP BND       X_T97U2  1
 UP BND       X_T97U3  1
 UP BND       X_T97U4  1
 UP BND       X_T97U5  1
 UP BND       X_T97U6  1
 UP BND       X_T97U7  1
 UP BND       X_T97U8  1
 UP BND       X_T97U9  1
 UP BND       X_T97U10  1
 UP BND       X_T97U11  1
 UP BND       X_T97U12  1
 UP BND       X_T97U13  1
 UP BND       X_T97U14  1
 UP BND       X_T97U15  1
 UP BND       X_T97U16  1
 UP BND       X_T97U17  1
 UP BND       X_T97U18  1
 UP BND       X_T97U19  1
 UP BND       X_T97U20  1
 UP BND       X_T97U21  1
 UP BND       X_T97U22  1
 UP BND       X_T97U23  1
 UP BND       X_T97U24  1
 UP BND       X_T97U25  1
 UP BND       X_T97U26  1
 UP BND       X_T97U27  1
 UP BND       X_T97U28  1
 UP BND       X_T97U29  1
 UP BND       X_T97U30  1
 UP BND       X_T98U1  1
 UP BND       X_T98U2  1
 UP BND       X_T98U3  1
 UP BND       X_T98U4  1
 UP BND       X_T98U5  1
 UP BND       X_T98U6  1
 UP BND       X_T98U7  1
 UP BND       X_T98U8  1
 UP BND       X_T98U9  1
 UP BND       X_T98U10  1
 UP BND       X_T98U11  1
 UP BND       X_T98U12  1
 UP BND       X_T98U13  1
 UP BND       X_T98U14  1
 UP BND       X_T98U15  1
 UP BND       X_T98U16  1
 UP BND       X_T98U17  1
 UP BND       X_T98U18  1
 UP BND       X_T98U19  1
 UP BND       X_T98U20  1
 UP BND       X_T98U21  1
 UP BND       X_T98U22  1
 UP BND       X_T98U23  1
 UP BND       X_T98U24  1
 UP BND       X_T98U25  1
 UP BND       X_T98U26  1
 UP BND       X_T98U27  1
 UP BND       X_T98U28  1
 UP BND       X_T98U29  1
 UP BND       X_T98U30  1
 UP BND       X_T99U1  1
 UP BND       X_T99U2  1
 UP BND       X_T99U3  1
 UP BND       X_T99U4  1
 UP BND       X_T99U5  1
 UP BND       X_T99U6  1
 UP BND       X_T99U7  1
 UP BND       X_T99U8  1
 UP BND       X_T99U9  1
 UP BND       X_T99U10  1
 UP BND       X_T99U11  1
 UP BND       X_T99U12  1
 UP BND       X_T99U13  1
 UP BND       X_T99U14  1
 UP BND       X_T99U15  1
 UP BND       X_T99U16  1
 UP BND       X_T99U17  1
 UP BND       X_T99U18  1
 UP BND       X_T99U19  1
 UP BND       X_T99U20  1
 UP BND       X_T99U21  1
 UP BND       X_T99U22  1
 UP BND       X_T99U23  1
 UP BND       X_T99U24  1
 UP BND       X_T99U25  1
 UP BND       X_T99U26  1
 UP BND       X_T99U27  1
 UP BND       X_T99U28  1
 UP BND       X_T99U29  1
 UP BND       X_T99U30  1
 UP BND       X_T100U1  1
 UP BND       X_T100U2  1
 UP BND       X_T100U3  1
 UP BND       X_T100U4  1
 UP BND       X_T100U5  1
 UP BND       X_T100U6  1
 UP BND       X_T100U7  1
 UP BND       X_T100U8  1
 UP BND       X_T100U9  1
 UP BND       X_T100U10  1
 UP BND       X_T100U11  1
 UP BND       X_T100U12  1
 UP BND       X_T100U13  1
 UP BND       X_T100U14  1
 UP BND       X_T100U15  1
 UP BND       X_T100U16  1
 UP BND       X_T100U17  1
 UP BND       X_T100U18  1
 UP BND       X_T100U19  1
 UP BND       X_T100U20  1
 UP BND       X_T100U21  1
 UP BND       X_T100U22  1
 UP BND       X_T100U23  1
 UP BND       X_T100U24  1
 UP BND       X_T100U25  1
 UP BND       X_T100U26  1
 UP BND       X_T100U27  1
 UP BND       X_T100U28  1
 UP BND       X_T100U29  1
 UP BND       X_T100U30  1
 UP BND       X_T101U1  1
 UP BND       X_T101U2  1
 UP BND       X_T101U3  1
 UP BND       X_T101U4  1
 UP BND       X_T101U5  1
 UP BND       X_T101U6  1
 UP BND       X_T101U7  1
 UP BND       X_T101U8  1
 UP BND       X_T101U9  1
 UP BND       X_T101U10  1
 UP BND       X_T101U11  1
 UP BND       X_T101U12  1
 UP BND       X_T101U13  1
 UP BND       X_T101U14  1
 UP BND       X_T101U15  1
 UP BND       X_T101U16  1
 UP BND       X_T101U17  1
 UP BND       X_T101U18  1
 UP BND       X_T101U19  1
 UP BND       X_T101U20  1
 UP BND       X_T101U21  1
 UP BND       X_T101U22  1
 UP BND       X_T101U23  1
 UP BND       X_T101U24  1
 UP BND       X_T101U25  1
 UP BND       X_T101U26  1
 UP BND       X_T101U27  1
 UP BND       X_T101U28  1
 UP BND       X_T101U29  1
 UP BND       X_T101U30  1
 UP BND       X_T102U1  1
 UP BND       X_T102U2  1
 UP BND       X_T102U3  1
 UP BND       X_T102U4  1
 UP BND       X_T102U5  1
 UP BND       X_T102U6  1
 UP BND       X_T102U7  1
 UP BND       X_T102U8  1
 UP BND       X_T102U9  1
 UP BND       X_T102U10  1
 UP BND       X_T102U11  1
 UP BND       X_T102U12  1
 UP BND       X_T102U13  1
 UP BND       X_T102U14  1
 UP BND       X_T102U15  1
 UP BND       X_T102U16  1
 UP BND       X_T102U17  1
 UP BND       X_T102U18  1
 UP BND       X_T102U19  1
 UP BND       X_T102U20  1
 UP BND       X_T102U21  1
 UP BND       X_T102U22  1
 UP BND       X_T102U23  1
 UP BND       X_T102U24  1
 UP BND       X_T102U25  1
 UP BND       X_T102U26  1
 UP BND       X_T102U27  1
 UP BND       X_T102U28  1
 UP BND       X_T102U29  1
 UP BND       X_T102U30  1
 UP BND       X_T103U1  1
 UP BND       X_T103U2  1
 UP BND       X_T103U3  1
 UP BND       X_T103U4  1
 UP BND       X_T103U5  1
 UP BND       X_T103U6  1
 UP BND       X_T103U7  1
 UP BND       X_T103U8  1
 UP BND       X_T103U9  1
 UP BND       X_T103U10  1
 UP BND       X_T103U11  1
 UP BND       X_T103U12  1
 UP BND       X_T103U13  1
 UP BND       X_T103U14  1
 UP BND       X_T103U15  1
 UP BND       X_T103U16  1
 UP BND       X_T103U17  1
 UP BND       X_T103U18  1
 UP BND       X_T103U19  1
 UP BND       X_T103U20  1
 UP BND       X_T103U21  1
 UP BND       X_T103U22  1
 UP BND       X_T103U23  1
 UP BND       X_T103U24  1
 UP BND       X_T103U25  1
 UP BND       X_T103U26  1
 UP BND       X_T103U27  1
 UP BND       X_T103U28  1
 UP BND       X_T103U29  1
 UP BND       X_T103U30  1
 UP BND       X_T104U1  1
 UP BND       X_T104U2  1
 UP BND       X_T104U3  1
 UP BND       X_T104U4  1
 UP BND       X_T104U5  1
 UP BND       X_T104U6  1
 UP BND       X_T104U7  1
 UP BND       X_T104U8  1
 UP BND       X_T104U9  1
 UP BND       X_T104U10  1
 UP BND       X_T104U11  1
 UP BND       X_T104U12  1
 UP BND       X_T104U13  1
 UP BND       X_T104U14  1
 UP BND       X_T104U15  1
 UP BND       X_T104U16  1
 UP BND       X_T104U17  1
 UP BND       X_T104U18  1
 UP BND       X_T104U19  1
 UP BND       X_T104U20  1
 UP BND       X_T104U21  1
 UP BND       X_T104U22  1
 UP BND       X_T104U23  1
 UP BND       X_T104U24  1
 UP BND       X_T104U25  1
 UP BND       X_T104U26  1
 UP BND       X_T104U27  1
 UP BND       X_T104U28  1
 UP BND       X_T104U29  1
 UP BND       X_T104U30  1
 UP BND       X_T105U1  1
 UP BND       X_T105U2  1
 UP BND       X_T105U3  1
 UP BND       X_T105U4  1
 UP BND       X_T105U5  1
 UP BND       X_T105U6  1
 UP BND       X_T105U7  1
 UP BND       X_T105U8  1
 UP BND       X_T105U9  1
 UP BND       X_T105U10  1
 UP BND       X_T105U11  1
 UP BND       X_T105U12  1
 UP BND       X_T105U13  1
 UP BND       X_T105U14  1
 UP BND       X_T105U15  1
 UP BND       X_T105U16  1
 UP BND       X_T105U17  1
 UP BND       X_T105U18  1
 UP BND       X_T105U19  1
 UP BND       X_T105U20  1
 UP BND       X_T105U21  1
 UP BND       X_T105U22  1
 UP BND       X_T105U23  1
 UP BND       X_T105U24  1
 UP BND       X_T105U25  1
 UP BND       X_T105U26  1
 UP BND       X_T105U27  1
 UP BND       X_T105U28  1
 UP BND       X_T105U29  1
 UP BND       X_T105U30  1
 UP BND       X_T106U1  1
 UP BND       X_T106U2  1
 UP BND       X_T106U3  1
 UP BND       X_T106U4  1
 UP BND       X_T106U5  1
 UP BND       X_T106U6  1
 UP BND       X_T106U7  1
 UP BND       X_T106U8  1
 UP BND       X_T106U9  1
 UP BND       X_T106U10  1
 UP BND       X_T106U11  1
 UP BND       X_T106U12  1
 UP BND       X_T106U13  1
 UP BND       X_T106U14  1
 UP BND       X_T106U15  1
 UP BND       X_T106U16  1
 UP BND       X_T106U17  1
 UP BND       X_T106U18  1
 UP BND       X_T106U19  1
 UP BND       X_T106U20  1
 UP BND       X_T106U21  1
 UP BND       X_T106U22  1
 UP BND       X_T106U23  1
 UP BND       X_T106U24  1
 UP BND       X_T106U25  1
 UP BND       X_T106U26  1
 UP BND       X_T106U27  1
 UP BND       X_T106U28  1
 UP BND       X_T106U29  1
 UP BND       X_T106U30  1
 UP BND       X_T107U1  1
 UP BND       X_T107U2  1
 UP BND       X_T107U3  1
 UP BND       X_T107U4  1
 UP BND       X_T107U5  1
 UP BND       X_T107U6  1
 UP BND       X_T107U7  1
 UP BND       X_T107U8  1
 UP BND       X_T107U9  1
 UP BND       X_T107U10  1
 UP BND       X_T107U11  1
 UP BND       X_T107U12  1
 UP BND       X_T107U13  1
 UP BND       X_T107U14  1
 UP BND       X_T107U15  1
 UP BND       X_T107U16  1
 UP BND       X_T107U17  1
 UP BND       X_T107U18  1
 UP BND       X_T107U19  1
 UP BND       X_T107U20  1
 UP BND       X_T107U21  1
 UP BND       X_T107U22  1
 UP BND       X_T107U23  1
 UP BND       X_T107U24  1
 UP BND       X_T107U25  1
 UP BND       X_T107U26  1
 UP BND       X_T107U27  1
 UP BND       X_T107U28  1
 UP BND       X_T107U29  1
 UP BND       X_T107U30  1
 UP BND       X_T108U1  1
 UP BND       X_T108U2  1
 UP BND       X_T108U3  1
 UP BND       X_T108U4  1
 UP BND       X_T108U5  1
 UP BND       X_T108U6  1
 UP BND       X_T108U7  1
 UP BND       X_T108U8  1
 UP BND       X_T108U9  1
 UP BND       X_T108U10  1
 UP BND       X_T108U11  1
 UP BND       X_T108U12  1
 UP BND       X_T108U13  1
 UP BND       X_T108U14  1
 UP BND       X_T108U15  1
 UP BND       X_T108U16  1
 UP BND       X_T108U17  1
 UP BND       X_T108U18  1
 UP BND       X_T108U19  1
 UP BND       X_T108U20  1
 UP BND       X_T108U21  1
 UP BND       X_T108U22  1
 UP BND       X_T108U23  1
 UP BND       X_T108U24  1
 UP BND       X_T108U25  1
 UP BND       X_T108U26  1
 UP BND       X_T108U27  1
 UP BND       X_T108U28  1
 UP BND       X_T108U29  1
 UP BND       X_T108U30  1
 UP BND       X_T109U1  1
 UP BND       X_T109U2  1
 UP BND       X_T109U3  1
 UP BND       X_T109U4  1
 UP BND       X_T109U5  1
 UP BND       X_T109U6  1
 UP BND       X_T109U7  1
 UP BND       X_T109U8  1
 UP BND       X_T109U9  1
 UP BND       X_T109U10  1
 UP BND       X_T109U11  1
 UP BND       X_T109U12  1
 UP BND       X_T109U13  1
 UP BND       X_T109U14  1
 UP BND       X_T109U15  1
 UP BND       X_T109U16  1
 UP BND       X_T109U17  1
 UP BND       X_T109U18  1
 UP BND       X_T109U19  1
 UP BND       X_T109U20  1
 UP BND       X_T109U21  1
 UP BND       X_T109U22  1
 UP BND       X_T109U23  1
 UP BND       X_T109U24  1
 UP BND       X_T109U25  1
 UP BND       X_T109U26  1
 UP BND       X_T109U27  1
 UP BND       X_T109U28  1
 UP BND       X_T109U29  1
 UP BND       X_T109U30  1
 UP BND       X_T110U1  1
 UP BND       X_T110U2  1
 UP BND       X_T110U3  1
 UP BND       X_T110U4  1
 UP BND       X_T110U5  1
 UP BND       X_T110U6  1
 UP BND       X_T110U7  1
 UP BND       X_T110U8  1
 UP BND       X_T110U9  1
 UP BND       X_T110U10  1
 UP BND       X_T110U11  1
 UP BND       X_T110U12  1
 UP BND       X_T110U13  1
 UP BND       X_T110U14  1
 UP BND       X_T110U15  1
 UP BND       X_T110U16  1
 UP BND       X_T110U17  1
 UP BND       X_T110U18  1
 UP BND       X_T110U19  1
 UP BND       X_T110U20  1
 UP BND       X_T110U21  1
 UP BND       X_T110U22  1
 UP BND       X_T110U23  1
 UP BND       X_T110U24  1
 UP BND       X_T110U25  1
 UP BND       X_T110U26  1
 UP BND       X_T110U27  1
 UP BND       X_T110U28  1
 UP BND       X_T110U29  1
 UP BND       X_T110U30  1
 UP BND       X_T111U1  1
 UP BND       X_T111U2  1
 UP BND       X_T111U3  1
 UP BND       X_T111U4  1
 UP BND       X_T111U5  1
 UP BND       X_T111U6  1
 UP BND       X_T111U7  1
 UP BND       X_T111U8  1
 UP BND       X_T111U9  1
 UP BND       X_T111U10  1
 UP BND       X_T111U11  1
 UP BND       X_T111U12  1
 UP BND       X_T111U13  1
 UP BND       X_T111U14  1
 UP BND       X_T111U15  1
 UP BND       X_T111U16  1
 UP BND       X_T111U17  1
 UP BND       X_T111U18  1
 UP BND       X_T111U19  1
 UP BND       X_T111U20  1
 UP BND       X_T111U21  1
 UP BND       X_T111U22  1
 UP BND       X_T111U23  1
 UP BND       X_T111U24  1
 UP BND       X_T111U25  1
 UP BND       X_T111U26  1
 UP BND       X_T111U27  1
 UP BND       X_T111U28  1
 UP BND       X_T111U29  1
 UP BND       X_T111U30  1
 UP BND       X_T112U1  1
 UP BND       X_T112U2  1
 UP BND       X_T112U3  1
 UP BND       X_T112U4  1
 UP BND       X_T112U5  1
 UP BND       X_T112U6  1
 UP BND       X_T112U7  1
 UP BND       X_T112U8  1
 UP BND       X_T112U9  1
 UP BND       X_T112U10  1
 UP BND       X_T112U11  1
 UP BND       X_T112U12  1
 UP BND       X_T112U13  1
 UP BND       X_T112U14  1
 UP BND       X_T112U15  1
 UP BND       X_T112U16  1
 UP BND       X_T112U17  1
 UP BND       X_T112U18  1
 UP BND       X_T112U19  1
 UP BND       X_T112U20  1
 UP BND       X_T112U21  1
 UP BND       X_T112U22  1
 UP BND       X_T112U23  1
 UP BND       X_T112U24  1
 UP BND       X_T112U25  1
 UP BND       X_T112U26  1
 UP BND       X_T112U27  1
 UP BND       X_T112U28  1
 UP BND       X_T112U29  1
 UP BND       X_T112U30  1
 UP BND       X_T113U1  1
 UP BND       X_T113U2  1
 UP BND       X_T113U3  1
 UP BND       X_T113U4  1
 UP BND       X_T113U5  1
 UP BND       X_T113U6  1
 UP BND       X_T113U7  1
 UP BND       X_T113U8  1
 UP BND       X_T113U9  1
 UP BND       X_T113U10  1
 UP BND       X_T113U11  1
 UP BND       X_T113U12  1
 UP BND       X_T113U13  1
 UP BND       X_T113U14  1
 UP BND       X_T113U15  1
 UP BND       X_T113U16  1
 UP BND       X_T113U17  1
 UP BND       X_T113U18  1
 UP BND       X_T113U19  1
 UP BND       X_T113U20  1
 UP BND       X_T113U21  1
 UP BND       X_T113U22  1
 UP BND       X_T113U23  1
 UP BND       X_T113U24  1
 UP BND       X_T113U25  1
 UP BND       X_T113U26  1
 UP BND       X_T113U27  1
 UP BND       X_T113U28  1
 UP BND       X_T113U29  1
 UP BND       X_T113U30  1
 UP BND       X_T114U1  1
 UP BND       X_T114U2  1
 UP BND       X_T114U3  1
 UP BND       X_T114U4  1
 UP BND       X_T114U5  1
 UP BND       X_T114U6  1
 UP BND       X_T114U7  1
 UP BND       X_T114U8  1
 UP BND       X_T114U9  1
 UP BND       X_T114U10  1
 UP BND       X_T114U11  1
 UP BND       X_T114U12  1
 UP BND       X_T114U13  1
 UP BND       X_T114U14  1
 UP BND       X_T114U15  1
 UP BND       X_T114U16  1
 UP BND       X_T114U17  1
 UP BND       X_T114U18  1
 UP BND       X_T114U19  1
 UP BND       X_T114U20  1
 UP BND       X_T114U21  1
 UP BND       X_T114U22  1
 UP BND       X_T114U23  1
 UP BND       X_T114U24  1
 UP BND       X_T114U25  1
 UP BND       X_T114U26  1
 UP BND       X_T114U27  1
 UP BND       X_T114U28  1
 UP BND       X_T114U29  1
 UP BND       X_T114U30  1
 UP BND       X_T115U1  1
 UP BND       X_T115U2  1
 UP BND       X_T115U3  1
 UP BND       X_T115U4  1
 UP BND       X_T115U5  1
 UP BND       X_T115U6  1
 UP BND       X_T115U7  1
 UP BND       X_T115U8  1
 UP BND       X_T115U9  1
 UP BND       X_T115U10  1
 UP BND       X_T115U11  1
 UP BND       X_T115U12  1
 UP BND       X_T115U13  1
 UP BND       X_T115U14  1
 UP BND       X_T115U15  1
 UP BND       X_T115U16  1
 UP BND       X_T115U17  1
 UP BND       X_T115U18  1
 UP BND       X_T115U19  1
 UP BND       X_T115U20  1
 UP BND       X_T115U21  1
 UP BND       X_T115U22  1
 UP BND       X_T115U23  1
 UP BND       X_T115U24  1
 UP BND       X_T115U25  1
 UP BND       X_T115U26  1
 UP BND       X_T115U27  1
 UP BND       X_T115U28  1
 UP BND       X_T115U29  1
 UP BND       X_T115U30  1
 UP BND       X_T116U1  1
 UP BND       X_T116U2  1
 UP BND       X_T116U3  1
 UP BND       X_T116U4  1
 UP BND       X_T116U5  1
 UP BND       X_T116U6  1
 UP BND       X_T116U7  1
 UP BND       X_T116U8  1
 UP BND       X_T116U9  1
 UP BND       X_T116U10  1
 UP BND       X_T116U11  1
 UP BND       X_T116U12  1
 UP BND       X_T116U13  1
 UP BND       X_T116U14  1
 UP BND       X_T116U15  1
 UP BND       X_T116U16  1
 UP BND       X_T116U17  1
 UP BND       X_T116U18  1
 UP BND       X_T116U19  1
 UP BND       X_T116U20  1
 UP BND       X_T116U21  1
 UP BND       X_T116U22  1
 UP BND       X_T116U23  1
 UP BND       X_T116U24  1
 UP BND       X_T116U25  1
 UP BND       X_T116U26  1
 UP BND       X_T116U27  1
 UP BND       X_T116U28  1
 UP BND       X_T116U29  1
 UP BND       X_T116U30  1
 UP BND       X_T117U1  1
 UP BND       X_T117U2  1
 UP BND       X_T117U3  1
 UP BND       X_T117U4  1
 UP BND       X_T117U5  1
 UP BND       X_T117U6  1
 UP BND       X_T117U7  1
 UP BND       X_T117U8  1
 UP BND       X_T117U9  1
 UP BND       X_T117U10  1
 UP BND       X_T117U11  1
 UP BND       X_T117U12  1
 UP BND       X_T117U13  1
 UP BND       X_T117U14  1
 UP BND       X_T117U15  1
 UP BND       X_T117U16  1
 UP BND       X_T117U17  1
 UP BND       X_T117U18  1
 UP BND       X_T117U19  1
 UP BND       X_T117U20  1
 UP BND       X_T117U21  1
 UP BND       X_T117U22  1
 UP BND       X_T117U23  1
 UP BND       X_T117U24  1
 UP BND       X_T117U25  1
 UP BND       X_T117U26  1
 UP BND       X_T117U27  1
 UP BND       X_T117U28  1
 UP BND       X_T117U29  1
 UP BND       X_T117U30  1
 UP BND       X_T118U1  1
 UP BND       X_T118U2  1
 UP BND       X_T118U3  1
 UP BND       X_T118U4  1
 UP BND       X_T118U5  1
 UP BND       X_T118U6  1
 UP BND       X_T118U7  1
 UP BND       X_T118U8  1
 UP BND       X_T118U9  1
 UP BND       X_T118U10  1
 UP BND       X_T118U11  1
 UP BND       X_T118U12  1
 UP BND       X_T118U13  1
 UP BND       X_T118U14  1
 UP BND       X_T118U15  1
 UP BND       X_T118U16  1
 UP BND       X_T118U17  1
 UP BND       X_T118U18  1
 UP BND       X_T118U19  1
 UP BND       X_T118U20  1
 UP BND       X_T118U21  1
 UP BND       X_T118U22  1
 UP BND       X_T118U23  1
 UP BND       X_T118U24  1
 UP BND       X_T118U25  1
 UP BND       X_T118U26  1
 UP BND       X_T118U27  1
 UP BND       X_T118U28  1
 UP BND       X_T118U29  1
 UP BND       X_T118U30  1
 UP BND       X_T119U1  1
 UP BND       X_T119U2  1
 UP BND       X_T119U3  1
 UP BND       X_T119U4  1
 UP BND       X_T119U5  1
 UP BND       X_T119U6  1
 UP BND       X_T119U7  1
 UP BND       X_T119U8  1
 UP BND       X_T119U9  1
 UP BND       X_T119U10  1
 UP BND       X_T119U11  1
 UP BND       X_T119U12  1
 UP BND       X_T119U13  1
 UP BND       X_T119U14  1
 UP BND       X_T119U15  1
 UP BND       X_T119U16  1
 UP BND       X_T119U17  1
 UP BND       X_T119U18  1
 UP BND       X_T119U19  1
 UP BND       X_T119U20  1
 UP BND       X_T119U21  1
 UP BND       X_T119U22  1
 UP BND       X_T119U23  1
 UP BND       X_T119U24  1
 UP BND       X_T119U25  1
 UP BND       X_T119U26  1
 UP BND       X_T119U27  1
 UP BND       X_T119U28  1
 UP BND       X_T119U29  1
 UP BND       X_T119U30  1
 UP BND       X_T120U1  1
 UP BND       X_T120U2  1
 UP BND       X_T120U3  1
 UP BND       X_T120U4  1
 UP BND       X_T120U5  1
 UP BND       X_T120U6  1
 UP BND       X_T120U7  1
 UP BND       X_T120U8  1
 UP BND       X_T120U9  1
 UP BND       X_T120U10  1
 UP BND       X_T120U11  1
 UP BND       X_T120U12  1
 UP BND       X_T120U13  1
 UP BND       X_T120U14  1
 UP BND       X_T120U15  1
 UP BND       X_T120U16  1
 UP BND       X_T120U17  1
 UP BND       X_T120U18  1
 UP BND       X_T120U19  1
 UP BND       X_T120U20  1
 UP BND       X_T120U21  1
 UP BND       X_T120U22  1
 UP BND       X_T120U23  1
 UP BND       X_T120U24  1
 UP BND       X_T120U25  1
 UP BND       X_T120U26  1
 UP BND       X_T120U27  1
 UP BND       X_T120U28  1
 UP BND       X_T120U29  1
 UP BND       X_T120U30  1
 UP BND       X_T121U1  1
 UP BND       X_T121U2  1
 UP BND       X_T121U3  1
 UP BND       X_T121U4  1
 UP BND       X_T121U5  1
 UP BND       X_T121U6  1
 UP BND       X_T121U7  1
 UP BND       X_T121U8  1
 UP BND       X_T121U9  1
 UP BND       X_T121U10  1
 UP BND       X_T121U11  1
 UP BND       X_T121U12  1
 UP BND       X_T121U13  1
 UP BND       X_T121U14  1
 UP BND       X_T121U15  1
 UP BND       X_T121U16  1
 UP BND       X_T121U17  1
 UP BND       X_T121U18  1
 UP BND       X_T121U19  1
 UP BND       X_T121U20  1
 UP BND       X_T121U21  1
 UP BND       X_T121U22  1
 UP BND       X_T121U23  1
 UP BND       X_T121U24  1
 UP BND       X_T121U25  1
 UP BND       X_T121U26  1
 UP BND       X_T121U27  1
 UP BND       X_T121U28  1
 UP BND       X_T121U29  1
 UP BND       X_T121U30  1
 UP BND       X_T122U1  1
 UP BND       X_T122U2  1
 UP BND       X_T122U3  1
 UP BND       X_T122U4  1
 UP BND       X_T122U5  1
 UP BND       X_T122U6  1
 UP BND       X_T122U7  1
 UP BND       X_T122U8  1
 UP BND       X_T122U9  1
 UP BND       X_T122U10  1
 UP BND       X_T122U11  1
 UP BND       X_T122U12  1
 UP BND       X_T122U13  1
 UP BND       X_T122U14  1
 UP BND       X_T122U15  1
 UP BND       X_T122U16  1
 UP BND       X_T122U17  1
 UP BND       X_T122U18  1
 UP BND       X_T122U19  1
 UP BND       X_T122U20  1
 UP BND       X_T122U21  1
 UP BND       X_T122U22  1
 UP BND       X_T122U23  1
 UP BND       X_T122U24  1
 UP BND       X_T122U25  1
 UP BND       X_T122U26  1
 UP BND       X_T122U27  1
 UP BND       X_T122U28  1
 UP BND       X_T122U29  1
 UP BND       X_T122U30  1
 UP BND       X_T123U1  1
 UP BND       X_T123U2  1
 UP BND       X_T123U3  1
 UP BND       X_T123U4  1
 UP BND       X_T123U5  1
 UP BND       X_T123U6  1
 UP BND       X_T123U7  1
 UP BND       X_T123U8  1
 UP BND       X_T123U9  1
 UP BND       X_T123U10  1
 UP BND       X_T123U11  1
 UP BND       X_T123U12  1
 UP BND       X_T123U13  1
 UP BND       X_T123U14  1
 UP BND       X_T123U15  1
 UP BND       X_T123U16  1
 UP BND       X_T123U17  1
 UP BND       X_T123U18  1
 UP BND       X_T123U19  1
 UP BND       X_T123U20  1
 UP BND       X_T123U21  1
 UP BND       X_T123U22  1
 UP BND       X_T123U23  1
 UP BND       X_T123U24  1
 UP BND       X_T123U25  1
 UP BND       X_T123U26  1
 UP BND       X_T123U27  1
 UP BND       X_T123U28  1
 UP BND       X_T123U29  1
 UP BND       X_T123U30  1
 UP BND       X_T124U1  1
 UP BND       X_T124U2  1
 UP BND       X_T124U3  1
 UP BND       X_T124U4  1
 UP BND       X_T124U5  1
 UP BND       X_T124U6  1
 UP BND       X_T124U7  1
 UP BND       X_T124U8  1
 UP BND       X_T124U9  1
 UP BND       X_T124U10  1
 UP BND       X_T124U11  1
 UP BND       X_T124U12  1
 UP BND       X_T124U13  1
 UP BND       X_T124U14  1
 UP BND       X_T124U15  1
 UP BND       X_T124U16  1
 UP BND       X_T124U17  1
 UP BND       X_T124U18  1
 UP BND       X_T124U19  1
 UP BND       X_T124U20  1
 UP BND       X_T124U21  1
 UP BND       X_T124U22  1
 UP BND       X_T124U23  1
 UP BND       X_T124U24  1
 UP BND       X_T124U25  1
 UP BND       X_T124U26  1
 UP BND       X_T124U27  1
 UP BND       X_T124U28  1
 UP BND       X_T124U29  1
 UP BND       X_T124U30  1
 UP BND       X_T125U1  1
 UP BND       X_T125U2  1
 UP BND       X_T125U3  1
 UP BND       X_T125U4  1
 UP BND       X_T125U5  1
 UP BND       X_T125U6  1
 UP BND       X_T125U7  1
 UP BND       X_T125U8  1
 UP BND       X_T125U9  1
 UP BND       X_T125U10  1
 UP BND       X_T125U11  1
 UP BND       X_T125U12  1
 UP BND       X_T125U13  1
 UP BND       X_T125U14  1
 UP BND       X_T125U15  1
 UP BND       X_T125U16  1
 UP BND       X_T125U17  1
 UP BND       X_T125U18  1
 UP BND       X_T125U19  1
 UP BND       X_T125U20  1
 UP BND       X_T125U21  1
 UP BND       X_T125U22  1
 UP BND       X_T125U23  1
 UP BND       X_T125U24  1
 UP BND       X_T125U25  1
 UP BND       X_T125U26  1
 UP BND       X_T125U27  1
 UP BND       X_T125U28  1
 UP BND       X_T125U29  1
 UP BND       X_T125U30  1
 UP BND       X_T126U1  1
 UP BND       X_T126U2  1
 UP BND       X_T126U3  1
 UP BND       X_T126U4  1
 UP BND       X_T126U5  1
 UP BND       X_T126U6  1
 UP BND       X_T126U7  1
 UP BND       X_T126U8  1
 UP BND       X_T126U9  1
 UP BND       X_T126U10  1
 UP BND       X_T126U11  1
 UP BND       X_T126U12  1
 UP BND       X_T126U13  1
 UP BND       X_T126U14  1
 UP BND       X_T126U15  1
 UP BND       X_T126U16  1
 UP BND       X_T126U17  1
 UP BND       X_T126U18  1
 UP BND       X_T126U19  1
 UP BND       X_T126U20  1
 UP BND       X_T126U21  1
 UP BND       X_T126U22  1
 UP BND       X_T126U23  1
 UP BND       X_T126U24  1
 UP BND       X_T126U25  1
 UP BND       X_T126U26  1
 UP BND       X_T126U27  1
 UP BND       X_T126U28  1
 UP BND       X_T126U29  1
 UP BND       X_T126U30  1
 UP BND       X_T127U1  1
 UP BND       X_T127U2  1
 UP BND       X_T127U3  1
 UP BND       X_T127U4  1
 UP BND       X_T127U5  1
 UP BND       X_T127U6  1
 UP BND       X_T127U7  1
 UP BND       X_T127U8  1
 UP BND       X_T127U9  1
 UP BND       X_T127U10  1
 UP BND       X_T127U11  1
 UP BND       X_T127U12  1
 UP BND       X_T127U13  1
 UP BND       X_T127U14  1
 UP BND       X_T127U15  1
 UP BND       X_T127U16  1
 UP BND       X_T127U17  1
 UP BND       X_T127U18  1
 UP BND       X_T127U19  1
 UP BND       X_T127U20  1
 UP BND       X_T127U21  1
 UP BND       X_T127U22  1
 UP BND       X_T127U23  1
 UP BND       X_T127U24  1
 UP BND       X_T127U25  1
 UP BND       X_T127U26  1
 UP BND       X_T127U27  1
 UP BND       X_T127U28  1
 UP BND       X_T127U29  1
 UP BND       X_T127U30  1
 UP BND       X_T128U1  1
 UP BND       X_T128U2  1
 UP BND       X_T128U3  1
 UP BND       X_T128U4  1
 UP BND       X_T128U5  1
 UP BND       X_T128U6  1
 UP BND       X_T128U7  1
 UP BND       X_T128U8  1
 UP BND       X_T128U9  1
 UP BND       X_T128U10  1
 UP BND       X_T128U11  1
 UP BND       X_T128U12  1
 UP BND       X_T128U13  1
 UP BND       X_T128U14  1
 UP BND       X_T128U15  1
 UP BND       X_T128U16  1
 UP BND       X_T128U17  1
 UP BND       X_T128U18  1
 UP BND       X_T128U19  1
 UP BND       X_T128U20  1
 UP BND       X_T128U21  1
 UP BND       X_T128U22  1
 UP BND       X_T128U23  1
 UP BND       X_T128U24  1
 UP BND       X_T128U25  1
 UP BND       X_T128U26  1
 UP BND       X_T128U27  1
 UP BND       X_T128U28  1
 UP BND       X_T128U29  1
 UP BND       X_T128U30  1
 UP BND       X_T129U1  1
 UP BND       X_T129U2  1
 UP BND       X_T129U3  1
 UP BND       X_T129U4  1
 UP BND       X_T129U5  1
 UP BND       X_T129U6  1
 UP BND       X_T129U7  1
 UP BND       X_T129U8  1
 UP BND       X_T129U9  1
 UP BND       X_T129U10  1
 UP BND       X_T129U11  1
 UP BND       X_T129U12  1
 UP BND       X_T129U13  1
 UP BND       X_T129U14  1
 UP BND       X_T129U15  1
 UP BND       X_T129U16  1
 UP BND       X_T129U17  1
 UP BND       X_T129U18  1
 UP BND       X_T129U19  1
 UP BND       X_T129U20  1
 UP BND       X_T129U21  1
 UP BND       X_T129U22  1
 UP BND       X_T129U23  1
 UP BND       X_T129U24  1
 UP BND       X_T129U25  1
 UP BND       X_T129U26  1
 UP BND       X_T129U27  1
 UP BND       X_T129U28  1
 UP BND       X_T129U29  1
 UP BND       X_T129U30  1
 UP BND       X_T130U1  1
 UP BND       X_T130U2  1
 UP BND       X_T130U3  1
 UP BND       X_T130U4  1
 UP BND       X_T130U5  1
 UP BND       X_T130U6  1
 UP BND       X_T130U7  1
 UP BND       X_T130U8  1
 UP BND       X_T130U9  1
 UP BND       X_T130U10  1
 UP BND       X_T130U11  1
 UP BND       X_T130U12  1
 UP BND       X_T130U13  1
 UP BND       X_T130U14  1
 UP BND       X_T130U15  1
 UP BND       X_T130U16  1
 UP BND       X_T130U17  1
 UP BND       X_T130U18  1
 UP BND       X_T130U19  1
 UP BND       X_T130U20  1
 UP BND       X_T130U21  1
 UP BND       X_T130U22  1
 UP BND       X_T130U23  1
 UP BND       X_T130U24  1
 UP BND       X_T130U25  1
 UP BND       X_T130U26  1
 UP BND       X_T130U27  1
 UP BND       X_T130U28  1
 UP BND       X_T130U29  1
 UP BND       X_T130U30  1
 UP BND       X_T131U1  1
 UP BND       X_T131U2  1
 UP BND       X_T131U3  1
 UP BND       X_T131U4  1
 UP BND       X_T131U5  1
 UP BND       X_T131U6  1
 UP BND       X_T131U7  1
 UP BND       X_T131U8  1
 UP BND       X_T131U9  1
 UP BND       X_T131U10  1
 UP BND       X_T131U11  1
 UP BND       X_T131U12  1
 UP BND       X_T131U13  1
 UP BND       X_T131U14  1
 UP BND       X_T131U15  1
 UP BND       X_T131U16  1
 UP BND       X_T131U17  1
 UP BND       X_T131U18  1
 UP BND       X_T131U19  1
 UP BND       X_T131U20  1
 UP BND       X_T131U21  1
 UP BND       X_T131U22  1
 UP BND       X_T131U23  1
 UP BND       X_T131U24  1
 UP BND       X_T131U25  1
 UP BND       X_T131U26  1
 UP BND       X_T131U27  1
 UP BND       X_T131U28  1
 UP BND       X_T131U29  1
 UP BND       X_T131U30  1
 UP BND       X_T132U1  1
 UP BND       X_T132U2  1
 UP BND       X_T132U3  1
 UP BND       X_T132U4  1
 UP BND       X_T132U5  1
 UP BND       X_T132U6  1
 UP BND       X_T132U7  1
 UP BND       X_T132U8  1
 UP BND       X_T132U9  1
 UP BND       X_T132U10  1
 UP BND       X_T132U11  1
 UP BND       X_T132U12  1
 UP BND       X_T132U13  1
 UP BND       X_T132U14  1
 UP BND       X_T132U15  1
 UP BND       X_T132U16  1
 UP BND       X_T132U17  1
 UP BND       X_T132U18  1
 UP BND       X_T132U19  1
 UP BND       X_T132U20  1
 UP BND       X_T132U21  1
 UP BND       X_T132U22  1
 UP BND       X_T132U23  1
 UP BND       X_T132U24  1
 UP BND       X_T132U25  1
 UP BND       X_T132U26  1
 UP BND       X_T132U27  1
 UP BND       X_T132U28  1
 UP BND       X_T132U29  1
 UP BND       X_T132U30  1
 UP BND       X_T133U1  1
 UP BND       X_T133U2  1
 UP BND       X_T133U3  1
 UP BND       X_T133U4  1
 UP BND       X_T133U5  1
 UP BND       X_T133U6  1
 UP BND       X_T133U7  1
 UP BND       X_T133U8  1
 UP BND       X_T133U9  1
 UP BND       X_T133U10  1
 UP BND       X_T133U11  1
 UP BND       X_T133U12  1
 UP BND       X_T133U13  1
 UP BND       X_T133U14  1
 UP BND       X_T133U15  1
 UP BND       X_T133U16  1
 UP BND       X_T133U17  1
 UP BND       X_T133U18  1
 UP BND       X_T133U19  1
 UP BND       X_T133U20  1
 UP BND       X_T133U21  1
 UP BND       X_T133U22  1
 UP BND       X_T133U23  1
 UP BND       X_T133U24  1
 UP BND       X_T133U25  1
 UP BND       X_T133U26  1
 UP BND       X_T133U27  1
 UP BND       X_T133U28  1
 UP BND       X_T133U29  1
 UP BND       X_T133U30  1
 UP BND       X_T134U1  1
 UP BND       X_T134U2  1
 UP BND       X_T134U3  1
 UP BND       X_T134U4  1
 UP BND       X_T134U5  1
 UP BND       X_T134U6  1
 UP BND       X_T134U7  1
 UP BND       X_T134U8  1
 UP BND       X_T134U9  1
 UP BND       X_T134U10  1
 UP BND       X_T134U11  1
 UP BND       X_T134U12  1
 UP BND       X_T134U13  1
 UP BND       X_T134U14  1
 UP BND       X_T134U15  1
 UP BND       X_T134U16  1
 UP BND       X_T134U17  1
 UP BND       X_T134U18  1
 UP BND       X_T134U19  1
 UP BND       X_T134U20  1
 UP BND       X_T134U21  1
 UP BND       X_T134U22  1
 UP BND       X_T134U23  1
 UP BND       X_T134U24  1
 UP BND       X_T134U25  1
 UP BND       X_T134U26  1
 UP BND       X_T134U27  1
 UP BND       X_T134U28  1
 UP BND       X_T134U29  1
 UP BND       X_T134U30  1
 UP BND       X_T135U1  1
 UP BND       X_T135U2  1
 UP BND       X_T135U3  1
 UP BND       X_T135U4  1
 UP BND       X_T135U5  1
 UP BND       X_T135U6  1
 UP BND       X_T135U7  1
 UP BND       X_T135U8  1
 UP BND       X_T135U9  1
 UP BND       X_T135U10  1
 UP BND       X_T135U11  1
 UP BND       X_T135U12  1
 UP BND       X_T135U13  1
 UP BND       X_T135U14  1
 UP BND       X_T135U15  1
 UP BND       X_T135U16  1
 UP BND       X_T135U17  1
 UP BND       X_T135U18  1
 UP BND       X_T135U19  1
 UP BND       X_T135U20  1
 UP BND       X_T135U21  1
 UP BND       X_T135U22  1
 UP BND       X_T135U23  1
 UP BND       X_T135U24  1
 UP BND       X_T135U25  1
 UP BND       X_T135U26  1
 UP BND       X_T135U27  1
 UP BND       X_T135U28  1
 UP BND       X_T135U29  1
 UP BND       X_T135U30  1
 UP BND       X_T136U1  1
 UP BND       X_T136U2  1
 UP BND       X_T136U3  1
 UP BND       X_T136U4  1
 UP BND       X_T136U5  1
 UP BND       X_T136U6  1
 UP BND       X_T136U7  1
 UP BND       X_T136U8  1
 UP BND       X_T136U9  1
 UP BND       X_T136U10  1
 UP BND       X_T136U11  1
 UP BND       X_T136U12  1
 UP BND       X_T136U13  1
 UP BND       X_T136U14  1
 UP BND       X_T136U15  1
 UP BND       X_T136U16  1
 UP BND       X_T136U17  1
 UP BND       X_T136U18  1
 UP BND       X_T136U19  1
 UP BND       X_T136U20  1
 UP BND       X_T136U21  1
 UP BND       X_T136U22  1
 UP BND       X_T136U23  1
 UP BND       X_T136U24  1
 UP BND       X_T136U25  1
 UP BND       X_T136U26  1
 UP BND       X_T136U27  1
 UP BND       X_T136U28  1
 UP BND       X_T136U29  1
 UP BND       X_T136U30  1
 UP BND       X_T137U1  1
 UP BND       X_T137U2  1
 UP BND       X_T137U3  1
 UP BND       X_T137U4  1
 UP BND       X_T137U5  1
 UP BND       X_T137U6  1
 UP BND       X_T137U7  1
 UP BND       X_T137U8  1
 UP BND       X_T137U9  1
 UP BND       X_T137U10  1
 UP BND       X_T137U11  1
 UP BND       X_T137U12  1
 UP BND       X_T137U13  1
 UP BND       X_T137U14  1
 UP BND       X_T137U15  1
 UP BND       X_T137U16  1
 UP BND       X_T137U17  1
 UP BND       X_T137U18  1
 UP BND       X_T137U19  1
 UP BND       X_T137U20  1
 UP BND       X_T137U21  1
 UP BND       X_T137U22  1
 UP BND       X_T137U23  1
 UP BND       X_T137U24  1
 UP BND       X_T137U25  1
 UP BND       X_T137U26  1
 UP BND       X_T137U27  1
 UP BND       X_T137U28  1
 UP BND       X_T137U29  1
 UP BND       X_T137U30  1
 UP BND       X_T138U1  1
 UP BND       X_T138U2  1
 UP BND       X_T138U3  1
 UP BND       X_T138U4  1
 UP BND       X_T138U5  1
 UP BND       X_T138U6  1
 UP BND       X_T138U7  1
 UP BND       X_T138U8  1
 UP BND       X_T138U9  1
 UP BND       X_T138U10  1
 UP BND       X_T138U11  1
 UP BND       X_T138U12  1
 UP BND       X_T138U13  1
 UP BND       X_T138U14  1
 UP BND       X_T138U15  1
 UP BND       X_T138U16  1
 UP BND       X_T138U17  1
 UP BND       X_T138U18  1
 UP BND       X_T138U19  1
 UP BND       X_T138U20  1
 UP BND       X_T138U21  1
 UP BND       X_T138U22  1
 UP BND       X_T138U23  1
 UP BND       X_T138U24  1
 UP BND       X_T138U25  1
 UP BND       X_T138U26  1
 UP BND       X_T138U27  1
 UP BND       X_T138U28  1
 UP BND       X_T138U29  1
 UP BND       X_T138U30  1
 UP BND       X_T139U1  1
 UP BND       X_T139U2  1
 UP BND       X_T139U3  1
 UP BND       X_T139U4  1
 UP BND       X_T139U5  1
 UP BND       X_T139U6  1
 UP BND       X_T139U7  1
 UP BND       X_T139U8  1
 UP BND       X_T139U9  1
 UP BND       X_T139U10  1
 UP BND       X_T139U11  1
 UP BND       X_T139U12  1
 UP BND       X_T139U13  1
 UP BND       X_T139U14  1
 UP BND       X_T139U15  1
 UP BND       X_T139U16  1
 UP BND       X_T139U17  1
 UP BND       X_T139U18  1
 UP BND       X_T139U19  1
 UP BND       X_T139U20  1
 UP BND       X_T139U21  1
 UP BND       X_T139U22  1
 UP BND       X_T139U23  1
 UP BND       X_T139U24  1
 UP BND       X_T139U25  1
 UP BND       X_T139U26  1
 UP BND       X_T139U27  1
 UP BND       X_T139U28  1
 UP BND       X_T139U29  1
 UP BND       X_T139U30  1
 UP BND       X_T140U1  1
 UP BND       X_T140U2  1
 UP BND       X_T140U3  1
 UP BND       X_T140U4  1
 UP BND       X_T140U5  1
 UP BND       X_T140U6  1
 UP BND       X_T140U7  1
 UP BND       X_T140U8  1
 UP BND       X_T140U9  1
 UP BND       X_T140U10  1
 UP BND       X_T140U11  1
 UP BND       X_T140U12  1
 UP BND       X_T140U13  1
 UP BND       X_T140U14  1
 UP BND       X_T140U15  1
 UP BND       X_T140U16  1
 UP BND       X_T140U17  1
 UP BND       X_T140U18  1
 UP BND       X_T140U19  1
 UP BND       X_T140U20  1
 UP BND       X_T140U21  1
 UP BND       X_T140U22  1
 UP BND       X_T140U23  1
 UP BND       X_T140U24  1
 UP BND       X_T140U25  1
 UP BND       X_T140U26  1
 UP BND       X_T140U27  1
 UP BND       X_T140U28  1
 UP BND       X_T140U29  1
 UP BND       X_T140U30  1
 UP BND       X_T141U1  1
 UP BND       X_T141U2  1
 UP BND       X_T141U3  1
 UP BND       X_T141U4  1
 UP BND       X_T141U5  1
 UP BND       X_T141U6  1
 UP BND       X_T141U7  1
 UP BND       X_T141U8  1
 UP BND       X_T141U9  1
 UP BND       X_T141U10  1
 UP BND       X_T141U11  1
 UP BND       X_T141U12  1
 UP BND       X_T141U13  1
 UP BND       X_T141U14  1
 UP BND       X_T141U15  1
 UP BND       X_T141U16  1
 UP BND       X_T141U17  1
 UP BND       X_T141U18  1
 UP BND       X_T141U19  1
 UP BND       X_T141U20  1
 UP BND       X_T141U21  1
 UP BND       X_T141U22  1
 UP BND       X_T141U23  1
 UP BND       X_T141U24  1
 UP BND       X_T141U25  1
 UP BND       X_T141U26  1
 UP BND       X_T141U27  1
 UP BND       X_T141U28  1
 UP BND       X_T141U29  1
 UP BND       X_T141U30  1
 UP BND       X_T142U1  1
 UP BND       X_T142U2  1
 UP BND       X_T142U3  1
 UP BND       X_T142U4  1
 UP BND       X_T142U5  1
 UP BND       X_T142U6  1
 UP BND       X_T142U7  1
 UP BND       X_T142U8  1
 UP BND       X_T142U9  1
 UP BND       X_T142U10  1
 UP BND       X_T142U11  1
 UP BND       X_T142U12  1
 UP BND       X_T142U13  1
 UP BND       X_T142U14  1
 UP BND       X_T142U15  1
 UP BND       X_T142U16  1
 UP BND       X_T142U17  1
 UP BND       X_T142U18  1
 UP BND       X_T142U19  1
 UP BND       X_T142U20  1
 UP BND       X_T142U21  1
 UP BND       X_T142U22  1
 UP BND       X_T142U23  1
 UP BND       X_T142U24  1
 UP BND       X_T142U25  1
 UP BND       X_T142U26  1
 UP BND       X_T142U27  1
 UP BND       X_T142U28  1
 UP BND       X_T142U29  1
 UP BND       X_T142U30  1
 UP BND       X_T143U1  1
 UP BND       X_T143U2  1
 UP BND       X_T143U3  1
 UP BND       X_T143U4  1
 UP BND       X_T143U5  1
 UP BND       X_T143U6  1
 UP BND       X_T143U7  1
 UP BND       X_T143U8  1
 UP BND       X_T143U9  1
 UP BND       X_T143U10  1
 UP BND       X_T143U11  1
 UP BND       X_T143U12  1
 UP BND       X_T143U13  1
 UP BND       X_T143U14  1
 UP BND       X_T143U15  1
 UP BND       X_T143U16  1
 UP BND       X_T143U17  1
 UP BND       X_T143U18  1
 UP BND       X_T143U19  1
 UP BND       X_T143U20  1
 UP BND       X_T143U21  1
 UP BND       X_T143U22  1
 UP BND       X_T143U23  1
 UP BND       X_T143U24  1
 UP BND       X_T143U25  1
 UP BND       X_T143U26  1
 UP BND       X_T143U27  1
 UP BND       X_T143U28  1
 UP BND       X_T143U29  1
 UP BND       X_T143U30  1
 UP BND       X_T144U1  1
 UP BND       X_T144U2  1
 UP BND       X_T144U3  1
 UP BND       X_T144U4  1
 UP BND       X_T144U5  1
 UP BND       X_T144U6  1
 UP BND       X_T144U7  1
 UP BND       X_T144U8  1
 UP BND       X_T144U9  1
 UP BND       X_T144U10  1
 UP BND       X_T144U11  1
 UP BND       X_T144U12  1
 UP BND       X_T144U13  1
 UP BND       X_T144U14  1
 UP BND       X_T144U15  1
 UP BND       X_T144U16  1
 UP BND       X_T144U17  1
 UP BND       X_T144U18  1
 UP BND       X_T144U19  1
 UP BND       X_T144U20  1
 UP BND       X_T144U21  1
 UP BND       X_T144U22  1
 UP BND       X_T144U23  1
 UP BND       X_T144U24  1
 UP BND       X_T144U25  1
 UP BND       X_T144U26  1
 UP BND       X_T144U27  1
 UP BND       X_T144U28  1
 UP BND       X_T144U29  1
 UP BND       X_T144U30  1
 UP BND       X_T145U1  1
 UP BND       X_T145U2  1
 UP BND       X_T145U3  1
 UP BND       X_T145U4  1
 UP BND       X_T145U5  1
 UP BND       X_T145U6  1
 UP BND       X_T145U7  1
 UP BND       X_T145U8  1
 UP BND       X_T145U9  1
 UP BND       X_T145U10  1
 UP BND       X_T145U11  1
 UP BND       X_T145U12  1
 UP BND       X_T145U13  1
 UP BND       X_T145U14  1
 UP BND       X_T145U15  1
 UP BND       X_T145U16  1
 UP BND       X_T145U17  1
 UP BND       X_T145U18  1
 UP BND       X_T145U19  1
 UP BND       X_T145U20  1
 UP BND       X_T145U21  1
 UP BND       X_T145U22  1
 UP BND       X_T145U23  1
 UP BND       X_T145U24  1
 UP BND       X_T145U25  1
 UP BND       X_T145U26  1
 UP BND       X_T145U27  1
 UP BND       X_T145U28  1
 UP BND       X_T145U29  1
 UP BND       X_T145U30  1
 UP BND       X_T146U1  1
 UP BND       X_T146U2  1
 UP BND       X_T146U3  1
 UP BND       X_T146U4  1
 UP BND       X_T146U5  1
 UP BND       X_T146U6  1
 UP BND       X_T146U7  1
 UP BND       X_T146U8  1
 UP BND       X_T146U9  1
 UP BND       X_T146U10  1
 UP BND       X_T146U11  1
 UP BND       X_T146U12  1
 UP BND       X_T146U13  1
 UP BND       X_T146U14  1
 UP BND       X_T146U15  1
 UP BND       X_T146U16  1
 UP BND       X_T146U17  1
 UP BND       X_T146U18  1
 UP BND       X_T146U19  1
 UP BND       X_T146U20  1
 UP BND       X_T146U21  1
 UP BND       X_T146U22  1
 UP BND       X_T146U23  1
 UP BND       X_T146U24  1
 UP BND       X_T146U25  1
 UP BND       X_T146U26  1
 UP BND       X_T146U27  1
 UP BND       X_T146U28  1
 UP BND       X_T146U29  1
 UP BND       X_T146U30  1
 UP BND       X_T147U1  1
 UP BND       X_T147U2  1
 UP BND       X_T147U3  1
 UP BND       X_T147U4  1
 UP BND       X_T147U5  1
 UP BND       X_T147U6  1
 UP BND       X_T147U7  1
 UP BND       X_T147U8  1
 UP BND       X_T147U9  1
 UP BND       X_T147U10  1
 UP BND       X_T147U11  1
 UP BND       X_T147U12  1
 UP BND       X_T147U13  1
 UP BND       X_T147U14  1
 UP BND       X_T147U15  1
 UP BND       X_T147U16  1
 UP BND       X_T147U17  1
 UP BND       X_T147U18  1
 UP BND       X_T147U19  1
 UP BND       X_T147U20  1
 UP BND       X_T147U21  1
 UP BND       X_T147U22  1
 UP BND       X_T147U23  1
 UP BND       X_T147U24  1
 UP BND       X_T147U25  1
 UP BND       X_T147U26  1
 UP BND       X_T147U27  1
 UP BND       X_T147U28  1
 UP BND       X_T147U29  1
 UP BND       X_T147U30  1
 UP BND       X_T148U1  1
 UP BND       X_T148U2  1
 UP BND       X_T148U3  1
 UP BND       X_T148U4  1
 UP BND       X_T148U5  1
 UP BND       X_T148U6  1
 UP BND       X_T148U7  1
 UP BND       X_T148U8  1
 UP BND       X_T148U9  1
 UP BND       X_T148U10  1
 UP BND       X_T148U11  1
 UP BND       X_T148U12  1
 UP BND       X_T148U13  1
 UP BND       X_T148U14  1
 UP BND       X_T148U15  1
 UP BND       X_T148U16  1
 UP BND       X_T148U17  1
 UP BND       X_T148U18  1
 UP BND       X_T148U19  1
 UP BND       X_T148U20  1
 UP BND       X_T148U21  1
 UP BND       X_T148U22  1
 UP BND       X_T148U23  1
 UP BND       X_T148U24  1
 UP BND       X_T148U25  1
 UP BND       X_T148U26  1
 UP BND       X_T148U27  1
 UP BND       X_T148U28  1
 UP BND       X_T148U29  1
 UP BND       X_T148U30  1
 UP BND       X_T149U1  1
 UP BND       X_T149U2  1
 UP BND       X_T149U3  1
 UP BND       X_T149U4  1
 UP BND       X_T149U5  1
 UP BND       X_T149U6  1
 UP BND       X_T149U7  1
 UP BND       X_T149U8  1
 UP BND       X_T149U9  1
 UP BND       X_T149U10  1
 UP BND       X_T149U11  1
 UP BND       X_T149U12  1
 UP BND       X_T149U13  1
 UP BND       X_T149U14  1
 UP BND       X_T149U15  1
 UP BND       X_T149U16  1
 UP BND       X_T149U17  1
 UP BND       X_T149U18  1
 UP BND       X_T149U19  1
 UP BND       X_T149U20  1
 UP BND       X_T149U21  1
 UP BND       X_T149U22  1
 UP BND       X_T149U23  1
 UP BND       X_T149U24  1
 UP BND       X_T149U25  1
 UP BND       X_T149U26  1
 UP BND       X_T149U27  1
 UP BND       X_T149U28  1
 UP BND       X_T149U29  1
 UP BND       X_T149U30  1
 UP BND       X_T150U1  1
 UP BND       X_T150U2  1
 UP BND       X_T150U3  1
 UP BND       X_T150U4  1
 UP BND       X_T150U5  1
 UP BND       X_T150U6  1
 UP BND       X_T150U7  1
 UP BND       X_T150U8  1
 UP BND       X_T150U9  1
 UP BND       X_T150U10  1
 UP BND       X_T150U11  1
 UP BND       X_T150U12  1
 UP BND       X_T150U13  1
 UP BND       X_T150U14  1
 UP BND       X_T150U15  1
 UP BND       X_T150U16  1
 UP BND       X_T150U17  1
 UP BND       X_T150U18  1
 UP BND       X_T150U19  1
 UP BND       X_T150U20  1
 UP BND       X_T150U21  1
 UP BND       X_T150U22  1
 UP BND       X_T150U23  1
 UP BND       X_T150U24  1
 UP BND       X_T150U25  1
 UP BND       X_T150U26  1
 UP BND       X_T150U27  1
 UP BND       X_T150U28  1
 UP BND       X_T150U29  1
 UP BND       X_T150U30  1
 UP BND       X_T151U1  1
 UP BND       X_T151U2  1
 UP BND       X_T151U3  1
 UP BND       X_T151U4  1
 UP BND       X_T151U5  1
 UP BND       X_T151U6  1
 UP BND       X_T151U7  1
 UP BND       X_T151U8  1
 UP BND       X_T151U9  1
 UP BND       X_T151U10  1
 UP BND       X_T151U11  1
 UP BND       X_T151U12  1
 UP BND       X_T151U13  1
 UP BND       X_T151U14  1
 UP BND       X_T151U15  1
 UP BND       X_T151U16  1
 UP BND       X_T151U17  1
 UP BND       X_T151U18  1
 UP BND       X_T151U19  1
 UP BND       X_T151U20  1
 UP BND       X_T151U21  1
 UP BND       X_T151U22  1
 UP BND       X_T151U23  1
 UP BND       X_T151U24  1
 UP BND       X_T151U25  1
 UP BND       X_T151U26  1
 UP BND       X_T151U27  1
 UP BND       X_T151U28  1
 UP BND       X_T151U29  1
 UP BND       X_T151U30  1
 UP BND       X_T152U1  1
 UP BND       X_T152U2  1
 UP BND       X_T152U3  1
 UP BND       X_T152U4  1
 UP BND       X_T152U5  1
 UP BND       X_T152U6  1
 UP BND       X_T152U7  1
 UP BND       X_T152U8  1
 UP BND       X_T152U9  1
 UP BND       X_T152U10  1
 UP BND       X_T152U11  1
 UP BND       X_T152U12  1
 UP BND       X_T152U13  1
 UP BND       X_T152U14  1
 UP BND       X_T152U15  1
 UP BND       X_T152U16  1
 UP BND       X_T152U17  1
 UP BND       X_T152U18  1
 UP BND       X_T152U19  1
 UP BND       X_T152U20  1
 UP BND       X_T152U21  1
 UP BND       X_T152U22  1
 UP BND       X_T152U23  1
 UP BND       X_T152U24  1
 UP BND       X_T152U25  1
 UP BND       X_T152U26  1
 UP BND       X_T152U27  1
 UP BND       X_T152U28  1
 UP BND       X_T152U29  1
 UP BND       X_T152U30  1
 UP BND       X_T153U1  1
 UP BND       X_T153U2  1
 UP BND       X_T153U3  1
 UP BND       X_T153U4  1
 UP BND       X_T153U5  1
 UP BND       X_T153U6  1
 UP BND       X_T153U7  1
 UP BND       X_T153U8  1
 UP BND       X_T153U9  1
 UP BND       X_T153U10  1
 UP BND       X_T153U11  1
 UP BND       X_T153U12  1
 UP BND       X_T153U13  1
 UP BND       X_T153U14  1
 UP BND       X_T153U15  1
 UP BND       X_T153U16  1
 UP BND       X_T153U17  1
 UP BND       X_T153U18  1
 UP BND       X_T153U19  1
 UP BND       X_T153U20  1
 UP BND       X_T153U21  1
 UP BND       X_T153U22  1
 UP BND       X_T153U23  1
 UP BND       X_T153U24  1
 UP BND       X_T153U25  1
 UP BND       X_T153U26  1
 UP BND       X_T153U27  1
 UP BND       X_T153U28  1
 UP BND       X_T153U29  1
 UP BND       X_T153U30  1
 UP BND       X_T154U1  1
 UP BND       X_T154U2  1
 UP BND       X_T154U3  1
 UP BND       X_T154U4  1
 UP BND       X_T154U5  1
 UP BND       X_T154U6  1
 UP BND       X_T154U7  1
 UP BND       X_T154U8  1
 UP BND       X_T154U9  1
 UP BND       X_T154U10  1
 UP BND       X_T154U11  1
 UP BND       X_T154U12  1
 UP BND       X_T154U13  1
 UP BND       X_T154U14  1
 UP BND       X_T154U15  1
 UP BND       X_T154U16  1
 UP BND       X_T154U17  1
 UP BND       X_T154U18  1
 UP BND       X_T154U19  1
 UP BND       X_T154U20  1
 UP BND       X_T154U21  1
 UP BND       X_T154U22  1
 UP BND       X_T154U23  1
 UP BND       X_T154U24  1
 UP BND       X_T154U25  1
 UP BND       X_T154U26  1
 UP BND       X_T154U27  1
 UP BND       X_T154U28  1
 UP BND       X_T154U29  1
 UP BND       X_T154U30  1
 UP BND       X_T155U1  1
 UP BND       X_T155U2  1
 UP BND       X_T155U3  1
 UP BND       X_T155U4  1
 UP BND       X_T155U5  1
 UP BND       X_T155U6  1
 UP BND       X_T155U7  1
 UP BND       X_T155U8  1
 UP BND       X_T155U9  1
 UP BND       X_T155U10  1
 UP BND       X_T155U11  1
 UP BND       X_T155U12  1
 UP BND       X_T155U13  1
 UP BND       X_T155U14  1
 UP BND       X_T155U15  1
 UP BND       X_T155U16  1
 UP BND       X_T155U17  1
 UP BND       X_T155U18  1
 UP BND       X_T155U19  1
 UP BND       X_T155U20  1
 UP BND       X_T155U21  1
 UP BND       X_T155U22  1
 UP BND       X_T155U23  1
 UP BND       X_T155U24  1
 UP BND       X_T155U25  1
 UP BND       X_T155U26  1
 UP BND       X_T155U27  1
 UP BND       X_T155U28  1
 UP BND       X_T155U29  1
 UP BND       X_T155U30  1
 UP BND       X_T156U1  1
 UP BND       X_T156U2  1
 UP BND       X_T156U3  1
 UP BND       X_T156U4  1
 UP BND       X_T156U5  1
 UP BND       X_T156U6  1
 UP BND       X_T156U7  1
 UP BND       X_T156U8  1
 UP BND       X_T156U9  1
 UP BND       X_T156U10  1
 UP BND       X_T156U11  1
 UP BND       X_T156U12  1
 UP BND       X_T156U13  1
 UP BND       X_T156U14  1
 UP BND       X_T156U15  1
 UP BND       X_T156U16  1
 UP BND       X_T156U17  1
 UP BND       X_T156U18  1
 UP BND       X_T156U19  1
 UP BND       X_T156U20  1
 UP BND       X_T156U21  1
 UP BND       X_T156U22  1
 UP BND       X_T156U23  1
 UP BND       X_T156U24  1
 UP BND       X_T156U25  1
 UP BND       X_T156U26  1
 UP BND       X_T156U27  1
 UP BND       X_T156U28  1
 UP BND       X_T156U29  1
 UP BND       X_T156U30  1
 UP BND       X_T157U1  1
 UP BND       X_T157U2  1
 UP BND       X_T157U3  1
 UP BND       X_T157U4  1
 UP BND       X_T157U5  1
 UP BND       X_T157U6  1
 UP BND       X_T157U7  1
 UP BND       X_T157U8  1
 UP BND       X_T157U9  1
 UP BND       X_T157U10  1
 UP BND       X_T157U11  1
 UP BND       X_T157U12  1
 UP BND       X_T157U13  1
 UP BND       X_T157U14  1
 UP BND       X_T157U15  1
 UP BND       X_T157U16  1
 UP BND       X_T157U17  1
 UP BND       X_T157U18  1
 UP BND       X_T157U19  1
 UP BND       X_T157U20  1
 UP BND       X_T157U21  1
 UP BND       X_T157U22  1
 UP BND       X_T157U23  1
 UP BND       X_T157U24  1
 UP BND       X_T157U25  1
 UP BND       X_T157U26  1
 UP BND       X_T157U27  1
 UP BND       X_T157U28  1
 UP BND       X_T157U29  1
 UP BND       X_T157U30  1
 UP BND       X_T158U1  1
 UP BND       X_T158U2  1
 UP BND       X_T158U3  1
 UP BND       X_T158U4  1
 UP BND       X_T158U5  1
 UP BND       X_T158U6  1
 UP BND       X_T158U7  1
 UP BND       X_T158U8  1
 UP BND       X_T158U9  1
 UP BND       X_T158U10  1
 UP BND       X_T158U11  1
 UP BND       X_T158U12  1
 UP BND       X_T158U13  1
 UP BND       X_T158U14  1
 UP BND       X_T158U15  1
 UP BND       X_T158U16  1
 UP BND       X_T158U17  1
 UP BND       X_T158U18  1
 UP BND       X_T158U19  1
 UP BND       X_T158U20  1
 UP BND       X_T158U21  1
 UP BND       X_T158U22  1
 UP BND       X_T158U23  1
 UP BND       X_T158U24  1
 UP BND       X_T158U25  1
 UP BND       X_T158U26  1
 UP BND       X_T158U27  1
 UP BND       X_T158U28  1
 UP BND       X_T158U29  1
 UP BND       X_T158U30  1
 UP BND       X_T159U1  1
 UP BND       X_T159U2  1
 UP BND       X_T159U3  1
 UP BND       X_T159U4  1
 UP BND       X_T159U5  1
 UP BND       X_T159U6  1
 UP BND       X_T159U7  1
 UP BND       X_T159U8  1
 UP BND       X_T159U9  1
 UP BND       X_T159U10  1
 UP BND       X_T159U11  1
 UP BND       X_T159U12  1
 UP BND       X_T159U13  1
 UP BND       X_T159U14  1
 UP BND       X_T159U15  1
 UP BND       X_T159U16  1
 UP BND       X_T159U17  1
 UP BND       X_T159U18  1
 UP BND       X_T159U19  1
 UP BND       X_T159U20  1
 UP BND       X_T159U21  1
 UP BND       X_T159U22  1
 UP BND       X_T159U23  1
 UP BND       X_T159U24  1
 UP BND       X_T159U25  1
 UP BND       X_T159U26  1
 UP BND       X_T159U27  1
 UP BND       X_T159U28  1
 UP BND       X_T159U29  1
 UP BND       X_T159U30  1
 UP BND       X_T160U1  1
 UP BND       X_T160U2  1
 UP BND       X_T160U3  1
 UP BND       X_T160U4  1
 UP BND       X_T160U5  1
 UP BND       X_T160U6  1
 UP BND       X_T160U7  1
 UP BND       X_T160U8  1
 UP BND       X_T160U9  1
 UP BND       X_T160U10  1
 UP BND       X_T160U11  1
 UP BND       X_T160U12  1
 UP BND       X_T160U13  1
 UP BND       X_T160U14  1
 UP BND       X_T160U15  1
 UP BND       X_T160U16  1
 UP BND       X_T160U17  1
 UP BND       X_T160U18  1
 UP BND       X_T160U19  1
 UP BND       X_T160U20  1
 UP BND       X_T160U21  1
 UP BND       X_T160U22  1
 UP BND       X_T160U23  1
 UP BND       X_T160U24  1
 UP BND       X_T160U25  1
 UP BND       X_T160U26  1
 UP BND       X_T160U27  1
 UP BND       X_T160U28  1
 UP BND       X_T160U29  1
 UP BND       X_T160U30  1
 UP BND       X_T161U1  1
 UP BND       X_T161U2  1
 UP BND       X_T161U3  1
 UP BND       X_T161U4  1
 UP BND       X_T161U5  1
 UP BND       X_T161U6  1
 UP BND       X_T161U7  1
 UP BND       X_T161U8  1
 UP BND       X_T161U9  1
 UP BND       X_T161U10  1
 UP BND       X_T161U11  1
 UP BND       X_T161U12  1
 UP BND       X_T161U13  1
 UP BND       X_T161U14  1
 UP BND       X_T161U15  1
 UP BND       X_T161U16  1
 UP BND       X_T161U17  1
 UP BND       X_T161U18  1
 UP BND       X_T161U19  1
 UP BND       X_T161U20  1
 UP BND       X_T161U21  1
 UP BND       X_T161U22  1
 UP BND       X_T161U23  1
 UP BND       X_T161U24  1
 UP BND       X_T161U25  1
 UP BND       X_T161U26  1
 UP BND       X_T161U27  1
 UP BND       X_T161U28  1
 UP BND       X_T161U29  1
 UP BND       X_T161U30  1
 UP BND       X_T162U1  1
 UP BND       X_T162U2  1
 UP BND       X_T162U3  1
 UP BND       X_T162U4  1
 UP BND       X_T162U5  1
 UP BND       X_T162U6  1
 UP BND       X_T162U7  1
 UP BND       X_T162U8  1
 UP BND       X_T162U9  1
 UP BND       X_T162U10  1
 UP BND       X_T162U11  1
 UP BND       X_T162U12  1
 UP BND       X_T162U13  1
 UP BND       X_T162U14  1
 UP BND       X_T162U15  1
 UP BND       X_T162U16  1
 UP BND       X_T162U17  1
 UP BND       X_T162U18  1
 UP BND       X_T162U19  1
 UP BND       X_T162U20  1
 UP BND       X_T162U21  1
 UP BND       X_T162U22  1
 UP BND       X_T162U23  1
 UP BND       X_T162U24  1
 UP BND       X_T162U25  1
 UP BND       X_T162U26  1
 UP BND       X_T162U27  1
 UP BND       X_T162U28  1
 UP BND       X_T162U29  1
 UP BND       X_T162U30  1
 UP BND       X_T163U1  1
 UP BND       X_T163U2  1
 UP BND       X_T163U3  1
 UP BND       X_T163U4  1
 UP BND       X_T163U5  1
 UP BND       X_T163U6  1
 UP BND       X_T163U7  1
 UP BND       X_T163U8  1
 UP BND       X_T163U9  1
 UP BND       X_T163U10  1
 UP BND       X_T163U11  1
 UP BND       X_T163U12  1
 UP BND       X_T163U13  1
 UP BND       X_T163U14  1
 UP BND       X_T163U15  1
 UP BND       X_T163U16  1
 UP BND       X_T163U17  1
 UP BND       X_T163U18  1
 UP BND       X_T163U19  1
 UP BND       X_T163U20  1
 UP BND       X_T163U21  1
 UP BND       X_T163U22  1
 UP BND       X_T163U23  1
 UP BND       X_T163U24  1
 UP BND       X_T163U25  1
 UP BND       X_T163U26  1
 UP BND       X_T163U27  1
 UP BND       X_T163U28  1
 UP BND       X_T163U29  1
 UP BND       X_T163U30  1
 UP BND       X_T164U1  1
 UP BND       X_T164U2  1
 UP BND       X_T164U3  1
 UP BND       X_T164U4  1
 UP BND       X_T164U5  1
 UP BND       X_T164U6  1
 UP BND       X_T164U7  1
 UP BND       X_T164U8  1
 UP BND       X_T164U9  1
 UP BND       X_T164U10  1
 UP BND       X_T164U11  1
 UP BND       X_T164U12  1
 UP BND       X_T164U13  1
 UP BND       X_T164U14  1
 UP BND       X_T164U15  1
 UP BND       X_T164U16  1
 UP BND       X_T164U17  1
 UP BND       X_T164U18  1
 UP BND       X_T164U19  1
 UP BND       X_T164U20  1
 UP BND       X_T164U21  1
 UP BND       X_T164U22  1
 UP BND       X_T164U23  1
 UP BND       X_T164U24  1
 UP BND       X_T164U25  1
 UP BND       X_T164U26  1
 UP BND       X_T164U27  1
 UP BND       X_T164U28  1
 UP BND       X_T164U29  1
 UP BND       X_T164U30  1
 UP BND       X_T165U1  1
 UP BND       X_T165U2  1
 UP BND       X_T165U3  1
 UP BND       X_T165U4  1
 UP BND       X_T165U5  1
 UP BND       X_T165U6  1
 UP BND       X_T165U7  1
 UP BND       X_T165U8  1
 UP BND       X_T165U9  1
 UP BND       X_T165U10  1
 UP BND       X_T165U11  1
 UP BND       X_T165U12  1
 UP BND       X_T165U13  1
 UP BND       X_T165U14  1
 UP BND       X_T165U15  1
 UP BND       X_T165U16  1
 UP BND       X_T165U17  1
 UP BND       X_T165U18  1
 UP BND       X_T165U19  1
 UP BND       X_T165U20  1
 UP BND       X_T165U21  1
 UP BND       X_T165U22  1
 UP BND       X_T165U23  1
 UP BND       X_T165U24  1
 UP BND       X_T165U25  1
 UP BND       X_T165U26  1
 UP BND       X_T165U27  1
 UP BND       X_T165U28  1
 UP BND       X_T165U29  1
 UP BND       X_T165U30  1
 UP BND       X_T166U1  1
 UP BND       X_T166U2  1
 UP BND       X_T166U3  1
 UP BND       X_T166U4  1
 UP BND       X_T166U5  1
 UP BND       X_T166U6  1
 UP BND       X_T166U7  1
 UP BND       X_T166U8  1
 UP BND       X_T166U9  1
 UP BND       X_T166U10  1
 UP BND       X_T166U11  1
 UP BND       X_T166U12  1
 UP BND       X_T166U13  1
 UP BND       X_T166U14  1
 UP BND       X_T166U15  1
 UP BND       X_T166U16  1
 UP BND       X_T166U17  1
 UP BND       X_T166U18  1
 UP BND       X_T166U19  1
 UP BND       X_T166U20  1
 UP BND       X_T166U21  1
 UP BND       X_T166U22  1
 UP BND       X_T166U23  1
 UP BND       X_T166U24  1
 UP BND       X_T166U25  1
 UP BND       X_T166U26  1
 UP BND       X_T166U27  1
 UP BND       X_T166U28  1
 UP BND       X_T166U29  1
 UP BND       X_T166U30  1
 UP BND       X_T167U1  1
 UP BND       X_T167U2  1
 UP BND       X_T167U3  1
 UP BND       X_T167U4  1
 UP BND       X_T167U5  1
 UP BND       X_T167U6  1
 UP BND       X_T167U7  1
 UP BND       X_T167U8  1
 UP BND       X_T167U9  1
 UP BND       X_T167U10  1
 UP BND       X_T167U11  1
 UP BND       X_T167U12  1
 UP BND       X_T167U13  1
 UP BND       X_T167U14  1
 UP BND       X_T167U15  1
 UP BND       X_T167U16  1
 UP BND       X_T167U17  1
 UP BND       X_T167U18  1
 UP BND       X_T167U19  1
 UP BND       X_T167U20  1
 UP BND       X_T167U21  1
 UP BND       X_T167U22  1
 UP BND       X_T167U23  1
 UP BND       X_T167U24  1
 UP BND       X_T167U25  1
 UP BND       X_T167U26  1
 UP BND       X_T167U27  1
 UP BND       X_T167U28  1
 UP BND       X_T167U29  1
 UP BND       X_T167U30  1
 UP BND       X_T168U1  1
 UP BND       X_T168U2  1
 UP BND       X_T168U3  1
 UP BND       X_T168U4  1
 UP BND       X_T168U5  1
 UP BND       X_T168U6  1
 UP BND       X_T168U7  1
 UP BND       X_T168U8  1
 UP BND       X_T168U9  1
 UP BND       X_T168U10  1
 UP BND       X_T168U11  1
 UP BND       X_T168U12  1
 UP BND       X_T168U13  1
 UP BND       X_T168U14  1
 UP BND       X_T168U15  1
 UP BND       X_T168U16  1
 UP BND       X_T168U17  1
 UP BND       X_T168U18  1
 UP BND       X_T168U19  1
 UP BND       X_T168U20  1
 UP BND       X_T168U21  1
 UP BND       X_T168U22  1
 UP BND       X_T168U23  1
 UP BND       X_T168U24  1
 UP BND       X_T168U25  1
 UP BND       X_T168U26  1
 UP BND       X_T168U27  1
 UP BND       X_T168U28  1
 UP BND       X_T168U29  1
 UP BND       X_T168U30  1
 UP BND       S_T1U1  1
 UP BND       S_T1U2  1
 UP BND       S_T1U3  1
 UP BND       S_T1U4  1
 UP BND       S_T1U5  1
 UP BND       S_T1U6  1
 UP BND       S_T1U7  1
 UP BND       S_T1U8  1
 UP BND       S_T1U9  1
 UP BND       S_T1U10  1
 UP BND       S_T1U11  1
 UP BND       S_T1U12  1
 UP BND       S_T1U13  1
 UP BND       S_T1U14  1
 UP BND       S_T1U15  1
 UP BND       S_T1U16  1
 UP BND       S_T1U17  1
 UP BND       S_T1U18  1
 UP BND       S_T1U19  1
 UP BND       S_T1U20  1
 UP BND       S_T1U21  1
 UP BND       S_T1U22  1
 UP BND       S_T1U23  1
 UP BND       S_T1U24  1
 UP BND       S_T1U25  1
 UP BND       S_T1U26  1
 UP BND       S_T1U27  1
 UP BND       S_T1U28  1
 UP BND       S_T1U29  1
 UP BND       S_T1U30  1
 UP BND       S_T2U1  1
 UP BND       S_T2U2  1
 UP BND       S_T2U3  1
 UP BND       S_T2U4  1
 UP BND       S_T2U5  1
 UP BND       S_T2U6  1
 UP BND       S_T2U7  1
 UP BND       S_T2U8  1
 UP BND       S_T2U9  1
 UP BND       S_T2U10  1
 UP BND       S_T2U11  1
 UP BND       S_T2U12  1
 UP BND       S_T2U13  1
 UP BND       S_T2U14  1
 UP BND       S_T2U15  1
 UP BND       S_T2U16  1
 UP BND       S_T2U17  1
 UP BND       S_T2U18  1
 UP BND       S_T2U19  1
 UP BND       S_T2U20  1
 UP BND       S_T2U21  1
 UP BND       S_T2U22  1
 UP BND       S_T2U23  1
 UP BND       S_T2U24  1
 UP BND       S_T2U25  1
 UP BND       S_T2U26  1
 UP BND       S_T2U27  1
 UP BND       S_T2U28  1
 UP BND       S_T2U29  1
 UP BND       S_T2U30  1
 UP BND       S_T3U1  1
 UP BND       S_T3U2  1
 UP BND       S_T3U3  1
 UP BND       S_T3U4  1
 UP BND       S_T3U5  1
 UP BND       S_T3U6  1
 UP BND       S_T3U7  1
 UP BND       S_T3U8  1
 UP BND       S_T3U9  1
 UP BND       S_T3U10  1
 UP BND       S_T3U11  1
 UP BND       S_T3U12  1
 UP BND       S_T3U13  1
 UP BND       S_T3U14  1
 UP BND       S_T3U15  1
 UP BND       S_T3U16  1
 UP BND       S_T3U17  1
 UP BND       S_T3U18  1
 UP BND       S_T3U19  1
 UP BND       S_T3U20  1
 UP BND       S_T3U21  1
 UP BND       S_T3U22  1
 UP BND       S_T3U23  1
 UP BND       S_T3U24  1
 UP BND       S_T3U25  1
 UP BND       S_T3U26  1
 UP BND       S_T3U27  1
 UP BND       S_T3U28  1
 UP BND       S_T3U29  1
 UP BND       S_T3U30  1
 UP BND       S_T4U1  1
 UP BND       S_T4U2  1
 UP BND       S_T4U3  1
 UP BND       S_T4U4  1
 UP BND       S_T4U5  1
 UP BND       S_T4U6  1
 UP BND       S_T4U7  1
 UP BND       S_T4U8  1
 UP BND       S_T4U9  1
 UP BND       S_T4U10  1
 UP BND       S_T4U11  1
 UP BND       S_T4U12  1
 UP BND       S_T4U13  1
 UP BND       S_T4U14  1
 UP BND       S_T4U15  1
 UP BND       S_T4U16  1
 UP BND       S_T4U17  1
 UP BND       S_T4U18  1
 UP BND       S_T4U19  1
 UP BND       S_T4U20  1
 UP BND       S_T4U21  1
 UP BND       S_T4U22  1
 UP BND       S_T4U23  1
 UP BND       S_T4U24  1
 UP BND       S_T4U25  1
 UP BND       S_T4U26  1
 UP BND       S_T4U27  1
 UP BND       S_T4U28  1
 UP BND       S_T4U29  1
 UP BND       S_T4U30  1
 UP BND       S_T5U1  1
 UP BND       S_T5U2  1
 UP BND       S_T5U3  1
 UP BND       S_T5U4  1
 UP BND       S_T5U5  1
 UP BND       S_T5U6  1
 UP BND       S_T5U7  1
 UP BND       S_T5U8  1
 UP BND       S_T5U9  1
 UP BND       S_T5U10  1
 UP BND       S_T5U11  1
 UP BND       S_T5U12  1
 UP BND       S_T5U13  1
 UP BND       S_T5U14  1
 UP BND       S_T5U15  1
 UP BND       S_T5U16  1
 UP BND       S_T5U17  1
 UP BND       S_T5U18  1
 UP BND       S_T5U19  1
 UP BND       S_T5U20  1
 UP BND       S_T5U21  1
 UP BND       S_T5U22  1
 UP BND       S_T5U23  1
 UP BND       S_T5U24  1
 UP BND       S_T5U25  1
 UP BND       S_T5U26  1
 UP BND       S_T5U27  1
 UP BND       S_T5U28  1
 UP BND       S_T5U29  1
 UP BND       S_T5U30  1
 UP BND       S_T6U1  1
 UP BND       S_T6U2  1
 UP BND       S_T6U3  1
 UP BND       S_T6U4  1
 UP BND       S_T6U5  1
 UP BND       S_T6U6  1
 UP BND       S_T6U7  1
 UP BND       S_T6U8  1
 UP BND       S_T6U9  1
 UP BND       S_T6U10  1
 UP BND       S_T6U11  1
 UP BND       S_T6U12  1
 UP BND       S_T6U13  1
 UP BND       S_T6U14  1
 UP BND       S_T6U15  1
 UP BND       S_T6U16  1
 UP BND       S_T6U17  1
 UP BND       S_T6U18  1
 UP BND       S_T6U19  1
 UP BND       S_T6U20  1
 UP BND       S_T6U21  1
 UP BND       S_T6U22  1
 UP BND       S_T6U23  1
 UP BND       S_T6U24  1
 UP BND       S_T6U25  1
 UP BND       S_T6U26  1
 UP BND       S_T6U27  1
 UP BND       S_T6U28  1
 UP BND       S_T6U29  1
 UP BND       S_T6U30  1
 UP BND       S_T7U1  1
 UP BND       S_T7U2  1
 UP BND       S_T7U3  1
 UP BND       S_T7U4  1
 UP BND       S_T7U5  1
 UP BND       S_T7U6  1
 UP BND       S_T7U7  1
 UP BND       S_T7U8  1
 UP BND       S_T7U9  1
 UP BND       S_T7U10  1
 UP BND       S_T7U11  1
 UP BND       S_T7U12  1
 UP BND       S_T7U13  1
 UP BND       S_T7U14  1
 UP BND       S_T7U15  1
 UP BND       S_T7U16  1
 UP BND       S_T7U17  1
 UP BND       S_T7U18  1
 UP BND       S_T7U19  1
 UP BND       S_T7U20  1
 UP BND       S_T7U21  1
 UP BND       S_T7U22  1
 UP BND       S_T7U23  1
 UP BND       S_T7U24  1
 UP BND       S_T7U25  1
 UP BND       S_T7U26  1
 UP BND       S_T7U27  1
 UP BND       S_T7U28  1
 UP BND       S_T7U29  1
 UP BND       S_T7U30  1
 UP BND       S_T8U1  1
 UP BND       S_T8U2  1
 UP BND       S_T8U3  1
 UP BND       S_T8U4  1
 UP BND       S_T8U5  1
 UP BND       S_T8U6  1
 UP BND       S_T8U7  1
 UP BND       S_T8U8  1
 UP BND       S_T8U9  1
 UP BND       S_T8U10  1
 UP BND       S_T8U11  1
 UP BND       S_T8U12  1
 UP BND       S_T8U13  1
 UP BND       S_T8U14  1
 UP BND       S_T8U15  1
 UP BND       S_T8U16  1
 UP BND       S_T8U17  1
 UP BND       S_T8U18  1
 UP BND       S_T8U19  1
 UP BND       S_T8U20  1
 UP BND       S_T8U21  1
 UP BND       S_T8U22  1
 UP BND       S_T8U23  1
 UP BND       S_T8U24  1
 UP BND       S_T8U25  1
 UP BND       S_T8U26  1
 UP BND       S_T8U27  1
 UP BND       S_T8U28  1
 UP BND       S_T8U29  1
 UP BND       S_T8U30  1
 UP BND       S_T9U1  1
 UP BND       S_T9U2  1
 UP BND       S_T9U3  1
 UP BND       S_T9U4  1
 UP BND       S_T9U5  1
 UP BND       S_T9U6  1
 UP BND       S_T9U7  1
 UP BND       S_T9U8  1
 UP BND       S_T9U9  1
 UP BND       S_T9U10  1
 UP BND       S_T9U11  1
 UP BND       S_T9U12  1
 UP BND       S_T9U13  1
 UP BND       S_T9U14  1
 UP BND       S_T9U15  1
 UP BND       S_T9U16  1
 UP BND       S_T9U17  1
 UP BND       S_T9U18  1
 UP BND       S_T9U19  1
 UP BND       S_T9U20  1
 UP BND       S_T9U21  1
 UP BND       S_T9U22  1
 UP BND       S_T9U23  1
 UP BND       S_T9U24  1
 UP BND       S_T9U25  1
 UP BND       S_T9U26  1
 UP BND       S_T9U27  1
 UP BND       S_T9U28  1
 UP BND       S_T9U29  1
 UP BND       S_T9U30  1
 UP BND       S_T10U1  1
 UP BND       S_T10U2  1
 UP BND       S_T10U3  1
 UP BND       S_T10U4  1
 UP BND       S_T10U5  1
 UP BND       S_T10U6  1
 UP BND       S_T10U7  1
 UP BND       S_T10U8  1
 UP BND       S_T10U9  1
 UP BND       S_T10U10  1
 UP BND       S_T10U11  1
 UP BND       S_T10U12  1
 UP BND       S_T10U13  1
 UP BND       S_T10U14  1
 UP BND       S_T10U15  1
 UP BND       S_T10U16  1
 UP BND       S_T10U17  1
 UP BND       S_T10U18  1
 UP BND       S_T10U19  1
 UP BND       S_T10U20  1
 UP BND       S_T10U21  1
 UP BND       S_T10U22  1
 UP BND       S_T10U23  1
 UP BND       S_T10U24  1
 UP BND       S_T10U25  1
 UP BND       S_T10U26  1
 UP BND       S_T10U27  1
 UP BND       S_T10U28  1
 UP BND       S_T10U29  1
 UP BND       S_T10U30  1
 UP BND       S_T11U1  1
 UP BND       S_T11U2  1
 UP BND       S_T11U3  1
 UP BND       S_T11U4  1
 UP BND       S_T11U5  1
 UP BND       S_T11U6  1
 UP BND       S_T11U7  1
 UP BND       S_T11U8  1
 UP BND       S_T11U9  1
 UP BND       S_T11U10  1
 UP BND       S_T11U11  1
 UP BND       S_T11U12  1
 UP BND       S_T11U13  1
 UP BND       S_T11U14  1
 UP BND       S_T11U15  1
 UP BND       S_T11U16  1
 UP BND       S_T11U17  1
 UP BND       S_T11U18  1
 UP BND       S_T11U19  1
 UP BND       S_T11U20  1
 UP BND       S_T11U21  1
 UP BND       S_T11U22  1
 UP BND       S_T11U23  1
 UP BND       S_T11U24  1
 UP BND       S_T11U25  1
 UP BND       S_T11U26  1
 UP BND       S_T11U27  1
 UP BND       S_T11U28  1
 UP BND       S_T11U29  1
 UP BND       S_T11U30  1
 UP BND       S_T12U1  1
 UP BND       S_T12U2  1
 UP BND       S_T12U3  1
 UP BND       S_T12U4  1
 UP BND       S_T12U5  1
 UP BND       S_T12U6  1
 UP BND       S_T12U7  1
 UP BND       S_T12U8  1
 UP BND       S_T12U9  1
 UP BND       S_T12U10  1
 UP BND       S_T12U11  1
 UP BND       S_T12U12  1
 UP BND       S_T12U13  1
 UP BND       S_T12U14  1
 UP BND       S_T12U15  1
 UP BND       S_T12U16  1
 UP BND       S_T12U17  1
 UP BND       S_T12U18  1
 UP BND       S_T12U19  1
 UP BND       S_T12U20  1
 UP BND       S_T12U21  1
 UP BND       S_T12U22  1
 UP BND       S_T12U23  1
 UP BND       S_T12U24  1
 UP BND       S_T12U25  1
 UP BND       S_T12U26  1
 UP BND       S_T12U27  1
 UP BND       S_T12U28  1
 UP BND       S_T12U29  1
 UP BND       S_T12U30  1
 UP BND       S_T13U1  1
 UP BND       S_T13U2  1
 UP BND       S_T13U3  1
 UP BND       S_T13U4  1
 UP BND       S_T13U5  1
 UP BND       S_T13U6  1
 UP BND       S_T13U7  1
 UP BND       S_T13U8  1
 UP BND       S_T13U9  1
 UP BND       S_T13U10  1
 UP BND       S_T13U11  1
 UP BND       S_T13U12  1
 UP BND       S_T13U13  1
 UP BND       S_T13U14  1
 UP BND       S_T13U15  1
 UP BND       S_T13U16  1
 UP BND       S_T13U17  1
 UP BND       S_T13U18  1
 UP BND       S_T13U19  1
 UP BND       S_T13U20  1
 UP BND       S_T13U21  1
 UP BND       S_T13U22  1
 UP BND       S_T13U23  1
 UP BND       S_T13U24  1
 UP BND       S_T13U25  1
 UP BND       S_T13U26  1
 UP BND       S_T13U27  1
 UP BND       S_T13U28  1
 UP BND       S_T13U29  1
 UP BND       S_T13U30  1
 UP BND       S_T14U1  1
 UP BND       S_T14U2  1
 UP BND       S_T14U3  1
 UP BND       S_T14U4  1
 UP BND       S_T14U5  1
 UP BND       S_T14U6  1
 UP BND       S_T14U7  1
 UP BND       S_T14U8  1
 UP BND       S_T14U9  1
 UP BND       S_T14U10  1
 UP BND       S_T14U11  1
 UP BND       S_T14U12  1
 UP BND       S_T14U13  1
 UP BND       S_T14U14  1
 UP BND       S_T14U15  1
 UP BND       S_T14U16  1
 UP BND       S_T14U17  1
 UP BND       S_T14U18  1
 UP BND       S_T14U19  1
 UP BND       S_T14U20  1
 UP BND       S_T14U21  1
 UP BND       S_T14U22  1
 UP BND       S_T14U23  1
 UP BND       S_T14U24  1
 UP BND       S_T14U25  1
 UP BND       S_T14U26  1
 UP BND       S_T14U27  1
 UP BND       S_T14U28  1
 UP BND       S_T14U29  1
 UP BND       S_T14U30  1
 UP BND       S_T15U1  1
 UP BND       S_T15U2  1
 UP BND       S_T15U3  1
 UP BND       S_T15U4  1
 UP BND       S_T15U5  1
 UP BND       S_T15U6  1
 UP BND       S_T15U7  1
 UP BND       S_T15U8  1
 UP BND       S_T15U9  1
 UP BND       S_T15U10  1
 UP BND       S_T15U11  1
 UP BND       S_T15U12  1
 UP BND       S_T15U13  1
 UP BND       S_T15U14  1
 UP BND       S_T15U15  1
 UP BND       S_T15U16  1
 UP BND       S_T15U17  1
 UP BND       S_T15U18  1
 UP BND       S_T15U19  1
 UP BND       S_T15U20  1
 UP BND       S_T15U21  1
 UP BND       S_T15U22  1
 UP BND       S_T15U23  1
 UP BND       S_T15U24  1
 UP BND       S_T15U25  1
 UP BND       S_T15U26  1
 UP BND       S_T15U27  1
 UP BND       S_T15U28  1
 UP BND       S_T15U29  1
 UP BND       S_T15U30  1
 UP BND       S_T16U1  1
 UP BND       S_T16U2  1
 UP BND       S_T16U3  1
 UP BND       S_T16U4  1
 UP BND       S_T16U5  1
 UP BND       S_T16U6  1
 UP BND       S_T16U7  1
 UP BND       S_T16U8  1
 UP BND       S_T16U9  1
 UP BND       S_T16U10  1
 UP BND       S_T16U11  1
 UP BND       S_T16U12  1
 UP BND       S_T16U13  1
 UP BND       S_T16U14  1
 UP BND       S_T16U15  1
 UP BND       S_T16U16  1
 UP BND       S_T16U17  1
 UP BND       S_T16U18  1
 UP BND       S_T16U19  1
 UP BND       S_T16U20  1
 UP BND       S_T16U21  1
 UP BND       S_T16U22  1
 UP BND       S_T16U23  1
 UP BND       S_T16U24  1
 UP BND       S_T16U25  1
 UP BND       S_T16U26  1
 UP BND       S_T16U27  1
 UP BND       S_T16U28  1
 UP BND       S_T16U29  1
 UP BND       S_T16U30  1
 UP BND       S_T17U1  1
 UP BND       S_T17U2  1
 UP BND       S_T17U3  1
 UP BND       S_T17U4  1
 UP BND       S_T17U5  1
 UP BND       S_T17U6  1
 UP BND       S_T17U7  1
 UP BND       S_T17U8  1
 UP BND       S_T17U9  1
 UP BND       S_T17U10  1
 UP BND       S_T17U11  1
 UP BND       S_T17U12  1
 UP BND       S_T17U13  1
 UP BND       S_T17U14  1
 UP BND       S_T17U15  1
 UP BND       S_T17U16  1
 UP BND       S_T17U17  1
 UP BND       S_T17U18  1
 UP BND       S_T17U19  1
 UP BND       S_T17U20  1
 UP BND       S_T17U21  1
 UP BND       S_T17U22  1
 UP BND       S_T17U23  1
 UP BND       S_T17U24  1
 UP BND       S_T17U25  1
 UP BND       S_T17U26  1
 UP BND       S_T17U27  1
 UP BND       S_T17U28  1
 UP BND       S_T17U29  1
 UP BND       S_T17U30  1
 UP BND       S_T18U1  1
 UP BND       S_T18U2  1
 UP BND       S_T18U3  1
 UP BND       S_T18U4  1
 UP BND       S_T18U5  1
 UP BND       S_T18U6  1
 UP BND       S_T18U7  1
 UP BND       S_T18U8  1
 UP BND       S_T18U9  1
 UP BND       S_T18U10  1
 UP BND       S_T18U11  1
 UP BND       S_T18U12  1
 UP BND       S_T18U13  1
 UP BND       S_T18U14  1
 UP BND       S_T18U15  1
 UP BND       S_T18U16  1
 UP BND       S_T18U17  1
 UP BND       S_T18U18  1
 UP BND       S_T18U19  1
 UP BND       S_T18U20  1
 UP BND       S_T18U21  1
 UP BND       S_T18U22  1
 UP BND       S_T18U23  1
 UP BND       S_T18U24  1
 UP BND       S_T18U25  1
 UP BND       S_T18U26  1
 UP BND       S_T18U27  1
 UP BND       S_T18U28  1
 UP BND       S_T18U29  1
 UP BND       S_T18U30  1
 UP BND       S_T19U1  1
 UP BND       S_T19U2  1
 UP BND       S_T19U3  1
 UP BND       S_T19U4  1
 UP BND       S_T19U5  1
 UP BND       S_T19U6  1
 UP BND       S_T19U7  1
 UP BND       S_T19U8  1
 UP BND       S_T19U9  1
 UP BND       S_T19U10  1
 UP BND       S_T19U11  1
 UP BND       S_T19U12  1
 UP BND       S_T19U13  1
 UP BND       S_T19U14  1
 UP BND       S_T19U15  1
 UP BND       S_T19U16  1
 UP BND       S_T19U17  1
 UP BND       S_T19U18  1
 UP BND       S_T19U19  1
 UP BND       S_T19U20  1
 UP BND       S_T19U21  1
 UP BND       S_T19U22  1
 UP BND       S_T19U23  1
 UP BND       S_T19U24  1
 UP BND       S_T19U25  1
 UP BND       S_T19U26  1
 UP BND       S_T19U27  1
 UP BND       S_T19U28  1
 UP BND       S_T19U29  1
 UP BND       S_T19U30  1
 UP BND       S_T20U1  1
 UP BND       S_T20U2  1
 UP BND       S_T20U3  1
 UP BND       S_T20U4  1
 UP BND       S_T20U5  1
 UP BND       S_T20U6  1
 UP BND       S_T20U7  1
 UP BND       S_T20U8  1
 UP BND       S_T20U9  1
 UP BND       S_T20U10  1
 UP BND       S_T20U11  1
 UP BND       S_T20U12  1
 UP BND       S_T20U13  1
 UP BND       S_T20U14  1
 UP BND       S_T20U15  1
 UP BND       S_T20U16  1
 UP BND       S_T20U17  1
 UP BND       S_T20U18  1
 UP BND       S_T20U19  1
 UP BND       S_T20U20  1
 UP BND       S_T20U21  1
 UP BND       S_T20U22  1
 UP BND       S_T20U23  1
 UP BND       S_T20U24  1
 UP BND       S_T20U25  1
 UP BND       S_T20U26  1
 UP BND       S_T20U27  1
 UP BND       S_T20U28  1
 UP BND       S_T20U29  1
 UP BND       S_T20U30  1
 UP BND       S_T21U1  1
 UP BND       S_T21U2  1
 UP BND       S_T21U3  1
 UP BND       S_T21U4  1
 UP BND       S_T21U5  1
 UP BND       S_T21U6  1
 UP BND       S_T21U7  1
 UP BND       S_T21U8  1
 UP BND       S_T21U9  1
 UP BND       S_T21U10  1
 UP BND       S_T21U11  1
 UP BND       S_T21U12  1
 UP BND       S_T21U13  1
 UP BND       S_T21U14  1
 UP BND       S_T21U15  1
 UP BND       S_T21U16  1
 UP BND       S_T21U17  1
 UP BND       S_T21U18  1
 UP BND       S_T21U19  1
 UP BND       S_T21U20  1
 UP BND       S_T21U21  1
 UP BND       S_T21U22  1
 UP BND       S_T21U23  1
 UP BND       S_T21U24  1
 UP BND       S_T21U25  1
 UP BND       S_T21U26  1
 UP BND       S_T21U27  1
 UP BND       S_T21U28  1
 UP BND       S_T21U29  1
 UP BND       S_T21U30  1
 UP BND       S_T22U1  1
 UP BND       S_T22U2  1
 UP BND       S_T22U3  1
 UP BND       S_T22U4  1
 UP BND       S_T22U5  1
 UP BND       S_T22U6  1
 UP BND       S_T22U7  1
 UP BND       S_T22U8  1
 UP BND       S_T22U9  1
 UP BND       S_T22U10  1
 UP BND       S_T22U11  1
 UP BND       S_T22U12  1
 UP BND       S_T22U13  1
 UP BND       S_T22U14  1
 UP BND       S_T22U15  1
 UP BND       S_T22U16  1
 UP BND       S_T22U17  1
 UP BND       S_T22U18  1
 UP BND       S_T22U19  1
 UP BND       S_T22U20  1
 UP BND       S_T22U21  1
 UP BND       S_T22U22  1
 UP BND       S_T22U23  1
 UP BND       S_T22U24  1
 UP BND       S_T22U25  1
 UP BND       S_T22U26  1
 UP BND       S_T22U27  1
 UP BND       S_T22U28  1
 UP BND       S_T22U29  1
 UP BND       S_T22U30  1
 UP BND       S_T23U1  1
 UP BND       S_T23U2  1
 UP BND       S_T23U3  1
 UP BND       S_T23U4  1
 UP BND       S_T23U5  1
 UP BND       S_T23U6  1
 UP BND       S_T23U7  1
 UP BND       S_T23U8  1
 UP BND       S_T23U9  1
 UP BND       S_T23U10  1
 UP BND       S_T23U11  1
 UP BND       S_T23U12  1
 UP BND       S_T23U13  1
 UP BND       S_T23U14  1
 UP BND       S_T23U15  1
 UP BND       S_T23U16  1
 UP BND       S_T23U17  1
 UP BND       S_T23U18  1
 UP BND       S_T23U19  1
 UP BND       S_T23U20  1
 UP BND       S_T23U21  1
 UP BND       S_T23U22  1
 UP BND       S_T23U23  1
 UP BND       S_T23U24  1
 UP BND       S_T23U25  1
 UP BND       S_T23U26  1
 UP BND       S_T23U27  1
 UP BND       S_T23U28  1
 UP BND       S_T23U29  1
 UP BND       S_T23U30  1
 UP BND       S_T24U1  1
 UP BND       S_T24U2  1
 UP BND       S_T24U3  1
 UP BND       S_T24U4  1
 UP BND       S_T24U5  1
 UP BND       S_T24U6  1
 UP BND       S_T24U7  1
 UP BND       S_T24U8  1
 UP BND       S_T24U9  1
 UP BND       S_T24U10  1
 UP BND       S_T24U11  1
 UP BND       S_T24U12  1
 UP BND       S_T24U13  1
 UP BND       S_T24U14  1
 UP BND       S_T24U15  1
 UP BND       S_T24U16  1
 UP BND       S_T24U17  1
 UP BND       S_T24U18  1
 UP BND       S_T24U19  1
 UP BND       S_T24U20  1
 UP BND       S_T24U21  1
 UP BND       S_T24U22  1
 UP BND       S_T24U23  1
 UP BND       S_T24U24  1
 UP BND       S_T24U25  1
 UP BND       S_T24U26  1
 UP BND       S_T24U27  1
 UP BND       S_T24U28  1
 UP BND       S_T24U29  1
 UP BND       S_T24U30  1
 UP BND       S_T25U1  1
 UP BND       S_T25U2  1
 UP BND       S_T25U3  1
 UP BND       S_T25U4  1
 UP BND       S_T25U5  1
 UP BND       S_T25U6  1
 UP BND       S_T25U7  1
 UP BND       S_T25U8  1
 UP BND       S_T25U9  1
 UP BND       S_T25U10  1
 UP BND       S_T25U11  1
 UP BND       S_T25U12  1
 UP BND       S_T25U13  1
 UP BND       S_T25U14  1
 UP BND       S_T25U15  1
 UP BND       S_T25U16  1
 UP BND       S_T25U17  1
 UP BND       S_T25U18  1
 UP BND       S_T25U19  1
 UP BND       S_T25U20  1
 UP BND       S_T25U21  1
 UP BND       S_T25U22  1
 UP BND       S_T25U23  1
 UP BND       S_T25U24  1
 UP BND       S_T25U25  1
 UP BND       S_T25U26  1
 UP BND       S_T25U27  1
 UP BND       S_T25U28  1
 UP BND       S_T25U29  1
 UP BND       S_T25U30  1
 UP BND       S_T26U1  1
 UP BND       S_T26U2  1
 UP BND       S_T26U3  1
 UP BND       S_T26U4  1
 UP BND       S_T26U5  1
 UP BND       S_T26U6  1
 UP BND       S_T26U7  1
 UP BND       S_T26U8  1
 UP BND       S_T26U9  1
 UP BND       S_T26U10  1
 UP BND       S_T26U11  1
 UP BND       S_T26U12  1
 UP BND       S_T26U13  1
 UP BND       S_T26U14  1
 UP BND       S_T26U15  1
 UP BND       S_T26U16  1
 UP BND       S_T26U17  1
 UP BND       S_T26U18  1
 UP BND       S_T26U19  1
 UP BND       S_T26U20  1
 UP BND       S_T26U21  1
 UP BND       S_T26U22  1
 UP BND       S_T26U23  1
 UP BND       S_T26U24  1
 UP BND       S_T26U25  1
 UP BND       S_T26U26  1
 UP BND       S_T26U27  1
 UP BND       S_T26U28  1
 UP BND       S_T26U29  1
 UP BND       S_T26U30  1
 UP BND       S_T27U1  1
 UP BND       S_T27U2  1
 UP BND       S_T27U3  1
 UP BND       S_T27U4  1
 UP BND       S_T27U5  1
 UP BND       S_T27U6  1
 UP BND       S_T27U7  1
 UP BND       S_T27U8  1
 UP BND       S_T27U9  1
 UP BND       S_T27U10  1
 UP BND       S_T27U11  1
 UP BND       S_T27U12  1
 UP BND       S_T27U13  1
 UP BND       S_T27U14  1
 UP BND       S_T27U15  1
 UP BND       S_T27U16  1
 UP BND       S_T27U17  1
 UP BND       S_T27U18  1
 UP BND       S_T27U19  1
 UP BND       S_T27U20  1
 UP BND       S_T27U21  1
 UP BND       S_T27U22  1
 UP BND       S_T27U23  1
 UP BND       S_T27U24  1
 UP BND       S_T27U25  1
 UP BND       S_T27U26  1
 UP BND       S_T27U27  1
 UP BND       S_T27U28  1
 UP BND       S_T27U29  1
 UP BND       S_T27U30  1
 UP BND       S_T28U1  1
 UP BND       S_T28U2  1
 UP BND       S_T28U3  1
 UP BND       S_T28U4  1
 UP BND       S_T28U5  1
 UP BND       S_T28U6  1
 UP BND       S_T28U7  1
 UP BND       S_T28U8  1
 UP BND       S_T28U9  1
 UP BND       S_T28U10  1
 UP BND       S_T28U11  1
 UP BND       S_T28U12  1
 UP BND       S_T28U13  1
 UP BND       S_T28U14  1
 UP BND       S_T28U15  1
 UP BND       S_T28U16  1
 UP BND       S_T28U17  1
 UP BND       S_T28U18  1
 UP BND       S_T28U19  1
 UP BND       S_T28U20  1
 UP BND       S_T28U21  1
 UP BND       S_T28U22  1
 UP BND       S_T28U23  1
 UP BND       S_T28U24  1
 UP BND       S_T28U25  1
 UP BND       S_T28U26  1
 UP BND       S_T28U27  1
 UP BND       S_T28U28  1
 UP BND       S_T28U29  1
 UP BND       S_T28U30  1
 UP BND       S_T29U1  1
 UP BND       S_T29U2  1
 UP BND       S_T29U3  1
 UP BND       S_T29U4  1
 UP BND       S_T29U5  1
 UP BND       S_T29U6  1
 UP BND       S_T29U7  1
 UP BND       S_T29U8  1
 UP BND       S_T29U9  1
 UP BND       S_T29U10  1
 UP BND       S_T29U11  1
 UP BND       S_T29U12  1
 UP BND       S_T29U13  1
 UP BND       S_T29U14  1
 UP BND       S_T29U15  1
 UP BND       S_T29U16  1
 UP BND       S_T29U17  1
 UP BND       S_T29U18  1
 UP BND       S_T29U19  1
 UP BND       S_T29U20  1
 UP BND       S_T29U21  1
 UP BND       S_T29U22  1
 UP BND       S_T29U23  1
 UP BND       S_T29U24  1
 UP BND       S_T29U25  1
 UP BND       S_T29U26  1
 UP BND       S_T29U27  1
 UP BND       S_T29U28  1
 UP BND       S_T29U29  1
 UP BND       S_T29U30  1
 UP BND       S_T30U1  1
 UP BND       S_T30U2  1
 UP BND       S_T30U3  1
 UP BND       S_T30U4  1
 UP BND       S_T30U5  1
 UP BND       S_T30U6  1
 UP BND       S_T30U7  1
 UP BND       S_T30U8  1
 UP BND       S_T30U9  1
 UP BND       S_T30U10  1
 UP BND       S_T30U11  1
 UP BND       S_T30U12  1
 UP BND       S_T30U13  1
 UP BND       S_T30U14  1
 UP BND       S_T30U15  1
 UP BND       S_T30U16  1
 UP BND       S_T30U17  1
 UP BND       S_T30U18  1
 UP BND       S_T30U19  1
 UP BND       S_T30U20  1
 UP BND       S_T30U21  1
 UP BND       S_T30U22  1
 UP BND       S_T30U23  1
 UP BND       S_T30U24  1
 UP BND       S_T30U25  1
 UP BND       S_T30U26  1
 UP BND       S_T30U27  1
 UP BND       S_T30U28  1
 UP BND       S_T30U29  1
 UP BND       S_T30U30  1
 UP BND       S_T31U1  1
 UP BND       S_T31U2  1
 UP BND       S_T31U3  1
 UP BND       S_T31U4  1
 UP BND       S_T31U5  1
 UP BND       S_T31U6  1
 UP BND       S_T31U7  1
 UP BND       S_T31U8  1
 UP BND       S_T31U9  1
 UP BND       S_T31U10  1
 UP BND       S_T31U11  1
 UP BND       S_T31U12  1
 UP BND       S_T31U13  1
 UP BND       S_T31U14  1
 UP BND       S_T31U15  1
 UP BND       S_T31U16  1
 UP BND       S_T31U17  1
 UP BND       S_T31U18  1
 UP BND       S_T31U19  1
 UP BND       S_T31U20  1
 UP BND       S_T31U21  1
 UP BND       S_T31U22  1
 UP BND       S_T31U23  1
 UP BND       S_T31U24  1
 UP BND       S_T31U25  1
 UP BND       S_T31U26  1
 UP BND       S_T31U27  1
 UP BND       S_T31U28  1
 UP BND       S_T31U29  1
 UP BND       S_T31U30  1
 UP BND       S_T32U1  1
 UP BND       S_T32U2  1
 UP BND       S_T32U3  1
 UP BND       S_T32U4  1
 UP BND       S_T32U5  1
 UP BND       S_T32U6  1
 UP BND       S_T32U7  1
 UP BND       S_T32U8  1
 UP BND       S_T32U9  1
 UP BND       S_T32U10  1
 UP BND       S_T32U11  1
 UP BND       S_T32U12  1
 UP BND       S_T32U13  1
 UP BND       S_T32U14  1
 UP BND       S_T32U15  1
 UP BND       S_T32U16  1
 UP BND       S_T32U17  1
 UP BND       S_T32U18  1
 UP BND       S_T32U19  1
 UP BND       S_T32U20  1
 UP BND       S_T32U21  1
 UP BND       S_T32U22  1
 UP BND       S_T32U23  1
 UP BND       S_T32U24  1
 UP BND       S_T32U25  1
 UP BND       S_T32U26  1
 UP BND       S_T32U27  1
 UP BND       S_T32U28  1
 UP BND       S_T32U29  1
 UP BND       S_T32U30  1
 UP BND       S_T33U1  1
 UP BND       S_T33U2  1
 UP BND       S_T33U3  1
 UP BND       S_T33U4  1
 UP BND       S_T33U5  1
 UP BND       S_T33U6  1
 UP BND       S_T33U7  1
 UP BND       S_T33U8  1
 UP BND       S_T33U9  1
 UP BND       S_T33U10  1
 UP BND       S_T33U11  1
 UP BND       S_T33U12  1
 UP BND       S_T33U13  1
 UP BND       S_T33U14  1
 UP BND       S_T33U15  1
 UP BND       S_T33U16  1
 UP BND       S_T33U17  1
 UP BND       S_T33U18  1
 UP BND       S_T33U19  1
 UP BND       S_T33U20  1
 UP BND       S_T33U21  1
 UP BND       S_T33U22  1
 UP BND       S_T33U23  1
 UP BND       S_T33U24  1
 UP BND       S_T33U25  1
 UP BND       S_T33U26  1
 UP BND       S_T33U27  1
 UP BND       S_T33U28  1
 UP BND       S_T33U29  1
 UP BND       S_T33U30  1
 UP BND       S_T34U1  1
 UP BND       S_T34U2  1
 UP BND       S_T34U3  1
 UP BND       S_T34U4  1
 UP BND       S_T34U5  1
 UP BND       S_T34U6  1
 UP BND       S_T34U7  1
 UP BND       S_T34U8  1
 UP BND       S_T34U9  1
 UP BND       S_T34U10  1
 UP BND       S_T34U11  1
 UP BND       S_T34U12  1
 UP BND       S_T34U13  1
 UP BND       S_T34U14  1
 UP BND       S_T34U15  1
 UP BND       S_T34U16  1
 UP BND       S_T34U17  1
 UP BND       S_T34U18  1
 UP BND       S_T34U19  1
 UP BND       S_T34U20  1
 UP BND       S_T34U21  1
 UP BND       S_T34U22  1
 UP BND       S_T34U23  1
 UP BND       S_T34U24  1
 UP BND       S_T34U25  1
 UP BND       S_T34U26  1
 UP BND       S_T34U27  1
 UP BND       S_T34U28  1
 UP BND       S_T34U29  1
 UP BND       S_T34U30  1
 UP BND       S_T35U1  1
 UP BND       S_T35U2  1
 UP BND       S_T35U3  1
 UP BND       S_T35U4  1
 UP BND       S_T35U5  1
 UP BND       S_T35U6  1
 UP BND       S_T35U7  1
 UP BND       S_T35U8  1
 UP BND       S_T35U9  1
 UP BND       S_T35U10  1
 UP BND       S_T35U11  1
 UP BND       S_T35U12  1
 UP BND       S_T35U13  1
 UP BND       S_T35U14  1
 UP BND       S_T35U15  1
 UP BND       S_T35U16  1
 UP BND       S_T35U17  1
 UP BND       S_T35U18  1
 UP BND       S_T35U19  1
 UP BND       S_T35U20  1
 UP BND       S_T35U21  1
 UP BND       S_T35U22  1
 UP BND       S_T35U23  1
 UP BND       S_T35U24  1
 UP BND       S_T35U25  1
 UP BND       S_T35U26  1
 UP BND       S_T35U27  1
 UP BND       S_T35U28  1
 UP BND       S_T35U29  1
 UP BND       S_T35U30  1
 UP BND       S_T36U1  1
 UP BND       S_T36U2  1
 UP BND       S_T36U3  1
 UP BND       S_T36U4  1
 UP BND       S_T36U5  1
 UP BND       S_T36U6  1
 UP BND       S_T36U7  1
 UP BND       S_T36U8  1
 UP BND       S_T36U9  1
 UP BND       S_T36U10  1
 UP BND       S_T36U11  1
 UP BND       S_T36U12  1
 UP BND       S_T36U13  1
 UP BND       S_T36U14  1
 UP BND       S_T36U15  1
 UP BND       S_T36U16  1
 UP BND       S_T36U17  1
 UP BND       S_T36U18  1
 UP BND       S_T36U19  1
 UP BND       S_T36U20  1
 UP BND       S_T36U21  1
 UP BND       S_T36U22  1
 UP BND       S_T36U23  1
 UP BND       S_T36U24  1
 UP BND       S_T36U25  1
 UP BND       S_T36U26  1
 UP BND       S_T36U27  1
 UP BND       S_T36U28  1
 UP BND       S_T36U29  1
 UP BND       S_T36U30  1
 UP BND       S_T37U1  1
 UP BND       S_T37U2  1
 UP BND       S_T37U3  1
 UP BND       S_T37U4  1
 UP BND       S_T37U5  1
 UP BND       S_T37U6  1
 UP BND       S_T37U7  1
 UP BND       S_T37U8  1
 UP BND       S_T37U9  1
 UP BND       S_T37U10  1
 UP BND       S_T37U11  1
 UP BND       S_T37U12  1
 UP BND       S_T37U13  1
 UP BND       S_T37U14  1
 UP BND       S_T37U15  1
 UP BND       S_T37U16  1
 UP BND       S_T37U17  1
 UP BND       S_T37U18  1
 UP BND       S_T37U19  1
 UP BND       S_T37U20  1
 UP BND       S_T37U21  1
 UP BND       S_T37U22  1
 UP BND       S_T37U23  1
 UP BND       S_T37U24  1
 UP BND       S_T37U25  1
 UP BND       S_T37U26  1
 UP BND       S_T37U27  1
 UP BND       S_T37U28  1
 UP BND       S_T37U29  1
 UP BND       S_T37U30  1
 UP BND       S_T38U1  1
 UP BND       S_T38U2  1
 UP BND       S_T38U3  1
 UP BND       S_T38U4  1
 UP BND       S_T38U5  1
 UP BND       S_T38U6  1
 UP BND       S_T38U7  1
 UP BND       S_T38U8  1
 UP BND       S_T38U9  1
 UP BND       S_T38U10  1
 UP BND       S_T38U11  1
 UP BND       S_T38U12  1
 UP BND       S_T38U13  1
 UP BND       S_T38U14  1
 UP BND       S_T38U15  1
 UP BND       S_T38U16  1
 UP BND       S_T38U17  1
 UP BND       S_T38U18  1
 UP BND       S_T38U19  1
 UP BND       S_T38U20  1
 UP BND       S_T38U21  1
 UP BND       S_T38U22  1
 UP BND       S_T38U23  1
 UP BND       S_T38U24  1
 UP BND       S_T38U25  1
 UP BND       S_T38U26  1
 UP BND       S_T38U27  1
 UP BND       S_T38U28  1
 UP BND       S_T38U29  1
 UP BND       S_T38U30  1
 UP BND       S_T39U1  1
 UP BND       S_T39U2  1
 UP BND       S_T39U3  1
 UP BND       S_T39U4  1
 UP BND       S_T39U5  1
 UP BND       S_T39U6  1
 UP BND       S_T39U7  1
 UP BND       S_T39U8  1
 UP BND       S_T39U9  1
 UP BND       S_T39U10  1
 UP BND       S_T39U11  1
 UP BND       S_T39U12  1
 UP BND       S_T39U13  1
 UP BND       S_T39U14  1
 UP BND       S_T39U15  1
 UP BND       S_T39U16  1
 UP BND       S_T39U17  1
 UP BND       S_T39U18  1
 UP BND       S_T39U19  1
 UP BND       S_T39U20  1
 UP BND       S_T39U21  1
 UP BND       S_T39U22  1
 UP BND       S_T39U23  1
 UP BND       S_T39U24  1
 UP BND       S_T39U25  1
 UP BND       S_T39U26  1
 UP BND       S_T39U27  1
 UP BND       S_T39U28  1
 UP BND       S_T39U29  1
 UP BND       S_T39U30  1
 UP BND       S_T40U1  1
 UP BND       S_T40U2  1
 UP BND       S_T40U3  1
 UP BND       S_T40U4  1
 UP BND       S_T40U5  1
 UP BND       S_T40U6  1
 UP BND       S_T40U7  1
 UP BND       S_T40U8  1
 UP BND       S_T40U9  1
 UP BND       S_T40U10  1
 UP BND       S_T40U11  1
 UP BND       S_T40U12  1
 UP BND       S_T40U13  1
 UP BND       S_T40U14  1
 UP BND       S_T40U15  1
 UP BND       S_T40U16  1
 UP BND       S_T40U17  1
 UP BND       S_T40U18  1
 UP BND       S_T40U19  1
 UP BND       S_T40U20  1
 UP BND       S_T40U21  1
 UP BND       S_T40U22  1
 UP BND       S_T40U23  1
 UP BND       S_T40U24  1
 UP BND       S_T40U25  1
 UP BND       S_T40U26  1
 UP BND       S_T40U27  1
 UP BND       S_T40U28  1
 UP BND       S_T40U29  1
 UP BND       S_T40U30  1
 UP BND       S_T41U1  1
 UP BND       S_T41U2  1
 UP BND       S_T41U3  1
 UP BND       S_T41U4  1
 UP BND       S_T41U5  1
 UP BND       S_T41U6  1
 UP BND       S_T41U7  1
 UP BND       S_T41U8  1
 UP BND       S_T41U9  1
 UP BND       S_T41U10  1
 UP BND       S_T41U11  1
 UP BND       S_T41U12  1
 UP BND       S_T41U13  1
 UP BND       S_T41U14  1
 UP BND       S_T41U15  1
 UP BND       S_T41U16  1
 UP BND       S_T41U17  1
 UP BND       S_T41U18  1
 UP BND       S_T41U19  1
 UP BND       S_T41U20  1
 UP BND       S_T41U21  1
 UP BND       S_T41U22  1
 UP BND       S_T41U23  1
 UP BND       S_T41U24  1
 UP BND       S_T41U25  1
 UP BND       S_T41U26  1
 UP BND       S_T41U27  1
 UP BND       S_T41U28  1
 UP BND       S_T41U29  1
 UP BND       S_T41U30  1
 UP BND       S_T42U1  1
 UP BND       S_T42U2  1
 UP BND       S_T42U3  1
 UP BND       S_T42U4  1
 UP BND       S_T42U5  1
 UP BND       S_T42U6  1
 UP BND       S_T42U7  1
 UP BND       S_T42U8  1
 UP BND       S_T42U9  1
 UP BND       S_T42U10  1
 UP BND       S_T42U11  1
 UP BND       S_T42U12  1
 UP BND       S_T42U13  1
 UP BND       S_T42U14  1
 UP BND       S_T42U15  1
 UP BND       S_T42U16  1
 UP BND       S_T42U17  1
 UP BND       S_T42U18  1
 UP BND       S_T42U19  1
 UP BND       S_T42U20  1
 UP BND       S_T42U21  1
 UP BND       S_T42U22  1
 UP BND       S_T42U23  1
 UP BND       S_T42U24  1
 UP BND       S_T42U25  1
 UP BND       S_T42U26  1
 UP BND       S_T42U27  1
 UP BND       S_T42U28  1
 UP BND       S_T42U29  1
 UP BND       S_T42U30  1
 UP BND       S_T43U1  1
 UP BND       S_T43U2  1
 UP BND       S_T43U3  1
 UP BND       S_T43U4  1
 UP BND       S_T43U5  1
 UP BND       S_T43U6  1
 UP BND       S_T43U7  1
 UP BND       S_T43U8  1
 UP BND       S_T43U9  1
 UP BND       S_T43U10  1
 UP BND       S_T43U11  1
 UP BND       S_T43U12  1
 UP BND       S_T43U13  1
 UP BND       S_T43U14  1
 UP BND       S_T43U15  1
 UP BND       S_T43U16  1
 UP BND       S_T43U17  1
 UP BND       S_T43U18  1
 UP BND       S_T43U19  1
 UP BND       S_T43U20  1
 UP BND       S_T43U21  1
 UP BND       S_T43U22  1
 UP BND       S_T43U23  1
 UP BND       S_T43U24  1
 UP BND       S_T43U25  1
 UP BND       S_T43U26  1
 UP BND       S_T43U27  1
 UP BND       S_T43U28  1
 UP BND       S_T43U29  1
 UP BND       S_T43U30  1
 UP BND       S_T44U1  1
 UP BND       S_T44U2  1
 UP BND       S_T44U3  1
 UP BND       S_T44U4  1
 UP BND       S_T44U5  1
 UP BND       S_T44U6  1
 UP BND       S_T44U7  1
 UP BND       S_T44U8  1
 UP BND       S_T44U9  1
 UP BND       S_T44U10  1
 UP BND       S_T44U11  1
 UP BND       S_T44U12  1
 UP BND       S_T44U13  1
 UP BND       S_T44U14  1
 UP BND       S_T44U15  1
 UP BND       S_T44U16  1
 UP BND       S_T44U17  1
 UP BND       S_T44U18  1
 UP BND       S_T44U19  1
 UP BND       S_T44U20  1
 UP BND       S_T44U21  1
 UP BND       S_T44U22  1
 UP BND       S_T44U23  1
 UP BND       S_T44U24  1
 UP BND       S_T44U25  1
 UP BND       S_T44U26  1
 UP BND       S_T44U27  1
 UP BND       S_T44U28  1
 UP BND       S_T44U29  1
 UP BND       S_T44U30  1
 UP BND       S_T45U1  1
 UP BND       S_T45U2  1
 UP BND       S_T45U3  1
 UP BND       S_T45U4  1
 UP BND       S_T45U5  1
 UP BND       S_T45U6  1
 UP BND       S_T45U7  1
 UP BND       S_T45U8  1
 UP BND       S_T45U9  1
 UP BND       S_T45U10  1
 UP BND       S_T45U11  1
 UP BND       S_T45U12  1
 UP BND       S_T45U13  1
 UP BND       S_T45U14  1
 UP BND       S_T45U15  1
 UP BND       S_T45U16  1
 UP BND       S_T45U17  1
 UP BND       S_T45U18  1
 UP BND       S_T45U19  1
 UP BND       S_T45U20  1
 UP BND       S_T45U21  1
 UP BND       S_T45U22  1
 UP BND       S_T45U23  1
 UP BND       S_T45U24  1
 UP BND       S_T45U25  1
 UP BND       S_T45U26  1
 UP BND       S_T45U27  1
 UP BND       S_T45U28  1
 UP BND       S_T45U29  1
 UP BND       S_T45U30  1
 UP BND       S_T46U1  1
 UP BND       S_T46U2  1
 UP BND       S_T46U3  1
 UP BND       S_T46U4  1
 UP BND       S_T46U5  1
 UP BND       S_T46U6  1
 UP BND       S_T46U7  1
 UP BND       S_T46U8  1
 UP BND       S_T46U9  1
 UP BND       S_T46U10  1
 UP BND       S_T46U11  1
 UP BND       S_T46U12  1
 UP BND       S_T46U13  1
 UP BND       S_T46U14  1
 UP BND       S_T46U15  1
 UP BND       S_T46U16  1
 UP BND       S_T46U17  1
 UP BND       S_T46U18  1
 UP BND       S_T46U19  1
 UP BND       S_T46U20  1
 UP BND       S_T46U21  1
 UP BND       S_T46U22  1
 UP BND       S_T46U23  1
 UP BND       S_T46U24  1
 UP BND       S_T46U25  1
 UP BND       S_T46U26  1
 UP BND       S_T46U27  1
 UP BND       S_T46U28  1
 UP BND       S_T46U29  1
 UP BND       S_T46U30  1
 UP BND       S_T47U1  1
 UP BND       S_T47U2  1
 UP BND       S_T47U3  1
 UP BND       S_T47U4  1
 UP BND       S_T47U5  1
 UP BND       S_T47U6  1
 UP BND       S_T47U7  1
 UP BND       S_T47U8  1
 UP BND       S_T47U9  1
 UP BND       S_T47U10  1
 UP BND       S_T47U11  1
 UP BND       S_T47U12  1
 UP BND       S_T47U13  1
 UP BND       S_T47U14  1
 UP BND       S_T47U15  1
 UP BND       S_T47U16  1
 UP BND       S_T47U17  1
 UP BND       S_T47U18  1
 UP BND       S_T47U19  1
 UP BND       S_T47U20  1
 UP BND       S_T47U21  1
 UP BND       S_T47U22  1
 UP BND       S_T47U23  1
 UP BND       S_T47U24  1
 UP BND       S_T47U25  1
 UP BND       S_T47U26  1
 UP BND       S_T47U27  1
 UP BND       S_T47U28  1
 UP BND       S_T47U29  1
 UP BND       S_T47U30  1
 UP BND       S_T48U1  1
 UP BND       S_T48U2  1
 UP BND       S_T48U3  1
 UP BND       S_T48U4  1
 UP BND       S_T48U5  1
 UP BND       S_T48U6  1
 UP BND       S_T48U7  1
 UP BND       S_T48U8  1
 UP BND       S_T48U9  1
 UP BND       S_T48U10  1
 UP BND       S_T48U11  1
 UP BND       S_T48U12  1
 UP BND       S_T48U13  1
 UP BND       S_T48U14  1
 UP BND       S_T48U15  1
 UP BND       S_T48U16  1
 UP BND       S_T48U17  1
 UP BND       S_T48U18  1
 UP BND       S_T48U19  1
 UP BND       S_T48U20  1
 UP BND       S_T48U21  1
 UP BND       S_T48U22  1
 UP BND       S_T48U23  1
 UP BND       S_T48U24  1
 UP BND       S_T48U25  1
 UP BND       S_T48U26  1
 UP BND       S_T48U27  1
 UP BND       S_T48U28  1
 UP BND       S_T48U29  1
 UP BND       S_T48U30  1
 UP BND       S_T49U1  1
 UP BND       S_T49U2  1
 UP BND       S_T49U3  1
 UP BND       S_T49U4  1
 UP BND       S_T49U5  1
 UP BND       S_T49U6  1
 UP BND       S_T49U7  1
 UP BND       S_T49U8  1
 UP BND       S_T49U9  1
 UP BND       S_T49U10  1
 UP BND       S_T49U11  1
 UP BND       S_T49U12  1
 UP BND       S_T49U13  1
 UP BND       S_T49U14  1
 UP BND       S_T49U15  1
 UP BND       S_T49U16  1
 UP BND       S_T49U17  1
 UP BND       S_T49U18  1
 UP BND       S_T49U19  1
 UP BND       S_T49U20  1
 UP BND       S_T49U21  1
 UP BND       S_T49U22  1
 UP BND       S_T49U23  1
 UP BND       S_T49U24  1
 UP BND       S_T49U25  1
 UP BND       S_T49U26  1
 UP BND       S_T49U27  1
 UP BND       S_T49U28  1
 UP BND       S_T49U29  1
 UP BND       S_T49U30  1
 UP BND       S_T50U1  1
 UP BND       S_T50U2  1
 UP BND       S_T50U3  1
 UP BND       S_T50U4  1
 UP BND       S_T50U5  1
 UP BND       S_T50U6  1
 UP BND       S_T50U7  1
 UP BND       S_T50U8  1
 UP BND       S_T50U9  1
 UP BND       S_T50U10  1
 UP BND       S_T50U11  1
 UP BND       S_T50U12  1
 UP BND       S_T50U13  1
 UP BND       S_T50U14  1
 UP BND       S_T50U15  1
 UP BND       S_T50U16  1
 UP BND       S_T50U17  1
 UP BND       S_T50U18  1
 UP BND       S_T50U19  1
 UP BND       S_T50U20  1
 UP BND       S_T50U21  1
 UP BND       S_T50U22  1
 UP BND       S_T50U23  1
 UP BND       S_T50U24  1
 UP BND       S_T50U25  1
 UP BND       S_T50U26  1
 UP BND       S_T50U27  1
 UP BND       S_T50U28  1
 UP BND       S_T50U29  1
 UP BND       S_T50U30  1
 UP BND       S_T51U1  1
 UP BND       S_T51U2  1
 UP BND       S_T51U3  1
 UP BND       S_T51U4  1
 UP BND       S_T51U5  1
 UP BND       S_T51U6  1
 UP BND       S_T51U7  1
 UP BND       S_T51U8  1
 UP BND       S_T51U9  1
 UP BND       S_T51U10  1
 UP BND       S_T51U11  1
 UP BND       S_T51U12  1
 UP BND       S_T51U13  1
 UP BND       S_T51U14  1
 UP BND       S_T51U15  1
 UP BND       S_T51U16  1
 UP BND       S_T51U17  1
 UP BND       S_T51U18  1
 UP BND       S_T51U19  1
 UP BND       S_T51U20  1
 UP BND       S_T51U21  1
 UP BND       S_T51U22  1
 UP BND       S_T51U23  1
 UP BND       S_T51U24  1
 UP BND       S_T51U25  1
 UP BND       S_T51U26  1
 UP BND       S_T51U27  1
 UP BND       S_T51U28  1
 UP BND       S_T51U29  1
 UP BND       S_T51U30  1
 UP BND       S_T52U1  1
 UP BND       S_T52U2  1
 UP BND       S_T52U3  1
 UP BND       S_T52U4  1
 UP BND       S_T52U5  1
 UP BND       S_T52U6  1
 UP BND       S_T52U7  1
 UP BND       S_T52U8  1
 UP BND       S_T52U9  1
 UP BND       S_T52U10  1
 UP BND       S_T52U11  1
 UP BND       S_T52U12  1
 UP BND       S_T52U13  1
 UP BND       S_T52U14  1
 UP BND       S_T52U15  1
 UP BND       S_T52U16  1
 UP BND       S_T52U17  1
 UP BND       S_T52U18  1
 UP BND       S_T52U19  1
 UP BND       S_T52U20  1
 UP BND       S_T52U21  1
 UP BND       S_T52U22  1
 UP BND       S_T52U23  1
 UP BND       S_T52U24  1
 UP BND       S_T52U25  1
 UP BND       S_T52U26  1
 UP BND       S_T52U27  1
 UP BND       S_T52U28  1
 UP BND       S_T52U29  1
 UP BND       S_T52U30  1
 UP BND       S_T53U1  1
 UP BND       S_T53U2  1
 UP BND       S_T53U3  1
 UP BND       S_T53U4  1
 UP BND       S_T53U5  1
 UP BND       S_T53U6  1
 UP BND       S_T53U7  1
 UP BND       S_T53U8  1
 UP BND       S_T53U9  1
 UP BND       S_T53U10  1
 UP BND       S_T53U11  1
 UP BND       S_T53U12  1
 UP BND       S_T53U13  1
 UP BND       S_T53U14  1
 UP BND       S_T53U15  1
 UP BND       S_T53U16  1
 UP BND       S_T53U17  1
 UP BND       S_T53U18  1
 UP BND       S_T53U19  1
 UP BND       S_T53U20  1
 UP BND       S_T53U21  1
 UP BND       S_T53U22  1
 UP BND       S_T53U23  1
 UP BND       S_T53U24  1
 UP BND       S_T53U25  1
 UP BND       S_T53U26  1
 UP BND       S_T53U27  1
 UP BND       S_T53U28  1
 UP BND       S_T53U29  1
 UP BND       S_T53U30  1
 UP BND       S_T54U1  1
 UP BND       S_T54U2  1
 UP BND       S_T54U3  1
 UP BND       S_T54U4  1
 UP BND       S_T54U5  1
 UP BND       S_T54U6  1
 UP BND       S_T54U7  1
 UP BND       S_T54U8  1
 UP BND       S_T54U9  1
 UP BND       S_T54U10  1
 UP BND       S_T54U11  1
 UP BND       S_T54U12  1
 UP BND       S_T54U13  1
 UP BND       S_T54U14  1
 UP BND       S_T54U15  1
 UP BND       S_T54U16  1
 UP BND       S_T54U17  1
 UP BND       S_T54U18  1
 UP BND       S_T54U19  1
 UP BND       S_T54U20  1
 UP BND       S_T54U21  1
 UP BND       S_T54U22  1
 UP BND       S_T54U23  1
 UP BND       S_T54U24  1
 UP BND       S_T54U25  1
 UP BND       S_T54U26  1
 UP BND       S_T54U27  1
 UP BND       S_T54U28  1
 UP BND       S_T54U29  1
 UP BND       S_T54U30  1
 UP BND       S_T55U1  1
 UP BND       S_T55U2  1
 UP BND       S_T55U3  1
 UP BND       S_T55U4  1
 UP BND       S_T55U5  1
 UP BND       S_T55U6  1
 UP BND       S_T55U7  1
 UP BND       S_T55U8  1
 UP BND       S_T55U9  1
 UP BND       S_T55U10  1
 UP BND       S_T55U11  1
 UP BND       S_T55U12  1
 UP BND       S_T55U13  1
 UP BND       S_T55U14  1
 UP BND       S_T55U15  1
 UP BND       S_T55U16  1
 UP BND       S_T55U17  1
 UP BND       S_T55U18  1
 UP BND       S_T55U19  1
 UP BND       S_T55U20  1
 UP BND       S_T55U21  1
 UP BND       S_T55U22  1
 UP BND       S_T55U23  1
 UP BND       S_T55U24  1
 UP BND       S_T55U25  1
 UP BND       S_T55U26  1
 UP BND       S_T55U27  1
 UP BND       S_T55U28  1
 UP BND       S_T55U29  1
 UP BND       S_T55U30  1
 UP BND       S_T56U1  1
 UP BND       S_T56U2  1
 UP BND       S_T56U3  1
 UP BND       S_T56U4  1
 UP BND       S_T56U5  1
 UP BND       S_T56U6  1
 UP BND       S_T56U7  1
 UP BND       S_T56U8  1
 UP BND       S_T56U9  1
 UP BND       S_T56U10  1
 UP BND       S_T56U11  1
 UP BND       S_T56U12  1
 UP BND       S_T56U13  1
 UP BND       S_T56U14  1
 UP BND       S_T56U15  1
 UP BND       S_T56U16  1
 UP BND       S_T56U17  1
 UP BND       S_T56U18  1
 UP BND       S_T56U19  1
 UP BND       S_T56U20  1
 UP BND       S_T56U21  1
 UP BND       S_T56U22  1
 UP BND       S_T56U23  1
 UP BND       S_T56U24  1
 UP BND       S_T56U25  1
 UP BND       S_T56U26  1
 UP BND       S_T56U27  1
 UP BND       S_T56U28  1
 UP BND       S_T56U29  1
 UP BND       S_T56U30  1
 UP BND       S_T57U1  1
 UP BND       S_T57U2  1
 UP BND       S_T57U3  1
 UP BND       S_T57U4  1
 UP BND       S_T57U5  1
 UP BND       S_T57U6  1
 UP BND       S_T57U7  1
 UP BND       S_T57U8  1
 UP BND       S_T57U9  1
 UP BND       S_T57U10  1
 UP BND       S_T57U11  1
 UP BND       S_T57U12  1
 UP BND       S_T57U13  1
 UP BND       S_T57U14  1
 UP BND       S_T57U15  1
 UP BND       S_T57U16  1
 UP BND       S_T57U17  1
 UP BND       S_T57U18  1
 UP BND       S_T57U19  1
 UP BND       S_T57U20  1
 UP BND       S_T57U21  1
 UP BND       S_T57U22  1
 UP BND       S_T57U23  1
 UP BND       S_T57U24  1
 UP BND       S_T57U25  1
 UP BND       S_T57U26  1
 UP BND       S_T57U27  1
 UP BND       S_T57U28  1
 UP BND       S_T57U29  1
 UP BND       S_T57U30  1
 UP BND       S_T58U1  1
 UP BND       S_T58U2  1
 UP BND       S_T58U3  1
 UP BND       S_T58U4  1
 UP BND       S_T58U5  1
 UP BND       S_T58U6  1
 UP BND       S_T58U7  1
 UP BND       S_T58U8  1
 UP BND       S_T58U9  1
 UP BND       S_T58U10  1
 UP BND       S_T58U11  1
 UP BND       S_T58U12  1
 UP BND       S_T58U13  1
 UP BND       S_T58U14  1
 UP BND       S_T58U15  1
 UP BND       S_T58U16  1
 UP BND       S_T58U17  1
 UP BND       S_T58U18  1
 UP BND       S_T58U19  1
 UP BND       S_T58U20  1
 UP BND       S_T58U21  1
 UP BND       S_T58U22  1
 UP BND       S_T58U23  1
 UP BND       S_T58U24  1
 UP BND       S_T58U25  1
 UP BND       S_T58U26  1
 UP BND       S_T58U27  1
 UP BND       S_T58U28  1
 UP BND       S_T58U29  1
 UP BND       S_T58U30  1
 UP BND       S_T59U1  1
 UP BND       S_T59U2  1
 UP BND       S_T59U3  1
 UP BND       S_T59U4  1
 UP BND       S_T59U5  1
 UP BND       S_T59U6  1
 UP BND       S_T59U7  1
 UP BND       S_T59U8  1
 UP BND       S_T59U9  1
 UP BND       S_T59U10  1
 UP BND       S_T59U11  1
 UP BND       S_T59U12  1
 UP BND       S_T59U13  1
 UP BND       S_T59U14  1
 UP BND       S_T59U15  1
 UP BND       S_T59U16  1
 UP BND       S_T59U17  1
 UP BND       S_T59U18  1
 UP BND       S_T59U19  1
 UP BND       S_T59U20  1
 UP BND       S_T59U21  1
 UP BND       S_T59U22  1
 UP BND       S_T59U23  1
 UP BND       S_T59U24  1
 UP BND       S_T59U25  1
 UP BND       S_T59U26  1
 UP BND       S_T59U27  1
 UP BND       S_T59U28  1
 UP BND       S_T59U29  1
 UP BND       S_T59U30  1
 UP BND       S_T60U1  1
 UP BND       S_T60U2  1
 UP BND       S_T60U3  1
 UP BND       S_T60U4  1
 UP BND       S_T60U5  1
 UP BND       S_T60U6  1
 UP BND       S_T60U7  1
 UP BND       S_T60U8  1
 UP BND       S_T60U9  1
 UP BND       S_T60U10  1
 UP BND       S_T60U11  1
 UP BND       S_T60U12  1
 UP BND       S_T60U13  1
 UP BND       S_T60U14  1
 UP BND       S_T60U15  1
 UP BND       S_T60U16  1
 UP BND       S_T60U17  1
 UP BND       S_T60U18  1
 UP BND       S_T60U19  1
 UP BND       S_T60U20  1
 UP BND       S_T60U21  1
 UP BND       S_T60U22  1
 UP BND       S_T60U23  1
 UP BND       S_T60U24  1
 UP BND       S_T60U25  1
 UP BND       S_T60U26  1
 UP BND       S_T60U27  1
 UP BND       S_T60U28  1
 UP BND       S_T60U29  1
 UP BND       S_T60U30  1
 UP BND       S_T61U1  1
 UP BND       S_T61U2  1
 UP BND       S_T61U3  1
 UP BND       S_T61U4  1
 UP BND       S_T61U5  1
 UP BND       S_T61U6  1
 UP BND       S_T61U7  1
 UP BND       S_T61U8  1
 UP BND       S_T61U9  1
 UP BND       S_T61U10  1
 UP BND       S_T61U11  1
 UP BND       S_T61U12  1
 UP BND       S_T61U13  1
 UP BND       S_T61U14  1
 UP BND       S_T61U15  1
 UP BND       S_T61U16  1
 UP BND       S_T61U17  1
 UP BND       S_T61U18  1
 UP BND       S_T61U19  1
 UP BND       S_T61U20  1
 UP BND       S_T61U21  1
 UP BND       S_T61U22  1
 UP BND       S_T61U23  1
 UP BND       S_T61U24  1
 UP BND       S_T61U25  1
 UP BND       S_T61U26  1
 UP BND       S_T61U27  1
 UP BND       S_T61U28  1
 UP BND       S_T61U29  1
 UP BND       S_T61U30  1
 UP BND       S_T62U1  1
 UP BND       S_T62U2  1
 UP BND       S_T62U3  1
 UP BND       S_T62U4  1
 UP BND       S_T62U5  1
 UP BND       S_T62U6  1
 UP BND       S_T62U7  1
 UP BND       S_T62U8  1
 UP BND       S_T62U9  1
 UP BND       S_T62U10  1
 UP BND       S_T62U11  1
 UP BND       S_T62U12  1
 UP BND       S_T62U13  1
 UP BND       S_T62U14  1
 UP BND       S_T62U15  1
 UP BND       S_T62U16  1
 UP BND       S_T62U17  1
 UP BND       S_T62U18  1
 UP BND       S_T62U19  1
 UP BND       S_T62U20  1
 UP BND       S_T62U21  1
 UP BND       S_T62U22  1
 UP BND       S_T62U23  1
 UP BND       S_T62U24  1
 UP BND       S_T62U25  1
 UP BND       S_T62U26  1
 UP BND       S_T62U27  1
 UP BND       S_T62U28  1
 UP BND       S_T62U29  1
 UP BND       S_T62U30  1
 UP BND       S_T63U1  1
 UP BND       S_T63U2  1
 UP BND       S_T63U3  1
 UP BND       S_T63U4  1
 UP BND       S_T63U5  1
 UP BND       S_T63U6  1
 UP BND       S_T63U7  1
 UP BND       S_T63U8  1
 UP BND       S_T63U9  1
 UP BND       S_T63U10  1
 UP BND       S_T63U11  1
 UP BND       S_T63U12  1
 UP BND       S_T63U13  1
 UP BND       S_T63U14  1
 UP BND       S_T63U15  1
 UP BND       S_T63U16  1
 UP BND       S_T63U17  1
 UP BND       S_T63U18  1
 UP BND       S_T63U19  1
 UP BND       S_T63U20  1
 UP BND       S_T63U21  1
 UP BND       S_T63U22  1
 UP BND       S_T63U23  1
 UP BND       S_T63U24  1
 UP BND       S_T63U25  1
 UP BND       S_T63U26  1
 UP BND       S_T63U27  1
 UP BND       S_T63U28  1
 UP BND       S_T63U29  1
 UP BND       S_T63U30  1
 UP BND       S_T64U1  1
 UP BND       S_T64U2  1
 UP BND       S_T64U3  1
 UP BND       S_T64U4  1
 UP BND       S_T64U5  1
 UP BND       S_T64U6  1
 UP BND       S_T64U7  1
 UP BND       S_T64U8  1
 UP BND       S_T64U9  1
 UP BND       S_T64U10  1
 UP BND       S_T64U11  1
 UP BND       S_T64U12  1
 UP BND       S_T64U13  1
 UP BND       S_T64U14  1
 UP BND       S_T64U15  1
 UP BND       S_T64U16  1
 UP BND       S_T64U17  1
 UP BND       S_T64U18  1
 UP BND       S_T64U19  1
 UP BND       S_T64U20  1
 UP BND       S_T64U21  1
 UP BND       S_T64U22  1
 UP BND       S_T64U23  1
 UP BND       S_T64U24  1
 UP BND       S_T64U25  1
 UP BND       S_T64U26  1
 UP BND       S_T64U27  1
 UP BND       S_T64U28  1
 UP BND       S_T64U29  1
 UP BND       S_T64U30  1
 UP BND       S_T65U1  1
 UP BND       S_T65U2  1
 UP BND       S_T65U3  1
 UP BND       S_T65U4  1
 UP BND       S_T65U5  1
 UP BND       S_T65U6  1
 UP BND       S_T65U7  1
 UP BND       S_T65U8  1
 UP BND       S_T65U9  1
 UP BND       S_T65U10  1
 UP BND       S_T65U11  1
 UP BND       S_T65U12  1
 UP BND       S_T65U13  1
 UP BND       S_T65U14  1
 UP BND       S_T65U15  1
 UP BND       S_T65U16  1
 UP BND       S_T65U17  1
 UP BND       S_T65U18  1
 UP BND       S_T65U19  1
 UP BND       S_T65U20  1
 UP BND       S_T65U21  1
 UP BND       S_T65U22  1
 UP BND       S_T65U23  1
 UP BND       S_T65U24  1
 UP BND       S_T65U25  1
 UP BND       S_T65U26  1
 UP BND       S_T65U27  1
 UP BND       S_T65U28  1
 UP BND       S_T65U29  1
 UP BND       S_T65U30  1
 UP BND       S_T66U1  1
 UP BND       S_T66U2  1
 UP BND       S_T66U3  1
 UP BND       S_T66U4  1
 UP BND       S_T66U5  1
 UP BND       S_T66U6  1
 UP BND       S_T66U7  1
 UP BND       S_T66U8  1
 UP BND       S_T66U9  1
 UP BND       S_T66U10  1
 UP BND       S_T66U11  1
 UP BND       S_T66U12  1
 UP BND       S_T66U13  1
 UP BND       S_T66U14  1
 UP BND       S_T66U15  1
 UP BND       S_T66U16  1
 UP BND       S_T66U17  1
 UP BND       S_T66U18  1
 UP BND       S_T66U19  1
 UP BND       S_T66U20  1
 UP BND       S_T66U21  1
 UP BND       S_T66U22  1
 UP BND       S_T66U23  1
 UP BND       S_T66U24  1
 UP BND       S_T66U25  1
 UP BND       S_T66U26  1
 UP BND       S_T66U27  1
 UP BND       S_T66U28  1
 UP BND       S_T66U29  1
 UP BND       S_T66U30  1
 UP BND       S_T67U1  1
 UP BND       S_T67U2  1
 UP BND       S_T67U3  1
 UP BND       S_T67U4  1
 UP BND       S_T67U5  1
 UP BND       S_T67U6  1
 UP BND       S_T67U7  1
 UP BND       S_T67U8  1
 UP BND       S_T67U9  1
 UP BND       S_T67U10  1
 UP BND       S_T67U11  1
 UP BND       S_T67U12  1
 UP BND       S_T67U13  1
 UP BND       S_T67U14  1
 UP BND       S_T67U15  1
 UP BND       S_T67U16  1
 UP BND       S_T67U17  1
 UP BND       S_T67U18  1
 UP BND       S_T67U19  1
 UP BND       S_T67U20  1
 UP BND       S_T67U21  1
 UP BND       S_T67U22  1
 UP BND       S_T67U23  1
 UP BND       S_T67U24  1
 UP BND       S_T67U25  1
 UP BND       S_T67U26  1
 UP BND       S_T67U27  1
 UP BND       S_T67U28  1
 UP BND       S_T67U29  1
 UP BND       S_T67U30  1
 UP BND       S_T68U1  1
 UP BND       S_T68U2  1
 UP BND       S_T68U3  1
 UP BND       S_T68U4  1
 UP BND       S_T68U5  1
 UP BND       S_T68U6  1
 UP BND       S_T68U7  1
 UP BND       S_T68U8  1
 UP BND       S_T68U9  1
 UP BND       S_T68U10  1
 UP BND       S_T68U11  1
 UP BND       S_T68U12  1
 UP BND       S_T68U13  1
 UP BND       S_T68U14  1
 UP BND       S_T68U15  1
 UP BND       S_T68U16  1
 UP BND       S_T68U17  1
 UP BND       S_T68U18  1
 UP BND       S_T68U19  1
 UP BND       S_T68U20  1
 UP BND       S_T68U21  1
 UP BND       S_T68U22  1
 UP BND       S_T68U23  1
 UP BND       S_T68U24  1
 UP BND       S_T68U25  1
 UP BND       S_T68U26  1
 UP BND       S_T68U27  1
 UP BND       S_T68U28  1
 UP BND       S_T68U29  1
 UP BND       S_T68U30  1
 UP BND       S_T69U1  1
 UP BND       S_T69U2  1
 UP BND       S_T69U3  1
 UP BND       S_T69U4  1
 UP BND       S_T69U5  1
 UP BND       S_T69U6  1
 UP BND       S_T69U7  1
 UP BND       S_T69U8  1
 UP BND       S_T69U9  1
 UP BND       S_T69U10  1
 UP BND       S_T69U11  1
 UP BND       S_T69U12  1
 UP BND       S_T69U13  1
 UP BND       S_T69U14  1
 UP BND       S_T69U15  1
 UP BND       S_T69U16  1
 UP BND       S_T69U17  1
 UP BND       S_T69U18  1
 UP BND       S_T69U19  1
 UP BND       S_T69U20  1
 UP BND       S_T69U21  1
 UP BND       S_T69U22  1
 UP BND       S_T69U23  1
 UP BND       S_T69U24  1
 UP BND       S_T69U25  1
 UP BND       S_T69U26  1
 UP BND       S_T69U27  1
 UP BND       S_T69U28  1
 UP BND       S_T69U29  1
 UP BND       S_T69U30  1
 UP BND       S_T70U1  1
 UP BND       S_T70U2  1
 UP BND       S_T70U3  1
 UP BND       S_T70U4  1
 UP BND       S_T70U5  1
 UP BND       S_T70U6  1
 UP BND       S_T70U7  1
 UP BND       S_T70U8  1
 UP BND       S_T70U9  1
 UP BND       S_T70U10  1
 UP BND       S_T70U11  1
 UP BND       S_T70U12  1
 UP BND       S_T70U13  1
 UP BND       S_T70U14  1
 UP BND       S_T70U15  1
 UP BND       S_T70U16  1
 UP BND       S_T70U17  1
 UP BND       S_T70U18  1
 UP BND       S_T70U19  1
 UP BND       S_T70U20  1
 UP BND       S_T70U21  1
 UP BND       S_T70U22  1
 UP BND       S_T70U23  1
 UP BND       S_T70U24  1
 UP BND       S_T70U25  1
 UP BND       S_T70U26  1
 UP BND       S_T70U27  1
 UP BND       S_T70U28  1
 UP BND       S_T70U29  1
 UP BND       S_T70U30  1
 UP BND       S_T71U1  1
 UP BND       S_T71U2  1
 UP BND       S_T71U3  1
 UP BND       S_T71U4  1
 UP BND       S_T71U5  1
 UP BND       S_T71U6  1
 UP BND       S_T71U7  1
 UP BND       S_T71U8  1
 UP BND       S_T71U9  1
 UP BND       S_T71U10  1
 UP BND       S_T71U11  1
 UP BND       S_T71U12  1
 UP BND       S_T71U13  1
 UP BND       S_T71U14  1
 UP BND       S_T71U15  1
 UP BND       S_T71U16  1
 UP BND       S_T71U17  1
 UP BND       S_T71U18  1
 UP BND       S_T71U19  1
 UP BND       S_T71U20  1
 UP BND       S_T71U21  1
 UP BND       S_T71U22  1
 UP BND       S_T71U23  1
 UP BND       S_T71U24  1
 UP BND       S_T71U25  1
 UP BND       S_T71U26  1
 UP BND       S_T71U27  1
 UP BND       S_T71U28  1
 UP BND       S_T71U29  1
 UP BND       S_T71U30  1
 UP BND       S_T72U1  1
 UP BND       S_T72U2  1
 UP BND       S_T72U3  1
 UP BND       S_T72U4  1
 UP BND       S_T72U5  1
 UP BND       S_T72U6  1
 UP BND       S_T72U7  1
 UP BND       S_T72U8  1
 UP BND       S_T72U9  1
 UP BND       S_T72U10  1
 UP BND       S_T72U11  1
 UP BND       S_T72U12  1
 UP BND       S_T72U13  1
 UP BND       S_T72U14  1
 UP BND       S_T72U15  1
 UP BND       S_T72U16  1
 UP BND       S_T72U17  1
 UP BND       S_T72U18  1
 UP BND       S_T72U19  1
 UP BND       S_T72U20  1
 UP BND       S_T72U21  1
 UP BND       S_T72U22  1
 UP BND       S_T72U23  1
 UP BND       S_T72U24  1
 UP BND       S_T72U25  1
 UP BND       S_T72U26  1
 UP BND       S_T72U27  1
 UP BND       S_T72U28  1
 UP BND       S_T72U29  1
 UP BND       S_T72U30  1
 UP BND       S_T73U1  1
 UP BND       S_T73U2  1
 UP BND       S_T73U3  1
 UP BND       S_T73U4  1
 UP BND       S_T73U5  1
 UP BND       S_T73U6  1
 UP BND       S_T73U7  1
 UP BND       S_T73U8  1
 UP BND       S_T73U9  1
 UP BND       S_T73U10  1
 UP BND       S_T73U11  1
 UP BND       S_T73U12  1
 UP BND       S_T73U13  1
 UP BND       S_T73U14  1
 UP BND       S_T73U15  1
 UP BND       S_T73U16  1
 UP BND       S_T73U17  1
 UP BND       S_T73U18  1
 UP BND       S_T73U19  1
 UP BND       S_T73U20  1
 UP BND       S_T73U21  1
 UP BND       S_T73U22  1
 UP BND       S_T73U23  1
 UP BND       S_T73U24  1
 UP BND       S_T73U25  1
 UP BND       S_T73U26  1
 UP BND       S_T73U27  1
 UP BND       S_T73U28  1
 UP BND       S_T73U29  1
 UP BND       S_T73U30  1
 UP BND       S_T74U1  1
 UP BND       S_T74U2  1
 UP BND       S_T74U3  1
 UP BND       S_T74U4  1
 UP BND       S_T74U5  1
 UP BND       S_T74U6  1
 UP BND       S_T74U7  1
 UP BND       S_T74U8  1
 UP BND       S_T74U9  1
 UP BND       S_T74U10  1
 UP BND       S_T74U11  1
 UP BND       S_T74U12  1
 UP BND       S_T74U13  1
 UP BND       S_T74U14  1
 UP BND       S_T74U15  1
 UP BND       S_T74U16  1
 UP BND       S_T74U17  1
 UP BND       S_T74U18  1
 UP BND       S_T74U19  1
 UP BND       S_T74U20  1
 UP BND       S_T74U21  1
 UP BND       S_T74U22  1
 UP BND       S_T74U23  1
 UP BND       S_T74U24  1
 UP BND       S_T74U25  1
 UP BND       S_T74U26  1
 UP BND       S_T74U27  1
 UP BND       S_T74U28  1
 UP BND       S_T74U29  1
 UP BND       S_T74U30  1
 UP BND       S_T75U1  1
 UP BND       S_T75U2  1
 UP BND       S_T75U3  1
 UP BND       S_T75U4  1
 UP BND       S_T75U5  1
 UP BND       S_T75U6  1
 UP BND       S_T75U7  1
 UP BND       S_T75U8  1
 UP BND       S_T75U9  1
 UP BND       S_T75U10  1
 UP BND       S_T75U11  1
 UP BND       S_T75U12  1
 UP BND       S_T75U13  1
 UP BND       S_T75U14  1
 UP BND       S_T75U15  1
 UP BND       S_T75U16  1
 UP BND       S_T75U17  1
 UP BND       S_T75U18  1
 UP BND       S_T75U19  1
 UP BND       S_T75U20  1
 UP BND       S_T75U21  1
 UP BND       S_T75U22  1
 UP BND       S_T75U23  1
 UP BND       S_T75U24  1
 UP BND       S_T75U25  1
 UP BND       S_T75U26  1
 UP BND       S_T75U27  1
 UP BND       S_T75U28  1
 UP BND       S_T75U29  1
 UP BND       S_T75U30  1
 UP BND       S_T76U1  1
 UP BND       S_T76U2  1
 UP BND       S_T76U3  1
 UP BND       S_T76U4  1
 UP BND       S_T76U5  1
 UP BND       S_T76U6  1
 UP BND       S_T76U7  1
 UP BND       S_T76U8  1
 UP BND       S_T76U9  1
 UP BND       S_T76U10  1
 UP BND       S_T76U11  1
 UP BND       S_T76U12  1
 UP BND       S_T76U13  1
 UP BND       S_T76U14  1
 UP BND       S_T76U15  1
 UP BND       S_T76U16  1
 UP BND       S_T76U17  1
 UP BND       S_T76U18  1
 UP BND       S_T76U19  1
 UP BND       S_T76U20  1
 UP BND       S_T76U21  1
 UP BND       S_T76U22  1
 UP BND       S_T76U23  1
 UP BND       S_T76U24  1
 UP BND       S_T76U25  1
 UP BND       S_T76U26  1
 UP BND       S_T76U27  1
 UP BND       S_T76U28  1
 UP BND       S_T76U29  1
 UP BND       S_T76U30  1
 UP BND       S_T77U1  1
 UP BND       S_T77U2  1
 UP BND       S_T77U3  1
 UP BND       S_T77U4  1
 UP BND       S_T77U5  1
 UP BND       S_T77U6  1
 UP BND       S_T77U7  1
 UP BND       S_T77U8  1
 UP BND       S_T77U9  1
 UP BND       S_T77U10  1
 UP BND       S_T77U11  1
 UP BND       S_T77U12  1
 UP BND       S_T77U13  1
 UP BND       S_T77U14  1
 UP BND       S_T77U15  1
 UP BND       S_T77U16  1
 UP BND       S_T77U17  1
 UP BND       S_T77U18  1
 UP BND       S_T77U19  1
 UP BND       S_T77U20  1
 UP BND       S_T77U21  1
 UP BND       S_T77U22  1
 UP BND       S_T77U23  1
 UP BND       S_T77U24  1
 UP BND       S_T77U25  1
 UP BND       S_T77U26  1
 UP BND       S_T77U27  1
 UP BND       S_T77U28  1
 UP BND       S_T77U29  1
 UP BND       S_T77U30  1
 UP BND       S_T78U1  1
 UP BND       S_T78U2  1
 UP BND       S_T78U3  1
 UP BND       S_T78U4  1
 UP BND       S_T78U5  1
 UP BND       S_T78U6  1
 UP BND       S_T78U7  1
 UP BND       S_T78U8  1
 UP BND       S_T78U9  1
 UP BND       S_T78U10  1
 UP BND       S_T78U11  1
 UP BND       S_T78U12  1
 UP BND       S_T78U13  1
 UP BND       S_T78U14  1
 UP BND       S_T78U15  1
 UP BND       S_T78U16  1
 UP BND       S_T78U17  1
 UP BND       S_T78U18  1
 UP BND       S_T78U19  1
 UP BND       S_T78U20  1
 UP BND       S_T78U21  1
 UP BND       S_T78U22  1
 UP BND       S_T78U23  1
 UP BND       S_T78U24  1
 UP BND       S_T78U25  1
 UP BND       S_T78U26  1
 UP BND       S_T78U27  1
 UP BND       S_T78U28  1
 UP BND       S_T78U29  1
 UP BND       S_T78U30  1
 UP BND       S_T79U1  1
 UP BND       S_T79U2  1
 UP BND       S_T79U3  1
 UP BND       S_T79U4  1
 UP BND       S_T79U5  1
 UP BND       S_T79U6  1
 UP BND       S_T79U7  1
 UP BND       S_T79U8  1
 UP BND       S_T79U9  1
 UP BND       S_T79U10  1
 UP BND       S_T79U11  1
 UP BND       S_T79U12  1
 UP BND       S_T79U13  1
 UP BND       S_T79U14  1
 UP BND       S_T79U15  1
 UP BND       S_T79U16  1
 UP BND       S_T79U17  1
 UP BND       S_T79U18  1
 UP BND       S_T79U19  1
 UP BND       S_T79U20  1
 UP BND       S_T79U21  1
 UP BND       S_T79U22  1
 UP BND       S_T79U23  1
 UP BND       S_T79U24  1
 UP BND       S_T79U25  1
 UP BND       S_T79U26  1
 UP BND       S_T79U27  1
 UP BND       S_T79U28  1
 UP BND       S_T79U29  1
 UP BND       S_T79U30  1
 UP BND       S_T80U1  1
 UP BND       S_T80U2  1
 UP BND       S_T80U3  1
 UP BND       S_T80U4  1
 UP BND       S_T80U5  1
 UP BND       S_T80U6  1
 UP BND       S_T80U7  1
 UP BND       S_T80U8  1
 UP BND       S_T80U9  1
 UP BND       S_T80U10  1
 UP BND       S_T80U11  1
 UP BND       S_T80U12  1
 UP BND       S_T80U13  1
 UP BND       S_T80U14  1
 UP BND       S_T80U15  1
 UP BND       S_T80U16  1
 UP BND       S_T80U17  1
 UP BND       S_T80U18  1
 UP BND       S_T80U19  1
 UP BND       S_T80U20  1
 UP BND       S_T80U21  1
 UP BND       S_T80U22  1
 UP BND       S_T80U23  1
 UP BND       S_T80U24  1
 UP BND       S_T80U25  1
 UP BND       S_T80U26  1
 UP BND       S_T80U27  1
 UP BND       S_T80U28  1
 UP BND       S_T80U29  1
 UP BND       S_T80U30  1
 UP BND       S_T81U1  1
 UP BND       S_T81U2  1
 UP BND       S_T81U3  1
 UP BND       S_T81U4  1
 UP BND       S_T81U5  1
 UP BND       S_T81U6  1
 UP BND       S_T81U7  1
 UP BND       S_T81U8  1
 UP BND       S_T81U9  1
 UP BND       S_T81U10  1
 UP BND       S_T81U11  1
 UP BND       S_T81U12  1
 UP BND       S_T81U13  1
 UP BND       S_T81U14  1
 UP BND       S_T81U15  1
 UP BND       S_T81U16  1
 UP BND       S_T81U17  1
 UP BND       S_T81U18  1
 UP BND       S_T81U19  1
 UP BND       S_T81U20  1
 UP BND       S_T81U21  1
 UP BND       S_T81U22  1
 UP BND       S_T81U23  1
 UP BND       S_T81U24  1
 UP BND       S_T81U25  1
 UP BND       S_T81U26  1
 UP BND       S_T81U27  1
 UP BND       S_T81U28  1
 UP BND       S_T81U29  1
 UP BND       S_T81U30  1
 UP BND       S_T82U1  1
 UP BND       S_T82U2  1
 UP BND       S_T82U3  1
 UP BND       S_T82U4  1
 UP BND       S_T82U5  1
 UP BND       S_T82U6  1
 UP BND       S_T82U7  1
 UP BND       S_T82U8  1
 UP BND       S_T82U9  1
 UP BND       S_T82U10  1
 UP BND       S_T82U11  1
 UP BND       S_T82U12  1
 UP BND       S_T82U13  1
 UP BND       S_T82U14  1
 UP BND       S_T82U15  1
 UP BND       S_T82U16  1
 UP BND       S_T82U17  1
 UP BND       S_T82U18  1
 UP BND       S_T82U19  1
 UP BND       S_T82U20  1
 UP BND       S_T82U21  1
 UP BND       S_T82U22  1
 UP BND       S_T82U23  1
 UP BND       S_T82U24  1
 UP BND       S_T82U25  1
 UP BND       S_T82U26  1
 UP BND       S_T82U27  1
 UP BND       S_T82U28  1
 UP BND       S_T82U29  1
 UP BND       S_T82U30  1
 UP BND       S_T83U1  1
 UP BND       S_T83U2  1
 UP BND       S_T83U3  1
 UP BND       S_T83U4  1
 UP BND       S_T83U5  1
 UP BND       S_T83U6  1
 UP BND       S_T83U7  1
 UP BND       S_T83U8  1
 UP BND       S_T83U9  1
 UP BND       S_T83U10  1
 UP BND       S_T83U11  1
 UP BND       S_T83U12  1
 UP BND       S_T83U13  1
 UP BND       S_T83U14  1
 UP BND       S_T83U15  1
 UP BND       S_T83U16  1
 UP BND       S_T83U17  1
 UP BND       S_T83U18  1
 UP BND       S_T83U19  1
 UP BND       S_T83U20  1
 UP BND       S_T83U21  1
 UP BND       S_T83U22  1
 UP BND       S_T83U23  1
 UP BND       S_T83U24  1
 UP BND       S_T83U25  1
 UP BND       S_T83U26  1
 UP BND       S_T83U27  1
 UP BND       S_T83U28  1
 UP BND       S_T83U29  1
 UP BND       S_T83U30  1
 UP BND       S_T84U1  1
 UP BND       S_T84U2  1
 UP BND       S_T84U3  1
 UP BND       S_T84U4  1
 UP BND       S_T84U5  1
 UP BND       S_T84U6  1
 UP BND       S_T84U7  1
 UP BND       S_T84U8  1
 UP BND       S_T84U9  1
 UP BND       S_T84U10  1
 UP BND       S_T84U11  1
 UP BND       S_T84U12  1
 UP BND       S_T84U13  1
 UP BND       S_T84U14  1
 UP BND       S_T84U15  1
 UP BND       S_T84U16  1
 UP BND       S_T84U17  1
 UP BND       S_T84U18  1
 UP BND       S_T84U19  1
 UP BND       S_T84U20  1
 UP BND       S_T84U21  1
 UP BND       S_T84U22  1
 UP BND       S_T84U23  1
 UP BND       S_T84U24  1
 UP BND       S_T84U25  1
 UP BND       S_T84U26  1
 UP BND       S_T84U27  1
 UP BND       S_T84U28  1
 UP BND       S_T84U29  1
 UP BND       S_T84U30  1
 UP BND       S_T85U1  1
 UP BND       S_T85U2  1
 UP BND       S_T85U3  1
 UP BND       S_T85U4  1
 UP BND       S_T85U5  1
 UP BND       S_T85U6  1
 UP BND       S_T85U7  1
 UP BND       S_T85U8  1
 UP BND       S_T85U9  1
 UP BND       S_T85U10  1
 UP BND       S_T85U11  1
 UP BND       S_T85U12  1
 UP BND       S_T85U13  1
 UP BND       S_T85U14  1
 UP BND       S_T85U15  1
 UP BND       S_T85U16  1
 UP BND       S_T85U17  1
 UP BND       S_T85U18  1
 UP BND       S_T85U19  1
 UP BND       S_T85U20  1
 UP BND       S_T85U21  1
 UP BND       S_T85U22  1
 UP BND       S_T85U23  1
 UP BND       S_T85U24  1
 UP BND       S_T85U25  1
 UP BND       S_T85U26  1
 UP BND       S_T85U27  1
 UP BND       S_T85U28  1
 UP BND       S_T85U29  1
 UP BND       S_T85U30  1
 UP BND       S_T86U1  1
 UP BND       S_T86U2  1
 UP BND       S_T86U3  1
 UP BND       S_T86U4  1
 UP BND       S_T86U5  1
 UP BND       S_T86U6  1
 UP BND       S_T86U7  1
 UP BND       S_T86U8  1
 UP BND       S_T86U9  1
 UP BND       S_T86U10  1
 UP BND       S_T86U11  1
 UP BND       S_T86U12  1
 UP BND       S_T86U13  1
 UP BND       S_T86U14  1
 UP BND       S_T86U15  1
 UP BND       S_T86U16  1
 UP BND       S_T86U17  1
 UP BND       S_T86U18  1
 UP BND       S_T86U19  1
 UP BND       S_T86U20  1
 UP BND       S_T86U21  1
 UP BND       S_T86U22  1
 UP BND       S_T86U23  1
 UP BND       S_T86U24  1
 UP BND       S_T86U25  1
 UP BND       S_T86U26  1
 UP BND       S_T86U27  1
 UP BND       S_T86U28  1
 UP BND       S_T86U29  1
 UP BND       S_T86U30  1
 UP BND       S_T87U1  1
 UP BND       S_T87U2  1
 UP BND       S_T87U3  1
 UP BND       S_T87U4  1
 UP BND       S_T87U5  1
 UP BND       S_T87U6  1
 UP BND       S_T87U7  1
 UP BND       S_T87U8  1
 UP BND       S_T87U9  1
 UP BND       S_T87U10  1
 UP BND       S_T87U11  1
 UP BND       S_T87U12  1
 UP BND       S_T87U13  1
 UP BND       S_T87U14  1
 UP BND       S_T87U15  1
 UP BND       S_T87U16  1
 UP BND       S_T87U17  1
 UP BND       S_T87U18  1
 UP BND       S_T87U19  1
 UP BND       S_T87U20  1
 UP BND       S_T87U21  1
 UP BND       S_T87U22  1
 UP BND       S_T87U23  1
 UP BND       S_T87U24  1
 UP BND       S_T87U25  1
 UP BND       S_T87U26  1
 UP BND       S_T87U27  1
 UP BND       S_T87U28  1
 UP BND       S_T87U29  1
 UP BND       S_T87U30  1
 UP BND       S_T88U1  1
 UP BND       S_T88U2  1
 UP BND       S_T88U3  1
 UP BND       S_T88U4  1
 UP BND       S_T88U5  1
 UP BND       S_T88U6  1
 UP BND       S_T88U7  1
 UP BND       S_T88U8  1
 UP BND       S_T88U9  1
 UP BND       S_T88U10  1
 UP BND       S_T88U11  1
 UP BND       S_T88U12  1
 UP BND       S_T88U13  1
 UP BND       S_T88U14  1
 UP BND       S_T88U15  1
 UP BND       S_T88U16  1
 UP BND       S_T88U17  1
 UP BND       S_T88U18  1
 UP BND       S_T88U19  1
 UP BND       S_T88U20  1
 UP BND       S_T88U21  1
 UP BND       S_T88U22  1
 UP BND       S_T88U23  1
 UP BND       S_T88U24  1
 UP BND       S_T88U25  1
 UP BND       S_T88U26  1
 UP BND       S_T88U27  1
 UP BND       S_T88U28  1
 UP BND       S_T88U29  1
 UP BND       S_T88U30  1
 UP BND       S_T89U1  1
 UP BND       S_T89U2  1
 UP BND       S_T89U3  1
 UP BND       S_T89U4  1
 UP BND       S_T89U5  1
 UP BND       S_T89U6  1
 UP BND       S_T89U7  1
 UP BND       S_T89U8  1
 UP BND       S_T89U9  1
 UP BND       S_T89U10  1
 UP BND       S_T89U11  1
 UP BND       S_T89U12  1
 UP BND       S_T89U13  1
 UP BND       S_T89U14  1
 UP BND       S_T89U15  1
 UP BND       S_T89U16  1
 UP BND       S_T89U17  1
 UP BND       S_T89U18  1
 UP BND       S_T89U19  1
 UP BND       S_T89U20  1
 UP BND       S_T89U21  1
 UP BND       S_T89U22  1
 UP BND       S_T89U23  1
 UP BND       S_T89U24  1
 UP BND       S_T89U25  1
 UP BND       S_T89U26  1
 UP BND       S_T89U27  1
 UP BND       S_T89U28  1
 UP BND       S_T89U29  1
 UP BND       S_T89U30  1
 UP BND       S_T90U1  1
 UP BND       S_T90U2  1
 UP BND       S_T90U3  1
 UP BND       S_T90U4  1
 UP BND       S_T90U5  1
 UP BND       S_T90U6  1
 UP BND       S_T90U7  1
 UP BND       S_T90U8  1
 UP BND       S_T90U9  1
 UP BND       S_T90U10  1
 UP BND       S_T90U11  1
 UP BND       S_T90U12  1
 UP BND       S_T90U13  1
 UP BND       S_T90U14  1
 UP BND       S_T90U15  1
 UP BND       S_T90U16  1
 UP BND       S_T90U17  1
 UP BND       S_T90U18  1
 UP BND       S_T90U19  1
 UP BND       S_T90U20  1
 UP BND       S_T90U21  1
 UP BND       S_T90U22  1
 UP BND       S_T90U23  1
 UP BND       S_T90U24  1
 UP BND       S_T90U25  1
 UP BND       S_T90U26  1
 UP BND       S_T90U27  1
 UP BND       S_T90U28  1
 UP BND       S_T90U29  1
 UP BND       S_T90U30  1
 UP BND       S_T91U1  1
 UP BND       S_T91U2  1
 UP BND       S_T91U3  1
 UP BND       S_T91U4  1
 UP BND       S_T91U5  1
 UP BND       S_T91U6  1
 UP BND       S_T91U7  1
 UP BND       S_T91U8  1
 UP BND       S_T91U9  1
 UP BND       S_T91U10  1
 UP BND       S_T91U11  1
 UP BND       S_T91U12  1
 UP BND       S_T91U13  1
 UP BND       S_T91U14  1
 UP BND       S_T91U15  1
 UP BND       S_T91U16  1
 UP BND       S_T91U17  1
 UP BND       S_T91U18  1
 UP BND       S_T91U19  1
 UP BND       S_T91U20  1
 UP BND       S_T91U21  1
 UP BND       S_T91U22  1
 UP BND       S_T91U23  1
 UP BND       S_T91U24  1
 UP BND       S_T91U25  1
 UP BND       S_T91U26  1
 UP BND       S_T91U27  1
 UP BND       S_T91U28  1
 UP BND       S_T91U29  1
 UP BND       S_T91U30  1
 UP BND       S_T92U1  1
 UP BND       S_T92U2  1
 UP BND       S_T92U3  1
 UP BND       S_T92U4  1
 UP BND       S_T92U5  1
 UP BND       S_T92U6  1
 UP BND       S_T92U7  1
 UP BND       S_T92U8  1
 UP BND       S_T92U9  1
 UP BND       S_T92U10  1
 UP BND       S_T92U11  1
 UP BND       S_T92U12  1
 UP BND       S_T92U13  1
 UP BND       S_T92U14  1
 UP BND       S_T92U15  1
 UP BND       S_T92U16  1
 UP BND       S_T92U17  1
 UP BND       S_T92U18  1
 UP BND       S_T92U19  1
 UP BND       S_T92U20  1
 UP BND       S_T92U21  1
 UP BND       S_T92U22  1
 UP BND       S_T92U23  1
 UP BND       S_T92U24  1
 UP BND       S_T92U25  1
 UP BND       S_T92U26  1
 UP BND       S_T92U27  1
 UP BND       S_T92U28  1
 UP BND       S_T92U29  1
 UP BND       S_T92U30  1
 UP BND       S_T93U1  1
 UP BND       S_T93U2  1
 UP BND       S_T93U3  1
 UP BND       S_T93U4  1
 UP BND       S_T93U5  1
 UP BND       S_T93U6  1
 UP BND       S_T93U7  1
 UP BND       S_T93U8  1
 UP BND       S_T93U9  1
 UP BND       S_T93U10  1
 UP BND       S_T93U11  1
 UP BND       S_T93U12  1
 UP BND       S_T93U13  1
 UP BND       S_T93U14  1
 UP BND       S_T93U15  1
 UP BND       S_T93U16  1
 UP BND       S_T93U17  1
 UP BND       S_T93U18  1
 UP BND       S_T93U19  1
 UP BND       S_T93U20  1
 UP BND       S_T93U21  1
 UP BND       S_T93U22  1
 UP BND       S_T93U23  1
 UP BND       S_T93U24  1
 UP BND       S_T93U25  1
 UP BND       S_T93U26  1
 UP BND       S_T93U27  1
 UP BND       S_T93U28  1
 UP BND       S_T93U29  1
 UP BND       S_T93U30  1
 UP BND       S_T94U1  1
 UP BND       S_T94U2  1
 UP BND       S_T94U3  1
 UP BND       S_T94U4  1
 UP BND       S_T94U5  1
 UP BND       S_T94U6  1
 UP BND       S_T94U7  1
 UP BND       S_T94U8  1
 UP BND       S_T94U9  1
 UP BND       S_T94U10  1
 UP BND       S_T94U11  1
 UP BND       S_T94U12  1
 UP BND       S_T94U13  1
 UP BND       S_T94U14  1
 UP BND       S_T94U15  1
 UP BND       S_T94U16  1
 UP BND       S_T94U17  1
 UP BND       S_T94U18  1
 UP BND       S_T94U19  1
 UP BND       S_T94U20  1
 UP BND       S_T94U21  1
 UP BND       S_T94U22  1
 UP BND       S_T94U23  1
 UP BND       S_T94U24  1
 UP BND       S_T94U25  1
 UP BND       S_T94U26  1
 UP BND       S_T94U27  1
 UP BND       S_T94U28  1
 UP BND       S_T94U29  1
 UP BND       S_T94U30  1
 UP BND       S_T95U1  1
 UP BND       S_T95U2  1
 UP BND       S_T95U3  1
 UP BND       S_T95U4  1
 UP BND       S_T95U5  1
 UP BND       S_T95U6  1
 UP BND       S_T95U7  1
 UP BND       S_T95U8  1
 UP BND       S_T95U9  1
 UP BND       S_T95U10  1
 UP BND       S_T95U11  1
 UP BND       S_T95U12  1
 UP BND       S_T95U13  1
 UP BND       S_T95U14  1
 UP BND       S_T95U15  1
 UP BND       S_T95U16  1
 UP BND       S_T95U17  1
 UP BND       S_T95U18  1
 UP BND       S_T95U19  1
 UP BND       S_T95U20  1
 UP BND       S_T95U21  1
 UP BND       S_T95U22  1
 UP BND       S_T95U23  1
 UP BND       S_T95U24  1
 UP BND       S_T95U25  1
 UP BND       S_T95U26  1
 UP BND       S_T95U27  1
 UP BND       S_T95U28  1
 UP BND       S_T95U29  1
 UP BND       S_T95U30  1
 UP BND       S_T96U1  1
 UP BND       S_T96U2  1
 UP BND       S_T96U3  1
 UP BND       S_T96U4  1
 UP BND       S_T96U5  1
 UP BND       S_T96U6  1
 UP BND       S_T96U7  1
 UP BND       S_T96U8  1
 UP BND       S_T96U9  1
 UP BND       S_T96U10  1
 UP BND       S_T96U11  1
 UP BND       S_T96U12  1
 UP BND       S_T96U13  1
 UP BND       S_T96U14  1
 UP BND       S_T96U15  1
 UP BND       S_T96U16  1
 UP BND       S_T96U17  1
 UP BND       S_T96U18  1
 UP BND       S_T96U19  1
 UP BND       S_T96U20  1
 UP BND       S_T96U21  1
 UP BND       S_T96U22  1
 UP BND       S_T96U23  1
 UP BND       S_T96U24  1
 UP BND       S_T96U25  1
 UP BND       S_T96U26  1
 UP BND       S_T96U27  1
 UP BND       S_T96U28  1
 UP BND       S_T96U29  1
 UP BND       S_T96U30  1
 UP BND       S_T97U1  1
 UP BND       S_T97U2  1
 UP BND       S_T97U3  1
 UP BND       S_T97U4  1
 UP BND       S_T97U5  1
 UP BND       S_T97U6  1
 UP BND       S_T97U7  1
 UP BND       S_T97U8  1
 UP BND       S_T97U9  1
 UP BND       S_T97U10  1
 UP BND       S_T97U11  1
 UP BND       S_T97U12  1
 UP BND       S_T97U13  1
 UP BND       S_T97U14  1
 UP BND       S_T97U15  1
 UP BND       S_T97U16  1
 UP BND       S_T97U17  1
 UP BND       S_T97U18  1
 UP BND       S_T97U19  1
 UP BND       S_T97U20  1
 UP BND       S_T97U21  1
 UP BND       S_T97U22  1
 UP BND       S_T97U23  1
 UP BND       S_T97U24  1
 UP BND       S_T97U25  1
 UP BND       S_T97U26  1
 UP BND       S_T97U27  1
 UP BND       S_T97U28  1
 UP BND       S_T97U29  1
 UP BND       S_T97U30  1
 UP BND       S_T98U1  1
 UP BND       S_T98U2  1
 UP BND       S_T98U3  1
 UP BND       S_T98U4  1
 UP BND       S_T98U5  1
 UP BND       S_T98U6  1
 UP BND       S_T98U7  1
 UP BND       S_T98U8  1
 UP BND       S_T98U9  1
 UP BND       S_T98U10  1
 UP BND       S_T98U11  1
 UP BND       S_T98U12  1
 UP BND       S_T98U13  1
 UP BND       S_T98U14  1
 UP BND       S_T98U15  1
 UP BND       S_T98U16  1
 UP BND       S_T98U17  1
 UP BND       S_T98U18  1
 UP BND       S_T98U19  1
 UP BND       S_T98U20  1
 UP BND       S_T98U21  1
 UP BND       S_T98U22  1
 UP BND       S_T98U23  1
 UP BND       S_T98U24  1
 UP BND       S_T98U25  1
 UP BND       S_T98U26  1
 UP BND       S_T98U27  1
 UP BND       S_T98U28  1
 UP BND       S_T98U29  1
 UP BND       S_T98U30  1
 UP BND       S_T99U1  1
 UP BND       S_T99U2  1
 UP BND       S_T99U3  1
 UP BND       S_T99U4  1
 UP BND       S_T99U5  1
 UP BND       S_T99U6  1
 UP BND       S_T99U7  1
 UP BND       S_T99U8  1
 UP BND       S_T99U9  1
 UP BND       S_T99U10  1
 UP BND       S_T99U11  1
 UP BND       S_T99U12  1
 UP BND       S_T99U13  1
 UP BND       S_T99U14  1
 UP BND       S_T99U15  1
 UP BND       S_T99U16  1
 UP BND       S_T99U17  1
 UP BND       S_T99U18  1
 UP BND       S_T99U19  1
 UP BND       S_T99U20  1
 UP BND       S_T99U21  1
 UP BND       S_T99U22  1
 UP BND       S_T99U23  1
 UP BND       S_T99U24  1
 UP BND       S_T99U25  1
 UP BND       S_T99U26  1
 UP BND       S_T99U27  1
 UP BND       S_T99U28  1
 UP BND       S_T99U29  1
 UP BND       S_T99U30  1
 UP BND       S_T100U1  1
 UP BND       S_T100U2  1
 UP BND       S_T100U3  1
 UP BND       S_T100U4  1
 UP BND       S_T100U5  1
 UP BND       S_T100U6  1
 UP BND       S_T100U7  1
 UP BND       S_T100U8  1
 UP BND       S_T100U9  1
 UP BND       S_T100U10  1
 UP BND       S_T100U11  1
 UP BND       S_T100U12  1
 UP BND       S_T100U13  1
 UP BND       S_T100U14  1
 UP BND       S_T100U15  1
 UP BND       S_T100U16  1
 UP BND       S_T100U17  1
 UP BND       S_T100U18  1
 UP BND       S_T100U19  1
 UP BND       S_T100U20  1
 UP BND       S_T100U21  1
 UP BND       S_T100U22  1
 UP BND       S_T100U23  1
 UP BND       S_T100U24  1
 UP BND       S_T100U25  1
 UP BND       S_T100U26  1
 UP BND       S_T100U27  1
 UP BND       S_T100U28  1
 UP BND       S_T100U29  1
 UP BND       S_T100U30  1
 UP BND       S_T101U1  1
 UP BND       S_T101U2  1
 UP BND       S_T101U3  1
 UP BND       S_T101U4  1
 UP BND       S_T101U5  1
 UP BND       S_T101U6  1
 UP BND       S_T101U7  1
 UP BND       S_T101U8  1
 UP BND       S_T101U9  1
 UP BND       S_T101U10  1
 UP BND       S_T101U11  1
 UP BND       S_T101U12  1
 UP BND       S_T101U13  1
 UP BND       S_T101U14  1
 UP BND       S_T101U15  1
 UP BND       S_T101U16  1
 UP BND       S_T101U17  1
 UP BND       S_T101U18  1
 UP BND       S_T101U19  1
 UP BND       S_T101U20  1
 UP BND       S_T101U21  1
 UP BND       S_T101U22  1
 UP BND       S_T101U23  1
 UP BND       S_T101U24  1
 UP BND       S_T101U25  1
 UP BND       S_T101U26  1
 UP BND       S_T101U27  1
 UP BND       S_T101U28  1
 UP BND       S_T101U29  1
 UP BND       S_T101U30  1
 UP BND       S_T102U1  1
 UP BND       S_T102U2  1
 UP BND       S_T102U3  1
 UP BND       S_T102U4  1
 UP BND       S_T102U5  1
 UP BND       S_T102U6  1
 UP BND       S_T102U7  1
 UP BND       S_T102U8  1
 UP BND       S_T102U9  1
 UP BND       S_T102U10  1
 UP BND       S_T102U11  1
 UP BND       S_T102U12  1
 UP BND       S_T102U13  1
 UP BND       S_T102U14  1
 UP BND       S_T102U15  1
 UP BND       S_T102U16  1
 UP BND       S_T102U17  1
 UP BND       S_T102U18  1
 UP BND       S_T102U19  1
 UP BND       S_T102U20  1
 UP BND       S_T102U21  1
 UP BND       S_T102U22  1
 UP BND       S_T102U23  1
 UP BND       S_T102U24  1
 UP BND       S_T102U25  1
 UP BND       S_T102U26  1
 UP BND       S_T102U27  1
 UP BND       S_T102U28  1
 UP BND       S_T102U29  1
 UP BND       S_T102U30  1
 UP BND       S_T103U1  1
 UP BND       S_T103U2  1
 UP BND       S_T103U3  1
 UP BND       S_T103U4  1
 UP BND       S_T103U5  1
 UP BND       S_T103U6  1
 UP BND       S_T103U7  1
 UP BND       S_T103U8  1
 UP BND       S_T103U9  1
 UP BND       S_T103U10  1
 UP BND       S_T103U11  1
 UP BND       S_T103U12  1
 UP BND       S_T103U13  1
 UP BND       S_T103U14  1
 UP BND       S_T103U15  1
 UP BND       S_T103U16  1
 UP BND       S_T103U17  1
 UP BND       S_T103U18  1
 UP BND       S_T103U19  1
 UP BND       S_T103U20  1
 UP BND       S_T103U21  1
 UP BND       S_T103U22  1
 UP BND       S_T103U23  1
 UP BND       S_T103U24  1
 UP BND       S_T103U25  1
 UP BND       S_T103U26  1
 UP BND       S_T103U27  1
 UP BND       S_T103U28  1
 UP BND       S_T103U29  1
 UP BND       S_T103U30  1
 UP BND       S_T104U1  1
 UP BND       S_T104U2  1
 UP BND       S_T104U3  1
 UP BND       S_T104U4  1
 UP BND       S_T104U5  1
 UP BND       S_T104U6  1
 UP BND       S_T104U7  1
 UP BND       S_T104U8  1
 UP BND       S_T104U9  1
 UP BND       S_T104U10  1
 UP BND       S_T104U11  1
 UP BND       S_T104U12  1
 UP BND       S_T104U13  1
 UP BND       S_T104U14  1
 UP BND       S_T104U15  1
 UP BND       S_T104U16  1
 UP BND       S_T104U17  1
 UP BND       S_T104U18  1
 UP BND       S_T104U19  1
 UP BND       S_T104U20  1
 UP BND       S_T104U21  1
 UP BND       S_T104U22  1
 UP BND       S_T104U23  1
 UP BND       S_T104U24  1
 UP BND       S_T104U25  1
 UP BND       S_T104U26  1
 UP BND       S_T104U27  1
 UP BND       S_T104U28  1
 UP BND       S_T104U29  1
 UP BND       S_T104U30  1
 UP BND       S_T105U1  1
 UP BND       S_T105U2  1
 UP BND       S_T105U3  1
 UP BND       S_T105U4  1
 UP BND       S_T105U5  1
 UP BND       S_T105U6  1
 UP BND       S_T105U7  1
 UP BND       S_T105U8  1
 UP BND       S_T105U9  1
 UP BND       S_T105U10  1
 UP BND       S_T105U11  1
 UP BND       S_T105U12  1
 UP BND       S_T105U13  1
 UP BND       S_T105U14  1
 UP BND       S_T105U15  1
 UP BND       S_T105U16  1
 UP BND       S_T105U17  1
 UP BND       S_T105U18  1
 UP BND       S_T105U19  1
 UP BND       S_T105U20  1
 UP BND       S_T105U21  1
 UP BND       S_T105U22  1
 UP BND       S_T105U23  1
 UP BND       S_T105U24  1
 UP BND       S_T105U25  1
 UP BND       S_T105U26  1
 UP BND       S_T105U27  1
 UP BND       S_T105U28  1
 UP BND       S_T105U29  1
 UP BND       S_T105U30  1
 UP BND       S_T106U1  1
 UP BND       S_T106U2  1
 UP BND       S_T106U3  1
 UP BND       S_T106U4  1
 UP BND       S_T106U5  1
 UP BND       S_T106U6  1
 UP BND       S_T106U7  1
 UP BND       S_T106U8  1
 UP BND       S_T106U9  1
 UP BND       S_T106U10  1
 UP BND       S_T106U11  1
 UP BND       S_T106U12  1
 UP BND       S_T106U13  1
 UP BND       S_T106U14  1
 UP BND       S_T106U15  1
 UP BND       S_T106U16  1
 UP BND       S_T106U17  1
 UP BND       S_T106U18  1
 UP BND       S_T106U19  1
 UP BND       S_T106U20  1
 UP BND       S_T106U21  1
 UP BND       S_T106U22  1
 UP BND       S_T106U23  1
 UP BND       S_T106U24  1
 UP BND       S_T106U25  1
 UP BND       S_T106U26  1
 UP BND       S_T106U27  1
 UP BND       S_T106U28  1
 UP BND       S_T106U29  1
 UP BND       S_T106U30  1
 UP BND       S_T107U1  1
 UP BND       S_T107U2  1
 UP BND       S_T107U3  1
 UP BND       S_T107U4  1
 UP BND       S_T107U5  1
 UP BND       S_T107U6  1
 UP BND       S_T107U7  1
 UP BND       S_T107U8  1
 UP BND       S_T107U9  1
 UP BND       S_T107U10  1
 UP BND       S_T107U11  1
 UP BND       S_T107U12  1
 UP BND       S_T107U13  1
 UP BND       S_T107U14  1
 UP BND       S_T107U15  1
 UP BND       S_T107U16  1
 UP BND       S_T107U17  1
 UP BND       S_T107U18  1
 UP BND       S_T107U19  1
 UP BND       S_T107U20  1
 UP BND       S_T107U21  1
 UP BND       S_T107U22  1
 UP BND       S_T107U23  1
 UP BND       S_T107U24  1
 UP BND       S_T107U25  1
 UP BND       S_T107U26  1
 UP BND       S_T107U27  1
 UP BND       S_T107U28  1
 UP BND       S_T107U29  1
 UP BND       S_T107U30  1
 UP BND       S_T108U1  1
 UP BND       S_T108U2  1
 UP BND       S_T108U3  1
 UP BND       S_T108U4  1
 UP BND       S_T108U5  1
 UP BND       S_T108U6  1
 UP BND       S_T108U7  1
 UP BND       S_T108U8  1
 UP BND       S_T108U9  1
 UP BND       S_T108U10  1
 UP BND       S_T108U11  1
 UP BND       S_T108U12  1
 UP BND       S_T108U13  1
 UP BND       S_T108U14  1
 UP BND       S_T108U15  1
 UP BND       S_T108U16  1
 UP BND       S_T108U17  1
 UP BND       S_T108U18  1
 UP BND       S_T108U19  1
 UP BND       S_T108U20  1
 UP BND       S_T108U21  1
 UP BND       S_T108U22  1
 UP BND       S_T108U23  1
 UP BND       S_T108U24  1
 UP BND       S_T108U25  1
 UP BND       S_T108U26  1
 UP BND       S_T108U27  1
 UP BND       S_T108U28  1
 UP BND       S_T108U29  1
 UP BND       S_T108U30  1
 UP BND       S_T109U1  1
 UP BND       S_T109U2  1
 UP BND       S_T109U3  1
 UP BND       S_T109U4  1
 UP BND       S_T109U5  1
 UP BND       S_T109U6  1
 UP BND       S_T109U7  1
 UP BND       S_T109U8  1
 UP BND       S_T109U9  1
 UP BND       S_T109U10  1
 UP BND       S_T109U11  1
 UP BND       S_T109U12  1
 UP BND       S_T109U13  1
 UP BND       S_T109U14  1
 UP BND       S_T109U15  1
 UP BND       S_T109U16  1
 UP BND       S_T109U17  1
 UP BND       S_T109U18  1
 UP BND       S_T109U19  1
 UP BND       S_T109U20  1
 UP BND       S_T109U21  1
 UP BND       S_T109U22  1
 UP BND       S_T109U23  1
 UP BND       S_T109U24  1
 UP BND       S_T109U25  1
 UP BND       S_T109U26  1
 UP BND       S_T109U27  1
 UP BND       S_T109U28  1
 UP BND       S_T109U29  1
 UP BND       S_T109U30  1
 UP BND       S_T110U1  1
 UP BND       S_T110U2  1
 UP BND       S_T110U3  1
 UP BND       S_T110U4  1
 UP BND       S_T110U5  1
 UP BND       S_T110U6  1
 UP BND       S_T110U7  1
 UP BND       S_T110U8  1
 UP BND       S_T110U9  1
 UP BND       S_T110U10  1
 UP BND       S_T110U11  1
 UP BND       S_T110U12  1
 UP BND       S_T110U13  1
 UP BND       S_T110U14  1
 UP BND       S_T110U15  1
 UP BND       S_T110U16  1
 UP BND       S_T110U17  1
 UP BND       S_T110U18  1
 UP BND       S_T110U19  1
 UP BND       S_T110U20  1
 UP BND       S_T110U21  1
 UP BND       S_T110U22  1
 UP BND       S_T110U23  1
 UP BND       S_T110U24  1
 UP BND       S_T110U25  1
 UP BND       S_T110U26  1
 UP BND       S_T110U27  1
 UP BND       S_T110U28  1
 UP BND       S_T110U29  1
 UP BND       S_T110U30  1
 UP BND       S_T111U1  1
 UP BND       S_T111U2  1
 UP BND       S_T111U3  1
 UP BND       S_T111U4  1
 UP BND       S_T111U5  1
 UP BND       S_T111U6  1
 UP BND       S_T111U7  1
 UP BND       S_T111U8  1
 UP BND       S_T111U9  1
 UP BND       S_T111U10  1
 UP BND       S_T111U11  1
 UP BND       S_T111U12  1
 UP BND       S_T111U13  1
 UP BND       S_T111U14  1
 UP BND       S_T111U15  1
 UP BND       S_T111U16  1
 UP BND       S_T111U17  1
 UP BND       S_T111U18  1
 UP BND       S_T111U19  1
 UP BND       S_T111U20  1
 UP BND       S_T111U21  1
 UP BND       S_T111U22  1
 UP BND       S_T111U23  1
 UP BND       S_T111U24  1
 UP BND       S_T111U25  1
 UP BND       S_T111U26  1
 UP BND       S_T111U27  1
 UP BND       S_T111U28  1
 UP BND       S_T111U29  1
 UP BND       S_T111U30  1
 UP BND       S_T112U1  1
 UP BND       S_T112U2  1
 UP BND       S_T112U3  1
 UP BND       S_T112U4  1
 UP BND       S_T112U5  1
 UP BND       S_T112U6  1
 UP BND       S_T112U7  1
 UP BND       S_T112U8  1
 UP BND       S_T112U9  1
 UP BND       S_T112U10  1
 UP BND       S_T112U11  1
 UP BND       S_T112U12  1
 UP BND       S_T112U13  1
 UP BND       S_T112U14  1
 UP BND       S_T112U15  1
 UP BND       S_T112U16  1
 UP BND       S_T112U17  1
 UP BND       S_T112U18  1
 UP BND       S_T112U19  1
 UP BND       S_T112U20  1
 UP BND       S_T112U21  1
 UP BND       S_T112U22  1
 UP BND       S_T112U23  1
 UP BND       S_T112U24  1
 UP BND       S_T112U25  1
 UP BND       S_T112U26  1
 UP BND       S_T112U27  1
 UP BND       S_T112U28  1
 UP BND       S_T112U29  1
 UP BND       S_T112U30  1
 UP BND       S_T113U1  1
 UP BND       S_T113U2  1
 UP BND       S_T113U3  1
 UP BND       S_T113U4  1
 UP BND       S_T113U5  1
 UP BND       S_T113U6  1
 UP BND       S_T113U7  1
 UP BND       S_T113U8  1
 UP BND       S_T113U9  1
 UP BND       S_T113U10  1
 UP BND       S_T113U11  1
 UP BND       S_T113U12  1
 UP BND       S_T113U13  1
 UP BND       S_T113U14  1
 UP BND       S_T113U15  1
 UP BND       S_T113U16  1
 UP BND       S_T113U17  1
 UP BND       S_T113U18  1
 UP BND       S_T113U19  1
 UP BND       S_T113U20  1
 UP BND       S_T113U21  1
 UP BND       S_T113U22  1
 UP BND       S_T113U23  1
 UP BND       S_T113U24  1
 UP BND       S_T113U25  1
 UP BND       S_T113U26  1
 UP BND       S_T113U27  1
 UP BND       S_T113U28  1
 UP BND       S_T113U29  1
 UP BND       S_T113U30  1
 UP BND       S_T114U1  1
 UP BND       S_T114U2  1
 UP BND       S_T114U3  1
 UP BND       S_T114U4  1
 UP BND       S_T114U5  1
 UP BND       S_T114U6  1
 UP BND       S_T114U7  1
 UP BND       S_T114U8  1
 UP BND       S_T114U9  1
 UP BND       S_T114U10  1
 UP BND       S_T114U11  1
 UP BND       S_T114U12  1
 UP BND       S_T114U13  1
 UP BND       S_T114U14  1
 UP BND       S_T114U15  1
 UP BND       S_T114U16  1
 UP BND       S_T114U17  1
 UP BND       S_T114U18  1
 UP BND       S_T114U19  1
 UP BND       S_T114U20  1
 UP BND       S_T114U21  1
 UP BND       S_T114U22  1
 UP BND       S_T114U23  1
 UP BND       S_T114U24  1
 UP BND       S_T114U25  1
 UP BND       S_T114U26  1
 UP BND       S_T114U27  1
 UP BND       S_T114U28  1
 UP BND       S_T114U29  1
 UP BND       S_T114U30  1
 UP BND       S_T115U1  1
 UP BND       S_T115U2  1
 UP BND       S_T115U3  1
 UP BND       S_T115U4  1
 UP BND       S_T115U5  1
 UP BND       S_T115U6  1
 UP BND       S_T115U7  1
 UP BND       S_T115U8  1
 UP BND       S_T115U9  1
 UP BND       S_T115U10  1
 UP BND       S_T115U11  1
 UP BND       S_T115U12  1
 UP BND       S_T115U13  1
 UP BND       S_T115U14  1
 UP BND       S_T115U15  1
 UP BND       S_T115U16  1
 UP BND       S_T115U17  1
 UP BND       S_T115U18  1
 UP BND       S_T115U19  1
 UP BND       S_T115U20  1
 UP BND       S_T115U21  1
 UP BND       S_T115U22  1
 UP BND       S_T115U23  1
 UP BND       S_T115U24  1
 UP BND       S_T115U25  1
 UP BND       S_T115U26  1
 UP BND       S_T115U27  1
 UP BND       S_T115U28  1
 UP BND       S_T115U29  1
 UP BND       S_T115U30  1
 UP BND       S_T116U1  1
 UP BND       S_T116U2  1
 UP BND       S_T116U3  1
 UP BND       S_T116U4  1
 UP BND       S_T116U5  1
 UP BND       S_T116U6  1
 UP BND       S_T116U7  1
 UP BND       S_T116U8  1
 UP BND       S_T116U9  1
 UP BND       S_T116U10  1
 UP BND       S_T116U11  1
 UP BND       S_T116U12  1
 UP BND       S_T116U13  1
 UP BND       S_T116U14  1
 UP BND       S_T116U15  1
 UP BND       S_T116U16  1
 UP BND       S_T116U17  1
 UP BND       S_T116U18  1
 UP BND       S_T116U19  1
 UP BND       S_T116U20  1
 UP BND       S_T116U21  1
 UP BND       S_T116U22  1
 UP BND       S_T116U23  1
 UP BND       S_T116U24  1
 UP BND       S_T116U25  1
 UP BND       S_T116U26  1
 UP BND       S_T116U27  1
 UP BND       S_T116U28  1
 UP BND       S_T116U29  1
 UP BND       S_T116U30  1
 UP BND       S_T117U1  1
 UP BND       S_T117U2  1
 UP BND       S_T117U3  1
 UP BND       S_T117U4  1
 UP BND       S_T117U5  1
 UP BND       S_T117U6  1
 UP BND       S_T117U7  1
 UP BND       S_T117U8  1
 UP BND       S_T117U9  1
 UP BND       S_T117U10  1
 UP BND       S_T117U11  1
 UP BND       S_T117U12  1
 UP BND       S_T117U13  1
 UP BND       S_T117U14  1
 UP BND       S_T117U15  1
 UP BND       S_T117U16  1
 UP BND       S_T117U17  1
 UP BND       S_T117U18  1
 UP BND       S_T117U19  1
 UP BND       S_T117U20  1
 UP BND       S_T117U21  1
 UP BND       S_T117U22  1
 UP BND       S_T117U23  1
 UP BND       S_T117U24  1
 UP BND       S_T117U25  1
 UP BND       S_T117U26  1
 UP BND       S_T117U27  1
 UP BND       S_T117U28  1
 UP BND       S_T117U29  1
 UP BND       S_T117U30  1
 UP BND       S_T118U1  1
 UP BND       S_T118U2  1
 UP BND       S_T118U3  1
 UP BND       S_T118U4  1
 UP BND       S_T118U5  1
 UP BND       S_T118U6  1
 UP BND       S_T118U7  1
 UP BND       S_T118U8  1
 UP BND       S_T118U9  1
 UP BND       S_T118U10  1
 UP BND       S_T118U11  1
 UP BND       S_T118U12  1
 UP BND       S_T118U13  1
 UP BND       S_T118U14  1
 UP BND       S_T118U15  1
 UP BND       S_T118U16  1
 UP BND       S_T118U17  1
 UP BND       S_T118U18  1
 UP BND       S_T118U19  1
 UP BND       S_T118U20  1
 UP BND       S_T118U21  1
 UP BND       S_T118U22  1
 UP BND       S_T118U23  1
 UP BND       S_T118U24  1
 UP BND       S_T118U25  1
 UP BND       S_T118U26  1
 UP BND       S_T118U27  1
 UP BND       S_T118U28  1
 UP BND       S_T118U29  1
 UP BND       S_T118U30  1
 UP BND       S_T119U1  1
 UP BND       S_T119U2  1
 UP BND       S_T119U3  1
 UP BND       S_T119U4  1
 UP BND       S_T119U5  1
 UP BND       S_T119U6  1
 UP BND       S_T119U7  1
 UP BND       S_T119U8  1
 UP BND       S_T119U9  1
 UP BND       S_T119U10  1
 UP BND       S_T119U11  1
 UP BND       S_T119U12  1
 UP BND       S_T119U13  1
 UP BND       S_T119U14  1
 UP BND       S_T119U15  1
 UP BND       S_T119U16  1
 UP BND       S_T119U17  1
 UP BND       S_T119U18  1
 UP BND       S_T119U19  1
 UP BND       S_T119U20  1
 UP BND       S_T119U21  1
 UP BND       S_T119U22  1
 UP BND       S_T119U23  1
 UP BND       S_T119U24  1
 UP BND       S_T119U25  1
 UP BND       S_T119U26  1
 UP BND       S_T119U27  1
 UP BND       S_T119U28  1
 UP BND       S_T119U29  1
 UP BND       S_T119U30  1
 UP BND       S_T120U1  1
 UP BND       S_T120U2  1
 UP BND       S_T120U3  1
 UP BND       S_T120U4  1
 UP BND       S_T120U5  1
 UP BND       S_T120U6  1
 UP BND       S_T120U7  1
 UP BND       S_T120U8  1
 UP BND       S_T120U9  1
 UP BND       S_T120U10  1
 UP BND       S_T120U11  1
 UP BND       S_T120U12  1
 UP BND       S_T120U13  1
 UP BND       S_T120U14  1
 UP BND       S_T120U15  1
 UP BND       S_T120U16  1
 UP BND       S_T120U17  1
 UP BND       S_T120U18  1
 UP BND       S_T120U19  1
 UP BND       S_T120U20  1
 UP BND       S_T120U21  1
 UP BND       S_T120U22  1
 UP BND       S_T120U23  1
 UP BND       S_T120U24  1
 UP BND       S_T120U25  1
 UP BND       S_T120U26  1
 UP BND       S_T120U27  1
 UP BND       S_T120U28  1
 UP BND       S_T120U29  1
 UP BND       S_T120U30  1
 UP BND       S_T121U1  1
 UP BND       S_T121U2  1
 UP BND       S_T121U3  1
 UP BND       S_T121U4  1
 UP BND       S_T121U5  1
 UP BND       S_T121U6  1
 UP BND       S_T121U7  1
 UP BND       S_T121U8  1
 UP BND       S_T121U9  1
 UP BND       S_T121U10  1
 UP BND       S_T121U11  1
 UP BND       S_T121U12  1
 UP BND       S_T121U13  1
 UP BND       S_T121U14  1
 UP BND       S_T121U15  1
 UP BND       S_T121U16  1
 UP BND       S_T121U17  1
 UP BND       S_T121U18  1
 UP BND       S_T121U19  1
 UP BND       S_T121U20  1
 UP BND       S_T121U21  1
 UP BND       S_T121U22  1
 UP BND       S_T121U23  1
 UP BND       S_T121U24  1
 UP BND       S_T121U25  1
 UP BND       S_T121U26  1
 UP BND       S_T121U27  1
 UP BND       S_T121U28  1
 UP BND       S_T121U29  1
 UP BND       S_T121U30  1
 UP BND       S_T122U1  1
 UP BND       S_T122U2  1
 UP BND       S_T122U3  1
 UP BND       S_T122U4  1
 UP BND       S_T122U5  1
 UP BND       S_T122U6  1
 UP BND       S_T122U7  1
 UP BND       S_T122U8  1
 UP BND       S_T122U9  1
 UP BND       S_T122U10  1
 UP BND       S_T122U11  1
 UP BND       S_T122U12  1
 UP BND       S_T122U13  1
 UP BND       S_T122U14  1
 UP BND       S_T122U15  1
 UP BND       S_T122U16  1
 UP BND       S_T122U17  1
 UP BND       S_T122U18  1
 UP BND       S_T122U19  1
 UP BND       S_T122U20  1
 UP BND       S_T122U21  1
 UP BND       S_T122U22  1
 UP BND       S_T122U23  1
 UP BND       S_T122U24  1
 UP BND       S_T122U25  1
 UP BND       S_T122U26  1
 UP BND       S_T122U27  1
 UP BND       S_T122U28  1
 UP BND       S_T122U29  1
 UP BND       S_T122U30  1
 UP BND       S_T123U1  1
 UP BND       S_T123U2  1
 UP BND       S_T123U3  1
 UP BND       S_T123U4  1
 UP BND       S_T123U5  1
 UP BND       S_T123U6  1
 UP BND       S_T123U7  1
 UP BND       S_T123U8  1
 UP BND       S_T123U9  1
 UP BND       S_T123U10  1
 UP BND       S_T123U11  1
 UP BND       S_T123U12  1
 UP BND       S_T123U13  1
 UP BND       S_T123U14  1
 UP BND       S_T123U15  1
 UP BND       S_T123U16  1
 UP BND       S_T123U17  1
 UP BND       S_T123U18  1
 UP BND       S_T123U19  1
 UP BND       S_T123U20  1
 UP BND       S_T123U21  1
 UP BND       S_T123U22  1
 UP BND       S_T123U23  1
 UP BND       S_T123U24  1
 UP BND       S_T123U25  1
 UP BND       S_T123U26  1
 UP BND       S_T123U27  1
 UP BND       S_T123U28  1
 UP BND       S_T123U29  1
 UP BND       S_T123U30  1
 UP BND       S_T124U1  1
 UP BND       S_T124U2  1
 UP BND       S_T124U3  1
 UP BND       S_T124U4  1
 UP BND       S_T124U5  1
 UP BND       S_T124U6  1
 UP BND       S_T124U7  1
 UP BND       S_T124U8  1
 UP BND       S_T124U9  1
 UP BND       S_T124U10  1
 UP BND       S_T124U11  1
 UP BND       S_T124U12  1
 UP BND       S_T124U13  1
 UP BND       S_T124U14  1
 UP BND       S_T124U15  1
 UP BND       S_T124U16  1
 UP BND       S_T124U17  1
 UP BND       S_T124U18  1
 UP BND       S_T124U19  1
 UP BND       S_T124U20  1
 UP BND       S_T124U21  1
 UP BND       S_T124U22  1
 UP BND       S_T124U23  1
 UP BND       S_T124U24  1
 UP BND       S_T124U25  1
 UP BND       S_T124U26  1
 UP BND       S_T124U27  1
 UP BND       S_T124U28  1
 UP BND       S_T124U29  1
 UP BND       S_T124U30  1
 UP BND       S_T125U1  1
 UP BND       S_T125U2  1
 UP BND       S_T125U3  1
 UP BND       S_T125U4  1
 UP BND       S_T125U5  1
 UP BND       S_T125U6  1
 UP BND       S_T125U7  1
 UP BND       S_T125U8  1
 UP BND       S_T125U9  1
 UP BND       S_T125U10  1
 UP BND       S_T125U11  1
 UP BND       S_T125U12  1
 UP BND       S_T125U13  1
 UP BND       S_T125U14  1
 UP BND       S_T125U15  1
 UP BND       S_T125U16  1
 UP BND       S_T125U17  1
 UP BND       S_T125U18  1
 UP BND       S_T125U19  1
 UP BND       S_T125U20  1
 UP BND       S_T125U21  1
 UP BND       S_T125U22  1
 UP BND       S_T125U23  1
 UP BND       S_T125U24  1
 UP BND       S_T125U25  1
 UP BND       S_T125U26  1
 UP BND       S_T125U27  1
 UP BND       S_T125U28  1
 UP BND       S_T125U29  1
 UP BND       S_T125U30  1
 UP BND       S_T126U1  1
 UP BND       S_T126U2  1
 UP BND       S_T126U3  1
 UP BND       S_T126U4  1
 UP BND       S_T126U5  1
 UP BND       S_T126U6  1
 UP BND       S_T126U7  1
 UP BND       S_T126U8  1
 UP BND       S_T126U9  1
 UP BND       S_T126U10  1
 UP BND       S_T126U11  1
 UP BND       S_T126U12  1
 UP BND       S_T126U13  1
 UP BND       S_T126U14  1
 UP BND       S_T126U15  1
 UP BND       S_T126U16  1
 UP BND       S_T126U17  1
 UP BND       S_T126U18  1
 UP BND       S_T126U19  1
 UP BND       S_T126U20  1
 UP BND       S_T126U21  1
 UP BND       S_T126U22  1
 UP BND       S_T126U23  1
 UP BND       S_T126U24  1
 UP BND       S_T126U25  1
 UP BND       S_T126U26  1
 UP BND       S_T126U27  1
 UP BND       S_T126U28  1
 UP BND       S_T126U29  1
 UP BND       S_T126U30  1
 UP BND       S_T127U1  1
 UP BND       S_T127U2  1
 UP BND       S_T127U3  1
 UP BND       S_T127U4  1
 UP BND       S_T127U5  1
 UP BND       S_T127U6  1
 UP BND       S_T127U7  1
 UP BND       S_T127U8  1
 UP BND       S_T127U9  1
 UP BND       S_T127U10  1
 UP BND       S_T127U11  1
 UP BND       S_T127U12  1
 UP BND       S_T127U13  1
 UP BND       S_T127U14  1
 UP BND       S_T127U15  1
 UP BND       S_T127U16  1
 UP BND       S_T127U17  1
 UP BND       S_T127U18  1
 UP BND       S_T127U19  1
 UP BND       S_T127U20  1
 UP BND       S_T127U21  1
 UP BND       S_T127U22  1
 UP BND       S_T127U23  1
 UP BND       S_T127U24  1
 UP BND       S_T127U25  1
 UP BND       S_T127U26  1
 UP BND       S_T127U27  1
 UP BND       S_T127U28  1
 UP BND       S_T127U29  1
 UP BND       S_T127U30  1
 UP BND       S_T128U1  1
 UP BND       S_T128U2  1
 UP BND       S_T128U3  1
 UP BND       S_T128U4  1
 UP BND       S_T128U5  1
 UP BND       S_T128U6  1
 UP BND       S_T128U7  1
 UP BND       S_T128U8  1
 UP BND       S_T128U9  1
 UP BND       S_T128U10  1
 UP BND       S_T128U11  1
 UP BND       S_T128U12  1
 UP BND       S_T128U13  1
 UP BND       S_T128U14  1
 UP BND       S_T128U15  1
 UP BND       S_T128U16  1
 UP BND       S_T128U17  1
 UP BND       S_T128U18  1
 UP BND       S_T128U19  1
 UP BND       S_T128U20  1
 UP BND       S_T128U21  1
 UP BND       S_T128U22  1
 UP BND       S_T128U23  1
 UP BND       S_T128U24  1
 UP BND       S_T128U25  1
 UP BND       S_T128U26  1
 UP BND       S_T128U27  1
 UP BND       S_T128U28  1
 UP BND       S_T128U29  1
 UP BND       S_T128U30  1
 UP BND       S_T129U1  1
 UP BND       S_T129U2  1
 UP BND       S_T129U3  1
 UP BND       S_T129U4  1
 UP BND       S_T129U5  1
 UP BND       S_T129U6  1
 UP BND       S_T129U7  1
 UP BND       S_T129U8  1
 UP BND       S_T129U9  1
 UP BND       S_T129U10  1
 UP BND       S_T129U11  1
 UP BND       S_T129U12  1
 UP BND       S_T129U13  1
 UP BND       S_T129U14  1
 UP BND       S_T129U15  1
 UP BND       S_T129U16  1
 UP BND       S_T129U17  1
 UP BND       S_T129U18  1
 UP BND       S_T129U19  1
 UP BND       S_T129U20  1
 UP BND       S_T129U21  1
 UP BND       S_T129U22  1
 UP BND       S_T129U23  1
 UP BND       S_T129U24  1
 UP BND       S_T129U25  1
 UP BND       S_T129U26  1
 UP BND       S_T129U27  1
 UP BND       S_T129U28  1
 UP BND       S_T129U29  1
 UP BND       S_T129U30  1
 UP BND       S_T130U1  1
 UP BND       S_T130U2  1
 UP BND       S_T130U3  1
 UP BND       S_T130U4  1
 UP BND       S_T130U5  1
 UP BND       S_T130U6  1
 UP BND       S_T130U7  1
 UP BND       S_T130U8  1
 UP BND       S_T130U9  1
 UP BND       S_T130U10  1
 UP BND       S_T130U11  1
 UP BND       S_T130U12  1
 UP BND       S_T130U13  1
 UP BND       S_T130U14  1
 UP BND       S_T130U15  1
 UP BND       S_T130U16  1
 UP BND       S_T130U17  1
 UP BND       S_T130U18  1
 UP BND       S_T130U19  1
 UP BND       S_T130U20  1
 UP BND       S_T130U21  1
 UP BND       S_T130U22  1
 UP BND       S_T130U23  1
 UP BND       S_T130U24  1
 UP BND       S_T130U25  1
 UP BND       S_T130U26  1
 UP BND       S_T130U27  1
 UP BND       S_T130U28  1
 UP BND       S_T130U29  1
 UP BND       S_T130U30  1
 UP BND       S_T131U1  1
 UP BND       S_T131U2  1
 UP BND       S_T131U3  1
 UP BND       S_T131U4  1
 UP BND       S_T131U5  1
 UP BND       S_T131U6  1
 UP BND       S_T131U7  1
 UP BND       S_T131U8  1
 UP BND       S_T131U9  1
 UP BND       S_T131U10  1
 UP BND       S_T131U11  1
 UP BND       S_T131U12  1
 UP BND       S_T131U13  1
 UP BND       S_T131U14  1
 UP BND       S_T131U15  1
 UP BND       S_T131U16  1
 UP BND       S_T131U17  1
 UP BND       S_T131U18  1
 UP BND       S_T131U19  1
 UP BND       S_T131U20  1
 UP BND       S_T131U21  1
 UP BND       S_T131U22  1
 UP BND       S_T131U23  1
 UP BND       S_T131U24  1
 UP BND       S_T131U25  1
 UP BND       S_T131U26  1
 UP BND       S_T131U27  1
 UP BND       S_T131U28  1
 UP BND       S_T131U29  1
 UP BND       S_T131U30  1
 UP BND       S_T132U1  1
 UP BND       S_T132U2  1
 UP BND       S_T132U3  1
 UP BND       S_T132U4  1
 UP BND       S_T132U5  1
 UP BND       S_T132U6  1
 UP BND       S_T132U7  1
 UP BND       S_T132U8  1
 UP BND       S_T132U9  1
 UP BND       S_T132U10  1
 UP BND       S_T132U11  1
 UP BND       S_T132U12  1
 UP BND       S_T132U13  1
 UP BND       S_T132U14  1
 UP BND       S_T132U15  1
 UP BND       S_T132U16  1
 UP BND       S_T132U17  1
 UP BND       S_T132U18  1
 UP BND       S_T132U19  1
 UP BND       S_T132U20  1
 UP BND       S_T132U21  1
 UP BND       S_T132U22  1
 UP BND       S_T132U23  1
 UP BND       S_T132U24  1
 UP BND       S_T132U25  1
 UP BND       S_T132U26  1
 UP BND       S_T132U27  1
 UP BND       S_T132U28  1
 UP BND       S_T132U29  1
 UP BND       S_T132U30  1
 UP BND       S_T133U1  1
 UP BND       S_T133U2  1
 UP BND       S_T133U3  1
 UP BND       S_T133U4  1
 UP BND       S_T133U5  1
 UP BND       S_T133U6  1
 UP BND       S_T133U7  1
 UP BND       S_T133U8  1
 UP BND       S_T133U9  1
 UP BND       S_T133U10  1
 UP BND       S_T133U11  1
 UP BND       S_T133U12  1
 UP BND       S_T133U13  1
 UP BND       S_T133U14  1
 UP BND       S_T133U15  1
 UP BND       S_T133U16  1
 UP BND       S_T133U17  1
 UP BND       S_T133U18  1
 UP BND       S_T133U19  1
 UP BND       S_T133U20  1
 UP BND       S_T133U21  1
 UP BND       S_T133U22  1
 UP BND       S_T133U23  1
 UP BND       S_T133U24  1
 UP BND       S_T133U25  1
 UP BND       S_T133U26  1
 UP BND       S_T133U27  1
 UP BND       S_T133U28  1
 UP BND       S_T133U29  1
 UP BND       S_T133U30  1
 UP BND       S_T134U1  1
 UP BND       S_T134U2  1
 UP BND       S_T134U3  1
 UP BND       S_T134U4  1
 UP BND       S_T134U5  1
 UP BND       S_T134U6  1
 UP BND       S_T134U7  1
 UP BND       S_T134U8  1
 UP BND       S_T134U9  1
 UP BND       S_T134U10  1
 UP BND       S_T134U11  1
 UP BND       S_T134U12  1
 UP BND       S_T134U13  1
 UP BND       S_T134U14  1
 UP BND       S_T134U15  1
 UP BND       S_T134U16  1
 UP BND       S_T134U17  1
 UP BND       S_T134U18  1
 UP BND       S_T134U19  1
 UP BND       S_T134U20  1
 UP BND       S_T134U21  1
 UP BND       S_T134U22  1
 UP BND       S_T134U23  1
 UP BND       S_T134U24  1
 UP BND       S_T134U25  1
 UP BND       S_T134U26  1
 UP BND       S_T134U27  1
 UP BND       S_T134U28  1
 UP BND       S_T134U29  1
 UP BND       S_T134U30  1
 UP BND       S_T135U1  1
 UP BND       S_T135U2  1
 UP BND       S_T135U3  1
 UP BND       S_T135U4  1
 UP BND       S_T135U5  1
 UP BND       S_T135U6  1
 UP BND       S_T135U7  1
 UP BND       S_T135U8  1
 UP BND       S_T135U9  1
 UP BND       S_T135U10  1
 UP BND       S_T135U11  1
 UP BND       S_T135U12  1
 UP BND       S_T135U13  1
 UP BND       S_T135U14  1
 UP BND       S_T135U15  1
 UP BND       S_T135U16  1
 UP BND       S_T135U17  1
 UP BND       S_T135U18  1
 UP BND       S_T135U19  1
 UP BND       S_T135U20  1
 UP BND       S_T135U21  1
 UP BND       S_T135U22  1
 UP BND       S_T135U23  1
 UP BND       S_T135U24  1
 UP BND       S_T135U25  1
 UP BND       S_T135U26  1
 UP BND       S_T135U27  1
 UP BND       S_T135U28  1
 UP BND       S_T135U29  1
 UP BND       S_T135U30  1
 UP BND       S_T136U1  1
 UP BND       S_T136U2  1
 UP BND       S_T136U3  1
 UP BND       S_T136U4  1
 UP BND       S_T136U5  1
 UP BND       S_T136U6  1
 UP BND       S_T136U7  1
 UP BND       S_T136U8  1
 UP BND       S_T136U9  1
 UP BND       S_T136U10  1
 UP BND       S_T136U11  1
 UP BND       S_T136U12  1
 UP BND       S_T136U13  1
 UP BND       S_T136U14  1
 UP BND       S_T136U15  1
 UP BND       S_T136U16  1
 UP BND       S_T136U17  1
 UP BND       S_T136U18  1
 UP BND       S_T136U19  1
 UP BND       S_T136U20  1
 UP BND       S_T136U21  1
 UP BND       S_T136U22  1
 UP BND       S_T136U23  1
 UP BND       S_T136U24  1
 UP BND       S_T136U25  1
 UP BND       S_T136U26  1
 UP BND       S_T136U27  1
 UP BND       S_T136U28  1
 UP BND       S_T136U29  1
 UP BND       S_T136U30  1
 UP BND       S_T137U1  1
 UP BND       S_T137U2  1
 UP BND       S_T137U3  1
 UP BND       S_T137U4  1
 UP BND       S_T137U5  1
 UP BND       S_T137U6  1
 UP BND       S_T137U7  1
 UP BND       S_T137U8  1
 UP BND       S_T137U9  1
 UP BND       S_T137U10  1
 UP BND       S_T137U11  1
 UP BND       S_T137U12  1
 UP BND       S_T137U13  1
 UP BND       S_T137U14  1
 UP BND       S_T137U15  1
 UP BND       S_T137U16  1
 UP BND       S_T137U17  1
 UP BND       S_T137U18  1
 UP BND       S_T137U19  1
 UP BND       S_T137U20  1
 UP BND       S_T137U21  1
 UP BND       S_T137U22  1
 UP BND       S_T137U23  1
 UP BND       S_T137U24  1
 UP BND       S_T137U25  1
 UP BND       S_T137U26  1
 UP BND       S_T137U27  1
 UP BND       S_T137U28  1
 UP BND       S_T137U29  1
 UP BND       S_T137U30  1
 UP BND       S_T138U1  1
 UP BND       S_T138U2  1
 UP BND       S_T138U3  1
 UP BND       S_T138U4  1
 UP BND       S_T138U5  1
 UP BND       S_T138U6  1
 UP BND       S_T138U7  1
 UP BND       S_T138U8  1
 UP BND       S_T138U9  1
 UP BND       S_T138U10  1
 UP BND       S_T138U11  1
 UP BND       S_T138U12  1
 UP BND       S_T138U13  1
 UP BND       S_T138U14  1
 UP BND       S_T138U15  1
 UP BND       S_T138U16  1
 UP BND       S_T138U17  1
 UP BND       S_T138U18  1
 UP BND       S_T138U19  1
 UP BND       S_T138U20  1
 UP BND       S_T138U21  1
 UP BND       S_T138U22  1
 UP BND       S_T138U23  1
 UP BND       S_T138U24  1
 UP BND       S_T138U25  1
 UP BND       S_T138U26  1
 UP BND       S_T138U27  1
 UP BND       S_T138U28  1
 UP BND       S_T138U29  1
 UP BND       S_T138U30  1
 UP BND       S_T139U1  1
 UP BND       S_T139U2  1
 UP BND       S_T139U3  1
 UP BND       S_T139U4  1
 UP BND       S_T139U5  1
 UP BND       S_T139U6  1
 UP BND       S_T139U7  1
 UP BND       S_T139U8  1
 UP BND       S_T139U9  1
 UP BND       S_T139U10  1
 UP BND       S_T139U11  1
 UP BND       S_T139U12  1
 UP BND       S_T139U13  1
 UP BND       S_T139U14  1
 UP BND       S_T139U15  1
 UP BND       S_T139U16  1
 UP BND       S_T139U17  1
 UP BND       S_T139U18  1
 UP BND       S_T139U19  1
 UP BND       S_T139U20  1
 UP BND       S_T139U21  1
 UP BND       S_T139U22  1
 UP BND       S_T139U23  1
 UP BND       S_T139U24  1
 UP BND       S_T139U25  1
 UP BND       S_T139U26  1
 UP BND       S_T139U27  1
 UP BND       S_T139U28  1
 UP BND       S_T139U29  1
 UP BND       S_T139U30  1
 UP BND       S_T140U1  1
 UP BND       S_T140U2  1
 UP BND       S_T140U3  1
 UP BND       S_T140U4  1
 UP BND       S_T140U5  1
 UP BND       S_T140U6  1
 UP BND       S_T140U7  1
 UP BND       S_T140U8  1
 UP BND       S_T140U9  1
 UP BND       S_T140U10  1
 UP BND       S_T140U11  1
 UP BND       S_T140U12  1
 UP BND       S_T140U13  1
 UP BND       S_T140U14  1
 UP BND       S_T140U15  1
 UP BND       S_T140U16  1
 UP BND       S_T140U17  1
 UP BND       S_T140U18  1
 UP BND       S_T140U19  1
 UP BND       S_T140U20  1
 UP BND       S_T140U21  1
 UP BND       S_T140U22  1
 UP BND       S_T140U23  1
 UP BND       S_T140U24  1
 UP BND       S_T140U25  1
 UP BND       S_T140U26  1
 UP BND       S_T140U27  1
 UP BND       S_T140U28  1
 UP BND       S_T140U29  1
 UP BND       S_T140U30  1
 UP BND       S_T141U1  1
 UP BND       S_T141U2  1
 UP BND       S_T141U3  1
 UP BND       S_T141U4  1
 UP BND       S_T141U5  1
 UP BND       S_T141U6  1
 UP BND       S_T141U7  1
 UP BND       S_T141U8  1
 UP BND       S_T141U9  1
 UP BND       S_T141U10  1
 UP BND       S_T141U11  1
 UP BND       S_T141U12  1
 UP BND       S_T141U13  1
 UP BND       S_T141U14  1
 UP BND       S_T141U15  1
 UP BND       S_T141U16  1
 UP BND       S_T141U17  1
 UP BND       S_T141U18  1
 UP BND       S_T141U19  1
 UP BND       S_T141U20  1
 UP BND       S_T141U21  1
 UP BND       S_T141U22  1
 UP BND       S_T141U23  1
 UP BND       S_T141U24  1
 UP BND       S_T141U25  1
 UP BND       S_T141U26  1
 UP BND       S_T141U27  1
 UP BND       S_T141U28  1
 UP BND       S_T141U29  1
 UP BND       S_T141U30  1
 UP BND       S_T142U1  1
 UP BND       S_T142U2  1
 UP BND       S_T142U3  1
 UP BND       S_T142U4  1
 UP BND       S_T142U5  1
 UP BND       S_T142U6  1
 UP BND       S_T142U7  1
 UP BND       S_T142U8  1
 UP BND       S_T142U9  1
 UP BND       S_T142U10  1
 UP BND       S_T142U11  1
 UP BND       S_T142U12  1
 UP BND       S_T142U13  1
 UP BND       S_T142U14  1
 UP BND       S_T142U15  1
 UP BND       S_T142U16  1
 UP BND       S_T142U17  1
 UP BND       S_T142U18  1
 UP BND       S_T142U19  1
 UP BND       S_T142U20  1
 UP BND       S_T142U21  1
 UP BND       S_T142U22  1
 UP BND       S_T142U23  1
 UP BND       S_T142U24  1
 UP BND       S_T142U25  1
 UP BND       S_T142U26  1
 UP BND       S_T142U27  1
 UP BND       S_T142U28  1
 UP BND       S_T142U29  1
 UP BND       S_T142U30  1
 UP BND       S_T143U1  1
 UP BND       S_T143U2  1
 UP BND       S_T143U3  1
 UP BND       S_T143U4  1
 UP BND       S_T143U5  1
 UP BND       S_T143U6  1
 UP BND       S_T143U7  1
 UP BND       S_T143U8  1
 UP BND       S_T143U9  1
 UP BND       S_T143U10  1
 UP BND       S_T143U11  1
 UP BND       S_T143U12  1
 UP BND       S_T143U13  1
 UP BND       S_T143U14  1
 UP BND       S_T143U15  1
 UP BND       S_T143U16  1
 UP BND       S_T143U17  1
 UP BND       S_T143U18  1
 UP BND       S_T143U19  1
 UP BND       S_T143U20  1
 UP BND       S_T143U21  1
 UP BND       S_T143U22  1
 UP BND       S_T143U23  1
 UP BND       S_T143U24  1
 UP BND       S_T143U25  1
 UP BND       S_T143U26  1
 UP BND       S_T143U27  1
 UP BND       S_T143U28  1
 UP BND       S_T143U29  1
 UP BND       S_T143U30  1
 UP BND       S_T144U1  1
 UP BND       S_T144U2  1
 UP BND       S_T144U3  1
 UP BND       S_T144U4  1
 UP BND       S_T144U5  1
 UP BND       S_T144U6  1
 UP BND       S_T144U7  1
 UP BND       S_T144U8  1
 UP BND       S_T144U9  1
 UP BND       S_T144U10  1
 UP BND       S_T144U11  1
 UP BND       S_T144U12  1
 UP BND       S_T144U13  1
 UP BND       S_T144U14  1
 UP BND       S_T144U15  1
 UP BND       S_T144U16  1
 UP BND       S_T144U17  1
 UP BND       S_T144U18  1
 UP BND       S_T144U19  1
 UP BND       S_T144U20  1
 UP BND       S_T144U21  1
 UP BND       S_T144U22  1
 UP BND       S_T144U23  1
 UP BND       S_T144U24  1
 UP BND       S_T144U25  1
 UP BND       S_T144U26  1
 UP BND       S_T144U27  1
 UP BND       S_T144U28  1
 UP BND       S_T144U29  1
 UP BND       S_T144U30  1
 UP BND       S_T145U1  1
 UP BND       S_T145U2  1
 UP BND       S_T145U3  1
 UP BND       S_T145U4  1
 UP BND       S_T145U5  1
 UP BND       S_T145U6  1
 UP BND       S_T145U7  1
 UP BND       S_T145U8  1
 UP BND       S_T145U9  1
 UP BND       S_T145U10  1
 UP BND       S_T145U11  1
 UP BND       S_T145U12  1
 UP BND       S_T145U13  1
 UP BND       S_T145U14  1
 UP BND       S_T145U15  1
 UP BND       S_T145U16  1
 UP BND       S_T145U17  1
 UP BND       S_T145U18  1
 UP BND       S_T145U19  1
 UP BND       S_T145U20  1
 UP BND       S_T145U21  1
 UP BND       S_T145U22  1
 UP BND       S_T145U23  1
 UP BND       S_T145U24  1
 UP BND       S_T145U25  1
 UP BND       S_T145U26  1
 UP BND       S_T145U27  1
 UP BND       S_T145U28  1
 UP BND       S_T145U29  1
 UP BND       S_T145U30  1
 UP BND       S_T146U1  1
 UP BND       S_T146U2  1
 UP BND       S_T146U3  1
 UP BND       S_T146U4  1
 UP BND       S_T146U5  1
 UP BND       S_T146U6  1
 UP BND       S_T146U7  1
 UP BND       S_T146U8  1
 UP BND       S_T146U9  1
 UP BND       S_T146U10  1
 UP BND       S_T146U11  1
 UP BND       S_T146U12  1
 UP BND       S_T146U13  1
 UP BND       S_T146U14  1
 UP BND       S_T146U15  1
 UP BND       S_T146U16  1
 UP BND       S_T146U17  1
 UP BND       S_T146U18  1
 UP BND       S_T146U19  1
 UP BND       S_T146U20  1
 UP BND       S_T146U21  1
 UP BND       S_T146U22  1
 UP BND       S_T146U23  1
 UP BND       S_T146U24  1
 UP BND       S_T146U25  1
 UP BND       S_T146U26  1
 UP BND       S_T146U27  1
 UP BND       S_T146U28  1
 UP BND       S_T146U29  1
 UP BND       S_T146U30  1
 UP BND       S_T147U1  1
 UP BND       S_T147U2  1
 UP BND       S_T147U3  1
 UP BND       S_T147U4  1
 UP BND       S_T147U5  1
 UP BND       S_T147U6  1
 UP BND       S_T147U7  1
 UP BND       S_T147U8  1
 UP BND       S_T147U9  1
 UP BND       S_T147U10  1
 UP BND       S_T147U11  1
 UP BND       S_T147U12  1
 UP BND       S_T147U13  1
 UP BND       S_T147U14  1
 UP BND       S_T147U15  1
 UP BND       S_T147U16  1
 UP BND       S_T147U17  1
 UP BND       S_T147U18  1
 UP BND       S_T147U19  1
 UP BND       S_T147U20  1
 UP BND       S_T147U21  1
 UP BND       S_T147U22  1
 UP BND       S_T147U23  1
 UP BND       S_T147U24  1
 UP BND       S_T147U25  1
 UP BND       S_T147U26  1
 UP BND       S_T147U27  1
 UP BND       S_T147U28  1
 UP BND       S_T147U29  1
 UP BND       S_T147U30  1
 UP BND       S_T148U1  1
 UP BND       S_T148U2  1
 UP BND       S_T148U3  1
 UP BND       S_T148U4  1
 UP BND       S_T148U5  1
 UP BND       S_T148U6  1
 UP BND       S_T148U7  1
 UP BND       S_T148U8  1
 UP BND       S_T148U9  1
 UP BND       S_T148U10  1
 UP BND       S_T148U11  1
 UP BND       S_T148U12  1
 UP BND       S_T148U13  1
 UP BND       S_T148U14  1
 UP BND       S_T148U15  1
 UP BND       S_T148U16  1
 UP BND       S_T148U17  1
 UP BND       S_T148U18  1
 UP BND       S_T148U19  1
 UP BND       S_T148U20  1
 UP BND       S_T148U21  1
 UP BND       S_T148U22  1
 UP BND       S_T148U23  1
 UP BND       S_T148U24  1
 UP BND       S_T148U25  1
 UP BND       S_T148U26  1
 UP BND       S_T148U27  1
 UP BND       S_T148U28  1
 UP BND       S_T148U29  1
 UP BND       S_T148U30  1
 UP BND       S_T149U1  1
 UP BND       S_T149U2  1
 UP BND       S_T149U3  1
 UP BND       S_T149U4  1
 UP BND       S_T149U5  1
 UP BND       S_T149U6  1
 UP BND       S_T149U7  1
 UP BND       S_T149U8  1
 UP BND       S_T149U9  1
 UP BND       S_T149U10  1
 UP BND       S_T149U11  1
 UP BND       S_T149U12  1
 UP BND       S_T149U13  1
 UP BND       S_T149U14  1
 UP BND       S_T149U15  1
 UP BND       S_T149U16  1
 UP BND       S_T149U17  1
 UP BND       S_T149U18  1
 UP BND       S_T149U19  1
 UP BND       S_T149U20  1
 UP BND       S_T149U21  1
 UP BND       S_T149U22  1
 UP BND       S_T149U23  1
 UP BND       S_T149U24  1
 UP BND       S_T149U25  1
 UP BND       S_T149U26  1
 UP BND       S_T149U27  1
 UP BND       S_T149U28  1
 UP BND       S_T149U29  1
 UP BND       S_T149U30  1
 UP BND       S_T150U1  1
 UP BND       S_T150U2  1
 UP BND       S_T150U3  1
 UP BND       S_T150U4  1
 UP BND       S_T150U5  1
 UP BND       S_T150U6  1
 UP BND       S_T150U7  1
 UP BND       S_T150U8  1
 UP BND       S_T150U9  1
 UP BND       S_T150U10  1
 UP BND       S_T150U11  1
 UP BND       S_T150U12  1
 UP BND       S_T150U13  1
 UP BND       S_T150U14  1
 UP BND       S_T150U15  1
 UP BND       S_T150U16  1
 UP BND       S_T150U17  1
 UP BND       S_T150U18  1
 UP BND       S_T150U19  1
 UP BND       S_T150U20  1
 UP BND       S_T150U21  1
 UP BND       S_T150U22  1
 UP BND       S_T150U23  1
 UP BND       S_T150U24  1
 UP BND       S_T150U25  1
 UP BND       S_T150U26  1
 UP BND       S_T150U27  1
 UP BND       S_T150U28  1
 UP BND       S_T150U29  1
 UP BND       S_T150U30  1
 UP BND       S_T151U1  1
 UP BND       S_T151U2  1
 UP BND       S_T151U3  1
 UP BND       S_T151U4  1
 UP BND       S_T151U5  1
 UP BND       S_T151U6  1
 UP BND       S_T151U7  1
 UP BND       S_T151U8  1
 UP BND       S_T151U9  1
 UP BND       S_T151U10  1
 UP BND       S_T151U11  1
 UP BND       S_T151U12  1
 UP BND       S_T151U13  1
 UP BND       S_T151U14  1
 UP BND       S_T151U15  1
 UP BND       S_T151U16  1
 UP BND       S_T151U17  1
 UP BND       S_T151U18  1
 UP BND       S_T151U19  1
 UP BND       S_T151U20  1
 UP BND       S_T151U21  1
 UP BND       S_T151U22  1
 UP BND       S_T151U23  1
 UP BND       S_T151U24  1
 UP BND       S_T151U25  1
 UP BND       S_T151U26  1
 UP BND       S_T151U27  1
 UP BND       S_T151U28  1
 UP BND       S_T151U29  1
 UP BND       S_T151U30  1
 UP BND       S_T152U1  1
 UP BND       S_T152U2  1
 UP BND       S_T152U3  1
 UP BND       S_T152U4  1
 UP BND       S_T152U5  1
 UP BND       S_T152U6  1
 UP BND       S_T152U7  1
 UP BND       S_T152U8  1
 UP BND       S_T152U9  1
 UP BND       S_T152U10  1
 UP BND       S_T152U11  1
 UP BND       S_T152U12  1
 UP BND       S_T152U13  1
 UP BND       S_T152U14  1
 UP BND       S_T152U15  1
 UP BND       S_T152U16  1
 UP BND       S_T152U17  1
 UP BND       S_T152U18  1
 UP BND       S_T152U19  1
 UP BND       S_T152U20  1
 UP BND       S_T152U21  1
 UP BND       S_T152U22  1
 UP BND       S_T152U23  1
 UP BND       S_T152U24  1
 UP BND       S_T152U25  1
 UP BND       S_T152U26  1
 UP BND       S_T152U27  1
 UP BND       S_T152U28  1
 UP BND       S_T152U29  1
 UP BND       S_T152U30  1
 UP BND       S_T153U1  1
 UP BND       S_T153U2  1
 UP BND       S_T153U3  1
 UP BND       S_T153U4  1
 UP BND       S_T153U5  1
 UP BND       S_T153U6  1
 UP BND       S_T153U7  1
 UP BND       S_T153U8  1
 UP BND       S_T153U9  1
 UP BND       S_T153U10  1
 UP BND       S_T153U11  1
 UP BND       S_T153U12  1
 UP BND       S_T153U13  1
 UP BND       S_T153U14  1
 UP BND       S_T153U15  1
 UP BND       S_T153U16  1
 UP BND       S_T153U17  1
 UP BND       S_T153U18  1
 UP BND       S_T153U19  1
 UP BND       S_T153U20  1
 UP BND       S_T153U21  1
 UP BND       S_T153U22  1
 UP BND       S_T153U23  1
 UP BND       S_T153U24  1
 UP BND       S_T153U25  1
 UP BND       S_T153U26  1
 UP BND       S_T153U27  1
 UP BND       S_T153U28  1
 UP BND       S_T153U29  1
 UP BND       S_T153U30  1
 UP BND       S_T154U1  1
 UP BND       S_T154U2  1
 UP BND       S_T154U3  1
 UP BND       S_T154U4  1
 UP BND       S_T154U5  1
 UP BND       S_T154U6  1
 UP BND       S_T154U7  1
 UP BND       S_T154U8  1
 UP BND       S_T154U9  1
 UP BND       S_T154U10  1
 UP BND       S_T154U11  1
 UP BND       S_T154U12  1
 UP BND       S_T154U13  1
 UP BND       S_T154U14  1
 UP BND       S_T154U15  1
 UP BND       S_T154U16  1
 UP BND       S_T154U17  1
 UP BND       S_T154U18  1
 UP BND       S_T154U19  1
 UP BND       S_T154U20  1
 UP BND       S_T154U21  1
 UP BND       S_T154U22  1
 UP BND       S_T154U23  1
 UP BND       S_T154U24  1
 UP BND       S_T154U25  1
 UP BND       S_T154U26  1
 UP BND       S_T154U27  1
 UP BND       S_T154U28  1
 UP BND       S_T154U29  1
 UP BND       S_T154U30  1
 UP BND       S_T155U1  1
 UP BND       S_T155U2  1
 UP BND       S_T155U3  1
 UP BND       S_T155U4  1
 UP BND       S_T155U5  1
 UP BND       S_T155U6  1
 UP BND       S_T155U7  1
 UP BND       S_T155U8  1
 UP BND       S_T155U9  1
 UP BND       S_T155U10  1
 UP BND       S_T155U11  1
 UP BND       S_T155U12  1
 UP BND       S_T155U13  1
 UP BND       S_T155U14  1
 UP BND       S_T155U15  1
 UP BND       S_T155U16  1
 UP BND       S_T155U17  1
 UP BND       S_T155U18  1
 UP BND       S_T155U19  1
 UP BND       S_T155U20  1
 UP BND       S_T155U21  1
 UP BND       S_T155U22  1
 UP BND       S_T155U23  1
 UP BND       S_T155U24  1
 UP BND       S_T155U25  1
 UP BND       S_T155U26  1
 UP BND       S_T155U27  1
 UP BND       S_T155U28  1
 UP BND       S_T155U29  1
 UP BND       S_T155U30  1
 UP BND       S_T156U1  1
 UP BND       S_T156U2  1
 UP BND       S_T156U3  1
 UP BND       S_T156U4  1
 UP BND       S_T156U5  1
 UP BND       S_T156U6  1
 UP BND       S_T156U7  1
 UP BND       S_T156U8  1
 UP BND       S_T156U9  1
 UP BND       S_T156U10  1
 UP BND       S_T156U11  1
 UP BND       S_T156U12  1
 UP BND       S_T156U13  1
 UP BND       S_T156U14  1
 UP BND       S_T156U15  1
 UP BND       S_T156U16  1
 UP BND       S_T156U17  1
 UP BND       S_T156U18  1
 UP BND       S_T156U19  1
 UP BND       S_T156U20  1
 UP BND       S_T156U21  1
 UP BND       S_T156U22  1
 UP BND       S_T156U23  1
 UP BND       S_T156U24  1
 UP BND       S_T156U25  1
 UP BND       S_T156U26  1
 UP BND       S_T156U27  1
 UP BND       S_T156U28  1
 UP BND       S_T156U29  1
 UP BND       S_T156U30  1
 UP BND       S_T157U1  1
 UP BND       S_T157U2  1
 UP BND       S_T157U3  1
 UP BND       S_T157U4  1
 UP BND       S_T157U5  1
 UP BND       S_T157U6  1
 UP BND       S_T157U7  1
 UP BND       S_T157U8  1
 UP BND       S_T157U9  1
 UP BND       S_T157U10  1
 UP BND       S_T157U11  1
 UP BND       S_T157U12  1
 UP BND       S_T157U13  1
 UP BND       S_T157U14  1
 UP BND       S_T157U15  1
 UP BND       S_T157U16  1
 UP BND       S_T157U17  1
 UP BND       S_T157U18  1
 UP BND       S_T157U19  1
 UP BND       S_T157U20  1
 UP BND       S_T157U21  1
 UP BND       S_T157U22  1
 UP BND       S_T157U23  1
 UP BND       S_T157U24  1
 UP BND       S_T157U25  1
 UP BND       S_T157U26  1
 UP BND       S_T157U27  1
 UP BND       S_T157U28  1
 UP BND       S_T157U29  1
 UP BND       S_T157U30  1
 UP BND       S_T158U1  1
 UP BND       S_T158U2  1
 UP BND       S_T158U3  1
 UP BND       S_T158U4  1
 UP BND       S_T158U5  1
 UP BND       S_T158U6  1
 UP BND       S_T158U7  1
 UP BND       S_T158U8  1
 UP BND       S_T158U9  1
 UP BND       S_T158U10  1
 UP BND       S_T158U11  1
 UP BND       S_T158U12  1
 UP BND       S_T158U13  1
 UP BND       S_T158U14  1
 UP BND       S_T158U15  1
 UP BND       S_T158U16  1
 UP BND       S_T158U17  1
 UP BND       S_T158U18  1
 UP BND       S_T158U19  1
 UP BND       S_T158U20  1
 UP BND       S_T158U21  1
 UP BND       S_T158U22  1
 UP BND       S_T158U23  1
 UP BND       S_T158U24  1
 UP BND       S_T158U25  1
 UP BND       S_T158U26  1
 UP BND       S_T158U27  1
 UP BND       S_T158U28  1
 UP BND       S_T158U29  1
 UP BND       S_T158U30  1
 UP BND       S_T159U1  1
 UP BND       S_T159U2  1
 UP BND       S_T159U3  1
 UP BND       S_T159U4  1
 UP BND       S_T159U5  1
 UP BND       S_T159U6  1
 UP BND       S_T159U7  1
 UP BND       S_T159U8  1
 UP BND       S_T159U9  1
 UP BND       S_T159U10  1
 UP BND       S_T159U11  1
 UP BND       S_T159U12  1
 UP BND       S_T159U13  1
 UP BND       S_T159U14  1
 UP BND       S_T159U15  1
 UP BND       S_T159U16  1
 UP BND       S_T159U17  1
 UP BND       S_T159U18  1
 UP BND       S_T159U19  1
 UP BND       S_T159U20  1
 UP BND       S_T159U21  1
 UP BND       S_T159U22  1
 UP BND       S_T159U23  1
 UP BND       S_T159U24  1
 UP BND       S_T159U25  1
 UP BND       S_T159U26  1
 UP BND       S_T159U27  1
 UP BND       S_T159U28  1
 UP BND       S_T159U29  1
 UP BND       S_T159U30  1
 UP BND       S_T160U1  1
 UP BND       S_T160U2  1
 UP BND       S_T160U3  1
 UP BND       S_T160U4  1
 UP BND       S_T160U5  1
 UP BND       S_T160U6  1
 UP BND       S_T160U7  1
 UP BND       S_T160U8  1
 UP BND       S_T160U9  1
 UP BND       S_T160U10  1
 UP BND       S_T160U11  1
 UP BND       S_T160U12  1
 UP BND       S_T160U13  1
 UP BND       S_T160U14  1
 UP BND       S_T160U15  1
 UP BND       S_T160U16  1
 UP BND       S_T160U17  1
 UP BND       S_T160U18  1
 UP BND       S_T160U19  1
 UP BND       S_T160U20  1
 UP BND       S_T160U21  1
 UP BND       S_T160U22  1
 UP BND       S_T160U23  1
 UP BND       S_T160U24  1
 UP BND       S_T160U25  1
 UP BND       S_T160U26  1
 UP BND       S_T160U27  1
 UP BND       S_T160U28  1
 UP BND       S_T160U29  1
 UP BND       S_T160U30  1
 UP BND       S_T161U1  1
 UP BND       S_T161U2  1
 UP BND       S_T161U3  1
 UP BND       S_T161U4  1
 UP BND       S_T161U5  1
 UP BND       S_T161U6  1
 UP BND       S_T161U7  1
 UP BND       S_T161U8  1
 UP BND       S_T161U9  1
 UP BND       S_T161U10  1
 UP BND       S_T161U11  1
 UP BND       S_T161U12  1
 UP BND       S_T161U13  1
 UP BND       S_T161U14  1
 UP BND       S_T161U15  1
 UP BND       S_T161U16  1
 UP BND       S_T161U17  1
 UP BND       S_T161U18  1
 UP BND       S_T161U19  1
 UP BND       S_T161U20  1
 UP BND       S_T161U21  1
 UP BND       S_T161U22  1
 UP BND       S_T161U23  1
 UP BND       S_T161U24  1
 UP BND       S_T161U25  1
 UP BND       S_T161U26  1
 UP BND       S_T161U27  1
 UP BND       S_T161U28  1
 UP BND       S_T161U29  1
 UP BND       S_T161U30  1
 UP BND       S_T162U1  1
 UP BND       S_T162U2  1
 UP BND       S_T162U3  1
 UP BND       S_T162U4  1
 UP BND       S_T162U5  1
 UP BND       S_T162U6  1
 UP BND       S_T162U7  1
 UP BND       S_T162U8  1
 UP BND       S_T162U9  1
 UP BND       S_T162U10  1
 UP BND       S_T162U11  1
 UP BND       S_T162U12  1
 UP BND       S_T162U13  1
 UP BND       S_T162U14  1
 UP BND       S_T162U15  1
 UP BND       S_T162U16  1
 UP BND       S_T162U17  1
 UP BND       S_T162U18  1
 UP BND       S_T162U19  1
 UP BND       S_T162U20  1
 UP BND       S_T162U21  1
 UP BND       S_T162U22  1
 UP BND       S_T162U23  1
 UP BND       S_T162U24  1
 UP BND       S_T162U25  1
 UP BND       S_T162U26  1
 UP BND       S_T162U27  1
 UP BND       S_T162U28  1
 UP BND       S_T162U29  1
 UP BND       S_T162U30  1
 UP BND       S_T163U1  1
 UP BND       S_T163U2  1
 UP BND       S_T163U3  1
 UP BND       S_T163U4  1
 UP BND       S_T163U5  1
 UP BND       S_T163U6  1
 UP BND       S_T163U7  1
 UP BND       S_T163U8  1
 UP BND       S_T163U9  1
 UP BND       S_T163U10  1
 UP BND       S_T163U11  1
 UP BND       S_T163U12  1
 UP BND       S_T163U13  1
 UP BND       S_T163U14  1
 UP BND       S_T163U15  1
 UP BND       S_T163U16  1
 UP BND       S_T163U17  1
 UP BND       S_T163U18  1
 UP BND       S_T163U19  1
 UP BND       S_T163U20  1
 UP BND       S_T163U21  1
 UP BND       S_T163U22  1
 UP BND       S_T163U23  1
 UP BND       S_T163U24  1
 UP BND       S_T163U25  1
 UP BND       S_T163U26  1
 UP BND       S_T163U27  1
 UP BND       S_T163U28  1
 UP BND       S_T163U29  1
 UP BND       S_T163U30  1
 UP BND       S_T164U1  1
 UP BND       S_T164U2  1
 UP BND       S_T164U3  1
 UP BND       S_T164U4  1
 UP BND       S_T164U5  1
 UP BND       S_T164U6  1
 UP BND       S_T164U7  1
 UP BND       S_T164U8  1
 UP BND       S_T164U9  1
 UP BND       S_T164U10  1
 UP BND       S_T164U11  1
 UP BND       S_T164U12  1
 UP BND       S_T164U13  1
 UP BND       S_T164U14  1
 UP BND       S_T164U15  1
 UP BND       S_T164U16  1
 UP BND       S_T164U17  1
 UP BND       S_T164U18  1
 UP BND       S_T164U19  1
 UP BND       S_T164U20  1
 UP BND       S_T164U21  1
 UP BND       S_T164U22  1
 UP BND       S_T164U23  1
 UP BND       S_T164U24  1
 UP BND       S_T164U25  1
 UP BND       S_T164U26  1
 UP BND       S_T164U27  1
 UP BND       S_T164U28  1
 UP BND       S_T164U29  1
 UP BND       S_T164U30  1
 UP BND       S_T165U1  1
 UP BND       S_T165U2  1
 UP BND       S_T165U3  1
 UP BND       S_T165U4  1
 UP BND       S_T165U5  1
 UP BND       S_T165U6  1
 UP BND       S_T165U7  1
 UP BND       S_T165U8  1
 UP BND       S_T165U9  1
 UP BND       S_T165U10  1
 UP BND       S_T165U11  1
 UP BND       S_T165U12  1
 UP BND       S_T165U13  1
 UP BND       S_T165U14  1
 UP BND       S_T165U15  1
 UP BND       S_T165U16  1
 UP BND       S_T165U17  1
 UP BND       S_T165U18  1
 UP BND       S_T165U19  1
 UP BND       S_T165U20  1
 UP BND       S_T165U21  1
 UP BND       S_T165U22  1
 UP BND       S_T165U23  1
 UP BND       S_T165U24  1
 UP BND       S_T165U25  1
 UP BND       S_T165U26  1
 UP BND       S_T165U27  1
 UP BND       S_T165U28  1
 UP BND       S_T165U29  1
 UP BND       S_T165U30  1
 UP BND       S_T166U1  1
 UP BND       S_T166U2  1
 UP BND       S_T166U3  1
 UP BND       S_T166U4  1
 UP BND       S_T166U5  1
 UP BND       S_T166U6  1
 UP BND       S_T166U7  1
 UP BND       S_T166U8  1
 UP BND       S_T166U9  1
 UP BND       S_T166U10  1
 UP BND       S_T166U11  1
 UP BND       S_T166U12  1
 UP BND       S_T166U13  1
 UP BND       S_T166U14  1
 UP BND       S_T166U15  1
 UP BND       S_T166U16  1
 UP BND       S_T166U17  1
 UP BND       S_T166U18  1
 UP BND       S_T166U19  1
 UP BND       S_T166U20  1
 UP BND       S_T166U21  1
 UP BND       S_T166U22  1
 UP BND       S_T166U23  1
 UP BND       S_T166U24  1
 UP BND       S_T166U25  1
 UP BND       S_T166U26  1
 UP BND       S_T166U27  1
 UP BND       S_T166U28  1
 UP BND       S_T166U29  1
 UP BND       S_T166U30  1
 UP BND       S_T167U1  1
 UP BND       S_T167U2  1
 UP BND       S_T167U3  1
 UP BND       S_T167U4  1
 UP BND       S_T167U5  1
 UP BND       S_T167U6  1
 UP BND       S_T167U7  1
 UP BND       S_T167U8  1
 UP BND       S_T167U9  1
 UP BND       S_T167U10  1
 UP BND       S_T167U11  1
 UP BND       S_T167U12  1
 UP BND       S_T167U13  1
 UP BND       S_T167U14  1
 UP BND       S_T167U15  1
 UP BND       S_T167U16  1
 UP BND       S_T167U17  1
 UP BND       S_T167U18  1
 UP BND       S_T167U19  1
 UP BND       S_T167U20  1
 UP BND       S_T167U21  1
 UP BND       S_T167U22  1
 UP BND       S_T167U23  1
 UP BND       S_T167U24  1
 UP BND       S_T167U25  1
 UP BND       S_T167U26  1
 UP BND       S_T167U27  1
 UP BND       S_T167U28  1
 UP BND       S_T167U29  1
 UP BND       S_T167U30  1
 UP BND       S_T168U1  1
 UP BND       S_T168U2  1
 UP BND       S_T168U3  1
 UP BND       S_T168U4  1
 UP BND       S_T168U5  1
 UP BND       S_T168U6  1
 UP BND       S_T168U7  1
 UP BND       S_T168U8  1
 UP BND       S_T168U9  1
 UP BND       S_T168U10  1
 UP BND       S_T168U11  1
 UP BND       S_T168U12  1
 UP BND       S_T168U13  1
 UP BND       S_T168U14  1
 UP BND       S_T168U15  1
 UP BND       S_T168U16  1
 UP BND       S_T168U17  1
 UP BND       S_T168U18  1
 UP BND       S_T168U19  1
 UP BND       S_T168U20  1
 UP BND       S_T168U21  1
 UP BND       S_T168U22  1
 UP BND       S_T168U23  1
 UP BND       S_T168U24  1
 UP BND       S_T168U25  1
 UP BND       S_T168U26  1
 UP BND       S_T168U27  1
 UP BND       S_T168U28  1
 UP BND       S_T168U29  1
 UP BND       S_T168U30  1
ENDATA
