NAME          SCHED_S42
ROWS
 N  COST
 G  DEM_T1
 G  DEM_T2
 G  DEM_T3
 G  DEM_T4
 G  DEM_T5
 G  DEM_T6
 G  DEM_T7
 G  DEM_T8
 G  DEM_T9
 G  DEM_T10
 G  DEM_T11
 G  DEM_T12
 G  DEM_T13
 G  DEM_T14
 G  DEM_T15
 G  DEM_T16
 G  DEM_T17
 G  DEM_T18
 G  DEM_T19
 G  DEM_T20
 G  DEM_T21
 G  DEM_T22
 G  DEM_T23
 G  DEM_T24
 L  SU_T1U1
 L  SU_T1U2
 L  SU_T1U3
 L  SU_T1U4
 L  SU_T1U5
 L  SU_T1U6
 L  SU_T2U1
 L  SU_T2U2
 L  SU_T2U3
 L  SU_T2U4
 L  SU_T2U5
 L  SU_T2U6
 L  SU_T3U1
 L  SU_T3U2
 L  SU_T3U3
 L  SU_T3U4
 L  SU_T3U5
 L  SU_T3U6
 L  SU_T4U1
 L  SU_T4U2
 L  SU_T4U3
 L  SU_T4U4
 L  SU_T4U5
 L  SU_T4U6
 L  SU_T5U1
 L  SU_T5U2
 L  SU_T5U3
 L  SU_T5U4
 L  SU_T5U5
 L  SU_T5U6
 L  SU_T6U1
 L  SU_T6U2
 L  SU_T6U3
 L  SU_T6U4
 L  SU_T6U5
 L  SU_T6U6
 L  SU_T7U1
 L  SU_T7U2
 L  SU_T7U3
 L  SU_T7U4
 L  SU_T7U5
 L  SU_T7U6
 L  SU_T8U1
 L  SU_T8U2
 L  SU_T8U3
 L  SU_T8U4
 L  SU_T8U5
 L  SU_T8U6
 L  SU_T9U1
 L  SU_T9U2
 L  SU_T9U3
 L  SU_T9U4
 L  SU_T9U5
 L  SU_T9U6
 L  SU_T10U1
 L  SU_T10U2
 L  SU_T10U3
 L  SU_T10U4
 L  SU_T10U5
 L  SU_T10U6
 L  SU_T11U1
 L  SU_T11U2
 L  SU_T11U3
 L  SU_T11U4
 L  SU_T11U5
 L  SU_T11U6
 L  SU_T12U1
 L  SU_T12U2
 L  SU_T12U3
 L  SU_T12U4
 L  SU_T12U5
 L  SU_T12U6
 L  SU_T13U1
 L  SU_T13U2
 L  SU_T13U3
 L  SU_T13U4
 L  SU_T13U5
 L  SU_T13U6
 L  SU_T14U1
 L  SU_T14U2
 L  SU_T14U3
 L  SU_T14U4
 L  SU_T14U5
 L  SU_T14U6
 L  SU_T15U1
 L  SU_T15U2
 L  SU_T15U3
 L  SU_T15U4
 L  SU_T15U5
 L  SU_T15U6
 L  SU_T16U1
 L  SU_T16U2
 L  SU_T16U3
 L  SU_T16U4
 L  SU_T16U5
 L  SU_T16U6
 L  SU_T17U1
 L  SU_T17U2
 L  SU_T17U3
 L  SU_T17U4
 L  SU_T17U5
 L  SU_T17U6
 L  SU_T18U1
 L  SU_T18U2
 L  SU_T18U3
 L  SU_T18U4
 L  SU_T18U5
 L  SU_T18U6
 L  SU_T19U1
 L  SU_T19U2
 L  SU_T19U3
 L  SU_T19U4
 L  SU_T19U5
 L  SU_T19U6
 L  SU_T20U1
 L  SU_T20U2
 L  SU_T20U3
 L  SU_T20U4
 L  SU_T20U5
 L  SU_T20U6
 L  SU_T21U1
 L  SU_T21U2
 L  SU_T21U3
 L  SU_T21U4
 L  SU_T21U5
 L  SU_T21U6
 L  SU_T22U1
 L  SU_T22U2
 L  SU_T22U3
 L  SU_T22U4
 L  SU_T22U5
 L  SU_T22U6
 L  SU_T23U1
 L  SU_T23U2
 L  SU_T23U3
 L  SU_T23U4
 L  SU_T23U5
 L  SU_T23U6
 L  SU_T24U1
 L  SU_T24U2
 L  SU_T24U3
 L  SU_T24U4
 L  SU_T24U5
 L  SU_T24U6
COLUMNS
    MARK0000  'MARKER'                 'INTORG'
    X_T1U1  COST  33.8963  DEM_T1  1
    X_T1U1  SU_T1U1  1  SU_T2U1  -1
    X_T1U2  COST  33.3907  DEM_T1  1
    X_T1U2  SU_T1U2  1  SU_T2U2  -1
    X_T1U3  COST  23.375  DEM_T1  1
    X_T1U3  SU_T1U3  1  SU_T2U3  -1
    X_T1U4  COST  23.7775  DEM_T1  1
    X_T1U4  SU_T1U4  1  SU_T2U4  -1
    X_T1U5  COST  14.286  DEM_T1  1
    X_T1U5  SU_T1U5  1  SU_T2U5  -1
    X_T1U6  COST  11.6923  DEM_T1  1
    X_T1U6  SU_T1U6  1  SU_T2U6  -1
    X_T2U1  COST  38.1566  DEM_T2  1
    X_T2U1  SU_T2U1  1  SU_T3U1  -1
    X_T2U2  COST  39.7663  DEM_T2  1
    X_T2U2  SU_T2U2  1  SU_T3U2  -1
    X_T2U3  COST  28.3496  DEM_T2  1
    X_T2U3  SU_T2U3  1  SU_T3U3  -1
    X_T2U4  COST  10.6919  DEM_T2  1
    X_T2U4  SU_T2U4  1  SU_T3U4  -1
    X_T2U5  COST  21.9958  DEM_T2  1
    X_T2U5  SU_T2U5  1  SU_T3U5  -1
    X_T2U6  COST  39.2127  DEM_T2  1
    X_T2U6  SU_T2U6  1  SU_T3U6  -1
    X_T3U1  COST  12.7182  DEM_T3  1
    X_T3U1  SU_T3U1  1  SU_T4U1  -1
    X_T3U2  COST  21.4739  DEM_T3  1
    X_T3U2  SU_T3U2  1  SU_T4U2  -1
    X_T3U3  COST  24.0029  DEM_T3  1
    X_T3U3  SU_T3U3  1  SU_T4U3  -1
    X_T3U4  COST  30.4092  DEM_T3  1
    X_T3U4  SU_T3U4  1  SU_T4U4  -1
    X_T3U5  COST  10.3979  DEM_T3  1
    X_T3U5  SU_T3U5  1  SU_T4U5  -1
    X_T3U6  COST  26.8986  DEM_T3  1
    X_T3U6  SU_T3U6  1  SU_T4U6  -1
    X_T4U1  COST  10.479  DEM_T4  1
    X_T4U1  SU_T4U1  1  SU_T5U1  -1
    X_T4U2  COST  17.2308  DEM_T4  1
    X_T4U2  SU_T4U2  1  SU_T5U2  -1
    X_T4U3  COST  28.2999  DEM_T4  1
    X_T4U3  SU_T4U3  1  SU_T5U3  -1
    X_T4U4  COST  15.2009  DEM_T4  1
    X_T4U4  SU_T4U4  1  SU_T5U4  -1
    X_T4U5  COST  15.4671  DEM_T4  1
    X_T4U5  SU_T4U5  1  SU_T5U5  -1
    X_T4U6  COST  22.7547  DEM_T4  1
    X_T4U6  SU_T4U6  1  SU_T5U6  -1
    X_T5U1  COST  27.031  DEM_T5  1
    X_T5U1  SU_T5U1  1  SU_T6U1  -1
    X_T5U2  COST  35.2685  DEM_T5  1
    X_T5U2  SU_T5U2  1  SU_T6U2  -1
    X_T5U3  COST  21.8545  DEM_T5  1
    X_T5U3  SU_T5U3  1  SU_T6U3  -1
    X_T5U4  COST  31.8182  DEM_T5  1
    X_T5U4  SU_T5U4  1  SU_T6U4  -1
    X_T5U5  COST  27.1133  DEM_T5  1
    X_T5U5  SU_T5U5  1  SU_T6U5  -1
    X_T5U6  COST  38.8352  DEM_T5  1
    X_T5U6  SU_T5U6  1  SU_T6U6  -1
    X_T6U1  COST  32.4196  DEM_T6  1
    X_T6U1  SU_T6U1  1  SU_T7U1  -1
    X_T6U2  COST  27.6025  DEM_T6  1
    X_T6U2  SU_T6U2  1  SU_T7U2  -1
    X_T6U3  COST  28.211  DEM_T6  1
    X_T6U3  SU_T6U3  1  SU_T7U3  -1
    X_T6U4  COST  18.8882  DEM_T6  1
    X_T6U4  SU_T6U4  1  SU_T7U4  -1
    X_T6U5  COST  10.4691  DEM_T6  1
    X_T6U5  SU_T6U5  1  SU_T7U5  -1
    X_T6U6  COST  21.8464  DEM_T6  1
    X_T6U6  SU_T6U6  1  SU_T7U6  -1
    X_T7U1  COST  10.4224  DEM_T7  1
    X_T7U1  SU_T7U1  1  SU_T8U1  -1
    X_T7U2  COST  31.3403  DEM_T7  1
    X_T7U2  SU_T7U2  1  SU_T8U2  -1
    X_T7U3  COST  28.1788  DEM_T7  1
    X_T7U3  SU_T7U3  1  SU_T8U3  -1
    X_T7U4  COST  29.5323  DEM_T7  1
    X_T7U4  SU_T7U4  1  SU_T8U4  -1
    X_T7U5  COST  35.5012  DEM_T7  1
    X_T7U5  SU_T7U5  1  SU_T8U5  -1
    X_T7U6  COST  12.8623  DEM_T7  1
    X_T7U6  SU_T7U6  1  SU_T8U6  -1
    X_T8U1  COST  30.0652  DEM_T8  1
    X_T8U1  SU_T8U1  1  SU_T9U1  -1
    X_T8U2  COST  27.7389  DEM_T8  1
    X_T8U2  SU_T8U2  1  SU_T9U2  -1
    X_T8U3  COST  26.8373  DEM_T8  1
    X_T8U3  SU_T8U3  1  SU_T9U3  -1
    X_T8U4  COST  39.1514  DEM_T8  1
    X_T8U4  SU_T8U4  1  SU_T9U4  -1
    X_T8U5  COST  31.6519  DEM_T8  1
    X_T8U5  SU_T8U5  1  SU_T9U5  -1
    X_T8U6  COST  17.682  DEM_T8  1
    X_T8U6  SU_T8U6  1  SU_T9U6  -1
    X_T9U1  COST  31.3199  DEM_T9  1
    X_T9U1  SU_T9U1  1  SU_T10U1  -1
    X_T9U2  COST  23.1801  DEM_T9  1
    X_T9U2  SU_T9U2  1  SU_T10U2  -1
    X_T9U3  COST  36.8729  DEM_T9  1
    X_T9U3  SU_T9U3  1  SU_T10U3  -1
    X_T9U4  COST  26.8983  DEM_T9  1
    X_T9U4  SU_T9U4  1  SU_T10U4  -1
    X_T9U5  COST  14.1799  DEM_T9  1
    X_T9U5  SU_T9U5  1  SU_T10U5  -1
    X_T9U6  COST  26.1952  DEM_T9  1
    X_T9U6  SU_T9U6  1  SU_T10U6  -1
    X_T10U1  COST  38.2856  DEM_T10  1
    X_T10U1  SU_T10U1  1  SU_T11U1  -1
    X_T10U2  COST  30.8435  DEM_T10  1
    X_T10U2  SU_T10U2  1  SU_T11U2  -1
    X_T10U3  COST  28.7306  DEM_T10  1
    X_T10U3  SU_T10U3  1  SU_T11U3  -1
    X_T10U4  COST  13.1648  DEM_T10  1
    X_T10U4  SU_T10U4  1  SU_T11U4  -1
    X_T10U5  COST  16.5532  DEM_T10  1
    X_T10U5  SU_T10U5  1  SU_T11U5  -1
    X_T10U6  COST  36.4984  DEM_T10  1
    X_T10U6  SU_T10U6  1  SU_T11U6  -1
    X_T11U1  COST  13.6626  DEM_T11  1
    X_T11U1  SU_T11U1  1  SU_T12U1  -1
    X_T11U2  COST  37.2049  DEM_T11  1
    X_T11U2  SU_T11U2  1  SU_T12U2  -1
    X_T11U3  COST  29.4307  DEM_T11  1
    X_T11U3  SU_T11U3  1  SU_T12U3  -1
    X_T11U4  COST  20.5771  DEM_T11  1
    X_T11U4  SU_T11U4  1  SU_T12U4  -1
    X_T11U5  COST  14.9397  DEM_T11  1
    X_T11U5  SU_T11U5  1  SU_T12U5  -1
    X_T11U6  COST  24.5449  DEM_T11  1
    X_T11U6  SU_T11U6  1  SU_T12U6  -1
    X_T12U1  COST  18.0824  DEM_T12  1
    X_T12U1  SU_T12U1  1  SU_T13U1  -1
    X_T12U2  COST  15.0487  DEM_T12  1
    X_T12U2  SU_T12U2  1  SU_T13U2  -1
    X_T12U3  COST  26.7431  DEM_T12  1
    X_T12U3  SU_T12U3  1  SU_T13U3  -1
    X_T12U4  COST  11.9468  DEM_T12  1
    X_T12U4  SU_T12U4  1  SU_T13U4  -1
    X_T12U5  COST  17.4063  DEM_T12  1
    X_T12U5  SU_T12U5  1  SU_T13U5  -1
    X_T12U6  COST  31.3681  DEM_T12  1
    X_T12U6  SU_T12U6  1  SU_T13U6  -1
    X_T13U1  COST  39.9322  DEM_T13  1
    X_T13U1  SU_T13U1  1  SU_T14U1  -1
    X_T13U2  COST  39.2984  DEM_T13  1
    X_T13U2  SU_T13U2  1  SU_T14U2  -1
    X_T13U3  COST  10.9915  DEM_T13  1
    X_T13U3  SU_T13U3  1  SU_T14U3  -1
    X_T13U4  COST  29.0305  DEM_T13  1
    X_T13U4  SU_T13U4  1  SU_T14U4  -1
    X_T13U5  COST  25.928  DEM_T13  1
    X_T13U5  SU_T13U5  1  SU_T14U5  -1
    X_T13U6  COST  26.5868  DEM_T13  1
    X_T13U6  SU_T13U6  1  SU_T14U6  -1
    X_T14U1  COST  12.4256  DEM_T14  1
    X_T14U1  SU_T14U1  1  SU_T15U1  -1
    X_T14U2  COST  17.2648  DEM_T14  1
    X_T14U2  SU_T14U2  1  SU_T15U2  -1
    X_T14U3  COST  24.109  DEM_T14  1
    X_T14U3  SU_T14U3  1  SU_T15U3  -1
    X_T14U4  COST  21.9647  DEM_T14  1
    X_T14U4  SU_T14U4  1  SU_T15U4  -1
    X_T14U5  COST  33.9504  DEM_T14  1
    X_T14U5  SU_T14U5  1  SU_T15U5  -1
    X_T14U6  COST  25.246  DEM_T14  1
    X_T14U6  SU_T14U6  1  SU_T15U6  -1
    X_T15U1  COST  35.7508  DEM_T15  1
    X_T15U1  SU_T15U1  1  SU_T16U1  -1
    X_T15U2  COST  16.6072  DEM_T15  1
    X_T15U2  SU_T15U2  1  SU_T16U2  -1
    X_T15U3  COST  34.285  DEM_T15  1
    X_T15U3  SU_T15U3  1  SU_T16U3  -1
    X_T15U4  COST  12.8853  DEM_T15  1
    X_T15U4  SU_T15U4  1  SU_T16U4  -1
    X_T15U5  COST  21.9272  DEM_T15  1
    X_T15U5  SU_T15U5  1  SU_T16U5  -1
    X_T15U6  COST  35.1313  DEM_T15  1
    X_T15U6  SU_T15U6  1  SU_T16U6  -1
    X_T16U1  COST  32.0565  DEM_T16  1
    X_T16U1  SU_T16U1  1  SU_T17U1  -1
    X_T16U2  COST  26.2434  DEM_T16  1
    X_T16U2  SU_T16U2  1  SU_T17U2  -1
    X_T16U3  COST  16.8565  DEM_T16  1
    X_T16U3  SU_T16U3  1  SU_T17U3  -1
    X_T16U4  COST  39.4651  DEM_T16  1
    X_T16U4  SU_T16U4  1  SU_T17U4  -1
    X_T16U5  COST  17.8249  DEM_T16  1
    X_T16U5  SU_T16U5  1  SU_T17U5  -1
    X_T16U6  COST  38.9626  DEM_T16  1
    X_T16U6  SU_T16U6  1  SU_T17U6  -1
    X_T17U1  COST  36.4791  DEM_T17  1
    X_T17U1  SU_T17U1  1  SU_T18U1  -1
    X_T17U2  COST  18.3661  DEM_T17  1
    X_T17U2  SU_T17U2  1  SU_T18U2  -1
    X_T17U3  COST  35.3998  DEM_T17  1
    X_T17U3  SU_T17U3  1  SU_T18U3  -1
    X_T17U4  COST  22.1352  DEM_T17  1
    X_T17U4  SU_T17U4  1  SU_T18U4  -1
    X_T17U5  COST  35.5279  DEM_T17  1
    X_T17U5  SU_T17U5  1  SU_T18U5  -1
    X_T17U6  COST  33.5602  DEM_T17  1
    X_T17U6  SU_T17U6  1  SU_T18U6  -1
    X_T18U1  COST  27.4206  DEM_T18  1
    X_T18U1  SU_T18U1  1  SU_T19U1  -1
    X_T18U2  COST  38.204  DEM_T18  1
    X_T18U2  SU_T18U2  1  SU_T19U2  -1
    X_T18U3  COST  18.5176  DEM_T18  1
    X_T18U3  SU_T18U3  1  SU_T19U3  -1
    X_T18U4  COST  24.5684  DEM_T18  1
    X_T18U4  SU_T18U4  1  SU_T19U4  -1
    X_T18U5  COST  39.8337  DEM_T18  1
    X_T18U5  SU_T18U5  1  SU_T19U5  -1
    X_T18U6  COST  10.5423  DEM_T18  1
    X_T18U6  SU_T18U6  1  SU_T19U6  -1
    X_T19U1  COST  15.3647  DEM_T19  1
    X_T19U1  SU_T19U1  1  SU_T20U1  -1
    X_T19U2  COST  32.3251  DEM_T19  1
    X_T19U2  SU_T19U2  1  SU_T20U2  -1
    X_T19U3  COST  19.2418  DEM_T19  1
    X_T19U3  SU_T19U3  1  SU_T20U3  -1
    X_T19U4  COST  25.2644  DEM_T19  1
    X_T19U4  SU_T19U4  1  SU_T20U4  -1
    X_T19U5  COST  17.5139  DEM_T19  1
    X_T19U5  SU_T19U5  1  SU_T20U5  -1
    X_T19U6  COST  39.3668  DEM_T19  1
    X_T19U6  SU_T19U6  1  SU_T20U6  -1
    X_T20U1  COST  37.183  DEM_T20  1
    X_T20U1  SU_T20U1  1  SU_T21U1  -1
    X_T20U2  COST  20.5024  DEM_T20  1
    X_T20U2  SU_T20U2  1  SU_T21U2  -1
    X_T20U3  COST  30.0677  DEM_T20  1
    X_T20U3  SU_T20U3  1  SU_T21U3  -1
    X_T20U4  COST  16.9056  DEM_T20  1
    X_T20U4  SU_T20U4  1  SU_T21U4  -1
    X_T20U5  COST  27.1601  DEM_T20  1
    X_T20U5  SU_T20U5  1  SU_T21U5  -1
    X_T20U6  COST  11.3081  DEM_T20  1
    X_T20U6  SU_T20U6  1  SU_T21U6  -1
    X_T21U1  COST  24.0983  DEM_T21  1
    X_T21U1  SU_T21U1  1  SU_T22U1  -1
    X_T21U2  COST  36.5048  DEM_T21  1
    X_T21U2  SU_T21U2  1  SU_T22U2  -1
    X_T21U3  COST  38.5922  DEM_T21  1
    X_T21U3  SU_T21U3  1  SU_T22U3  -1
    X_T21U4  COST  26.5829  DEM_T21  1
    X_T21U4  SU_T21U4  1  SU_T22U4  -1
    X_T21U5  COST  39.4099  DEM_T21  1
    X_T21U5  SU_T21U5  1  SU_T22U5  -1
    X_T21U6  COST  19.1709  DEM_T21  1
    X_T21U6  SU_T21U6  1  SU_T22U6  -1
    X_T22U1  COST  18.0542  DEM_T22  1
    X_T22U1  SU_T22U1  1  SU_T23U1  -1
    X_T22U2  COST  21.1806  DEM_T22  1
    X_T22U2  SU_T22U2  1  SU_T23U2  -1
    X_T22U3  COST  35.3264  DEM_T22  1
    X_T22U3  SU_T22U3  1  SU_T23U3  -1
    X_T22U4  COST  12.1125  DEM_T22  1
    X_T22U4  SU_T22U4  1  SU_T23U4  -1
    X_T22U5  COST  30.1343  DEM_T22  1
    X_T22U5  SU_T22U5  1  SU_T23U5  -1
    X_T22U6  COST  17.6249  DEM_T22  1
    X_T22U6  SU_T22U6  1  SU_T23U6  -1
    X_T23U1  COST  19.6765  DEM_T23  1
    X_T23U1  SU_T23U1  1  SU_T24U1  -1
    X_T23U2  COST  14.0986  DEM_T23  1
    X_T23U2  SU_T23U2  1  SU_T24U2  -1
    X_T23U3  COST  26.5846  DEM_T23  1
    X_T23U3  SU_T23U3  1  SU_T24U3  -1
    X_T23U4  COST  22.5934  DEM_T23  1
    X_T23U4  SU_T23U4  1  SU_T24U4  -1
    X_T23U5  COST  28.3454  DEM_T23  1
    X_T23U5  SU_T23U5  1  SU_T24U5  -1
    X_T23U6  COST  10.1555  DEM_T23  1
    X_T23U6  SU_T23U6  1  SU_T24U6  -1
    X_T24U1  COST  15.8282  DEM_T24  1
    X_T24U1  SU_T24U1  1
    X_T24U2  COST  21.9035  DEM_T24  1
    X_T24U2  SU_T24U2  1
    X_T24U3  COST  36.5985  DEM_T24  1
    X_T24U3  SU_T24U3  1
    X_T24U4  COST  27.3659  DEM_T24  1
    X_T24U4  SU_T24U4  1
    X_T24U5  COST  30.1608  DEM_T24  1
    X_T24U5  SU_T24U5  1
    X_T24U6  COST  14.6512  DEM_T24  1
    X_T24U6  SU_T24U6  1
    S_T1U1  COST  77.5152  SU_T1U1  -1
    S_T1U2  COST  139.528  SU_T1U2  -1
    S_T1U3  COST  64.9962  SU_T1U3  -1
    S_T1U4  COST  100.056  SU_T1U4  -1
    S_T1U5  COST  147.633  SU_T1U5  -1
    S_T1U6  COST  158.3  SU_T1U6  -1
    S_T2U1  COST  50.1168  SU_T2U1  -1
    S_T2U2  COST  142.622  SU_T2U2  -1
    S_T2U3  COST  51.0599  SU_T2U3  -1
    S_T2U4  COST  128.716  SU_T2U4  -1
    S_T2U5  COST  56.9999  SU_T2U5  -1
    S_T2U6  COST  84.9157  SU_T2U6  -1
    S_T3U1  COST  142.758  SU_T3U1  -1
    S_T3U2  COST  197.485  SU_T3U2  -1
    S_T3U3  COST  178.991  SU_T3U3  -1
    S_T3U4  COST  117.575  SU_T3U4  -1
    S_T3U5  COST  191.33  SU_T3U5  -1
    S_T3U6  COST  107.812  SU_T3U6  -1
    S_T4U1  COST  84.6341  SU_T4U1  -1
    S_T4U2  COST  152.49  SU_T4U2  -1
    S_T4U3  COST  174.979  SU_T4U3  -1
    S_T4U4  COST  108.659  SU_T4U4  -1
    S_T4U5  COST  163.304  SU_T4U5  -1
    S_T4U6  COST  81.1912  SU_T4U6  -1
    S_T5U1  COST  54.697  SU_T5U1  -1
    S_T5U2  COST  117.463  SU_T5U2  -1
    S_T5U3  COST  188.999  SU_T5U3  -1
    S_T5U4  COST  98.9811  SU_T5U4  -1
    S_T5U5  COST  128.125  SU_T5U5  -1
    S_T5U6  COST  176.68  SU_T5U6  -1
    S_T6U1  COST  130.954  SU_T6U1  -1
    S_T6U2  COST  194.788  SU_T6U2  -1
    S_T6U3  COST  91.3999  SU_T6U3  -1
    S_T6U4  COST  74.79  SU_T6U4  -1
    S_T6U5  COST  113.51  SU_T6U5  -1
    S_T6U6  COST  94.0232  SU_T6U6  -1
    S_T7U1  COST  79.8264  SU_T7U1  -1
    S_T7U2  COST  168.526  SU_T7U2  -1
    S_T7U3  COST  188.945  SU_T7U3  -1
    S_T7U4  COST  187.244  SU_T7U4  -1
    S_T7U5  COST  117.418  SU_T7U5  -1
    S_T7U6  COST  105.623  SU_T7U6  -1
    S_T8U1  COST  149.888  SU_T8U1  -1
    S_T8U2  COST  91.2083  SU_T8U2  -1
    S_T8U3  COST  107.439  SU_T8U3  -1
    S_T8U4  COST  177.337  SU_T8U4  -1
    S_T8U5  COST  85.3977  SU_T8U5  -1
    S_T8U6  COST  56.065  SU_T8U6  -1
    S_T9U1  COST  66.6336  SU_T9U1  -1
    S_T9U2  COST  80.2579  SU_T9U2  -1
    S_T9U3  COST  121.306  SU_T9U3  -1
    S_T9U4  COST  154.327  SU_T9U4  -1
    S_T9U5  COST  140.663  SU_T9U5  -1
    S_T9U6  COST  80.4592  SU_T9U6  -1
    S_T10U1  COST  139.83  SU_T10U1  -1
    S_T10U2  COST  182.07  SU_T10U2  -1
    S_T10U3  COST  94.3451  SU_T10U3  -1
    S_T10U4  COST  118.48  SU_T10U4  -1
    S_T10U5  COST  112.476  SU_T10U5  -1
    S_T10U6  COST  98.6518  SU_T10U6  -1
    S_T11U1  COST  103.445  SU_T11U1  -1
    S_T11U2  COST  90.8198  SU_T11U2  -1
    S_T11U3  COST  50.0781  SU_T11U3  -1
    S_T11U4  COST  95.7172  SU_T11U4  -1
    S_T11U5  COST  130.113  SU_T11U5  -1
    S_T11U6  COST  153.865  SU_T11U6  -1
    S_T12U1  COST  86.6188  SU_T12U1  -1
    S_T12U2  COST  82.8146  SU_T12U2  -1
    S_T12U3  COST  110.575  SU_T12U3  -1
    S_T12U4  COST  88.0873  SU_T12U4  -1
    S_T12U5  COST  154.446  SU_T12U5  -1
    S_T12U6  COST  72.213  SU_T12U6  -1
    S_T13U1  COST  90.0172  SU_T13U1  -1
    S_T13U2  COST  111.656  SU_T13U2  -1
    S_T13U3  COST  101.761  SU_T13U3  -1
    S_T13U4  COST  152.106  SU_T13U4  -1
    S_T13U5  COST  117.167  SU_T13U5  -1
    S_T13U6  COST  138.905  SU_T13U6  -1
    S_T14U1  COST  105.448  SU_T14U1  -1
    S_T14U2  COST  170.471  SU_T14U2  -1
    S_T14U3  COST  197.513  SU_T14U3  -1
    S_T14U4  COST  172.465  SU_T14U4  -1
    S_T14U5  COST  72.6076  SU_T14U5  -1
    S_T14U6  COST  154.372  SU_T14U6  -1
    S_T15U1  COST  98.8938  SU_T15U1  -1
    S_T15U2  COST  156.672  SU_T15U2  -1
    S_T15U3  COST  102.3  SU_T15U3  -1
    S_T15U4  COST  191.078  SU_T15U4  -1
    S_T15U5  COST  127.663  SU_T15U5  -1
    S_T15U6  COST  151.354  SU_T15U6  -1
    S_T16U1  COST  81.3607  SU_T16U1  -1
    S_T16U2  COST  154.368  SU_T16U2  -1
    S_T16U3  COST  76.2432  SU_T16U3  -1
    S_T16U4  COST  127.495  SU_T16U4  -1
    S_T16U5  COST  199.438  SU_T16U5  -1
    S_T16U6  COST  133.744  SU_T16U6  -1
    S_T17U1  COST  78.3061  SU_T17U1  -1
    S_T17U2  COST  155.054  SU_T17U2  -1
    S_T17U3  COST  178.449  SU_T17U3  -1
    S_T17U4  COST  183.166  SU_T17U4  -1
    S_T17U5  COST  190.345  SU_T17U5  -1
    S_T17U6  COST  150.348  SU_T17U6  -1
    S_T18U1  COST  105.842  SU_T18U1  -1
    S_T18U2  COST  196.05  SU_T18U2  -1
    S_T18U3  COST  95.8046  SU_T18U3  -1
    S_T18U4  COST  117.264  SU_T18U4  -1
    S_T18U5  COST  76.3888  SU_T18U5  -1
    S_T18U6  COST  124.084  SU_T18U6  -1
    S_T19U1  COST  104.97  SU_T19U1  -1
    S_T19U2  COST  158.141  SU_T19U2  -1
    S_T19U3  COST  131.381  SU_T19U3  -1
    S_T19U4  COST  145.45  SU_T19U4  -1
    S_T19U5  COST  138.481  SU_T19U5  -1
    S_T19U6  COST  123.011  SU_T19U6  -1
    S_T20U1  COST  115.159  SU_T20U1  -1
    S_T20U2  COST  146.766  SU_T20U2  -1
    S_T20U3  COST  179.625  SU_T20U3  -1
    S_T20U4  COST  124.879  SU_T20U4  -1
    S_T20U5  COST  165.283  SU_T20U5  -1
    S_T20U6  COST  199.183  SU_T20U6  -1
    S_T21U1  COST  91.9341  SU_T21U1  -1
    S_T21U2  COST  162.158  SU_T21U2  -1
    S_T21U3  COST  99.6125  SU_T21U3  -1
    S_T21U4  COST  135.844  SU_T21U4  -1
    S_T21U5  COST  61.3019  SU_T21U5  -1
    S_T21U6  COST  78.6367  SU_T21U6  -1
    S_T22U1  COST  122.792  SU_T22U1  -1
    S_T22U2  COST  109.204  SU_T22U2  -1
    S_T22U3  COST  189.503  SU_T22U3  -1
    S_T22U4  COST  81.3378  SU_T22U4  -1
    S_T22U5  COST  103.797  SU_T22U5  -1
    S_T22U6  COST  94.2936  SU_T22U6  -1
    S_T23U1  COST  177.3  SU_T23U1  -1
    S_T23U2  COST  156.337  SU_T23U2  -1
    S_T23U3  COST  94.4765  SU_T23U3  -1
    S_T23U4  COST  88.431  SU_T23U4  -1
    S_T23U5  COST  62.2391  SU_T23U5  -1
    S_T23U6  COST  144.184  SU_T23U6  -1
    S_T24U1  COST  60.6411  SU_T24U1  -1
    S_T24U2  COST  57.6153  SU_T24U2  -1
    S_T24U3  COST  54.1425  SU_T24U3  -1
    S_T24U4  COST  115.771  SU_T24U4  -1
    S_T24U5  COST  99.2229  SU_T24U5  -1
    S_T24U6  COST  197.276  SU_T24U6  -1
    MARK0001  'MARKER'                 'INTEND'
RHS
    RHS       DEM_T1  3.68459
    RHS       DEM_T2  3.75329
    RHS       DEM_T3  1.8008
    RHS       DEM_T4  1.12427
    RHS       DEM_T5  1.97045
    RHS       DEM_T6  2.71866
    RHS       DEM_T7  2.04528
    RHS       DEM_T8  3.64918
    RHS       DEM_T9  1.86894
    RHS       DEM_T10  4.08881
    RHS       DEM_T11  2.46325
    RHS       DEM_T12  3.69447
    RHS       DEM_T13  1.62202
    RHS       DEM_T14  2.31633
    RHS       DEM_T15  3.23844
    RHS       DEM_T16  1.44273
    RHS       DEM_T17  1.42479
    RHS       DEM_T18  4.10252
    RHS       DEM_T19  3.2867
    RHS       DEM_T20  1.13142
    RHS       DEM_T21  2.27623
    RHS       DEM_T22  2.38727
    RHS       DEM_T23  3.38094
    RHS       DEM_T24  1.80275
BOUNDS
 UP BND       X_T1U1  1
 UP BND       X_T1U2  1
 UP BND       X_T1U3  1
 UP BND       X_T1U4  1
 UP BND       X_T1U5  1
 UP BND       X_T1U6  1
 UP BND       X_T2U1  1
 UP BND       X_T2U2  1
 UP BND       X_T2U3  1
 UP BND       X_T2U4  1
 UP BND       X_T2U5  1
 UP BND       X_T2U6  1
 UP BND       X_T3U1  1
 UP BND       X_T3U2  1
 UP BND       X_T3U3  1
 UP BND       X_T3U4  1
 UP BND       X_T3U5  1
 UP BND       X_T3U6  1
 UP BND       X_T4U1  1
 UP BND       X_T4U2  1
 UP BND       X_T4U3  1
 UP BND       X_T4U4  1
 UP BND       X_T4U5  1
 UP BND       X_T4U6  1
 UP BND       X_T5U1  1
 UP BND       X_T5U2  1
 UP BND       X_T5U3  1
 UP BND       X_T5U4  1
 UP BND       X_T5U5  1
 UP BND       X_T5U6  1
 UP BND       X_T6U1  1
 UP BND       X_T6U2  1
 UP BND       X_T6U3  1
 UP BND       X_T6U4  1
 UP BND       X_T6U5  1
 UP BND       X_T6U6  1
 UP BND       X_T7U1  1
 UP BND       X_T7U2  1
 UP BND       X_T7U3  1
 UP BND       X_T7U4  1
 UP BND       X_T7U5  1
 UP BND       X_T7U6  1
 UP BND       X_T8U1  1
 UP BND       X_T8U2  1
 UP BND       X_T8U3  1
 UP BND       X_T8U4  1
 UP BND       X_T8U5  1
 UP BND       X_T8U6  1
 UP BND       X_T9U1  1
 UP BND       X_T9U2  1
 UP BND       X_T9U3  1
 UP BND       X_T9U4  1
 UP BND       X_T9U5  1
 UP BND       X_T9U6  1
 UP BND       X_T10U1  1
 UP BND       X_T10U2  1
 UP BND       X_T10U3  1
 UP BND       X_T10U4  1
 UP BND       X_T10U5  1
 UP BND       X_T10U6  1
 UP BND       X_T11U1  1
 UP BND       X_T11U2  1
 UP BND       X_T11U3  1
 UP BND       X_T11U4  1
 UP BND       X_T11U5  1
 UP BND       X_T11U6  1
 UP BND       X_T12U1  1
 UP BND       X_T12U2  1
 UP BND       X_T12U3  1
 UP BND       X_T12U4  1
 UP BND       X_T12U5  1
 UP BND       X_T12U6  1
 UP BND       X_T13U1  1
 UP BND       X_T13U2  1
 UP BND       X_T13U3  1
 UP BND       X_T13U4  1
 UP BND       X_T13U5  1
 UP BND       X_T13U6  1
 UP BND       X_T14U1  1
 UP BND       X_T14U2  1
 UP BND       X_T14U3  1
 UP BND       X_T14U4  1
 UP BND       X_T14U5  1
 UP BND       X_T14U6  1
 UP BND       X_T15U1  1
 UP BND       X_T15U2  1
 UP BND       X_T15U3  1
 UP BND       X_T15U4  1
 UP BND       X_T15U5  1
 UP BND       X_T15U6  1
 UP BND       X_T16U1  1
 UP BND       X_T16U2  1
 UP BND       X_T16U3  1
 UP BND       X_T16U4  1
 UP BND       X_T16U5  1
 UP BND       X_T16U6  1
 UP BND       X_T17U1  1
 UP BND       X_T17U2  1
 UP BND       X_T17U3  1
 UP BND       X_T17U4  1
 UP BND       X_T17U5  1
 UP BND       X_T17U6  1
 UP BND       X_T18U1  1
 UP BND       X_T18U2  1
 UP BND       X_T18U3  1
 UP BND       X_T18U4  1
 UP BND       X_T18U5  1
 UP BND       X_T18U6  1
 UP BND       X_T19U1  1
 UP BND       X_T19U2  1
 UP BND       X_T19U3  1
 UP BND       X_T19U4  1
 UP BND       X_T19U5  1
 UP BND       X_T19U6  1
 UP BND       X_T20U1  1
 UP BND       X_T20U2  1
 UP BND       X_T20U3  1
 UP BND       X_T20U4  1
 UP BND       X_T20U5  1
 UP BND       X_T20U6  1
 UP BND       X_T21U1  1
 UP BND       X_T21U2  1
 UP BND       X_T21U3  1
 UP BND       X_T21U4  1
 UP BND       X_T21U5  1
 UP BND       X_T21U6  1
 UP BND       X_T22U1  1
 UP BND       X_T22U2  1
 UP BND       X_T22U3  1
 UP BND       X_T22U4  1
 UP BND       X_T22U5  1
 UP BND       X_T22U6  1
 UP BND       X_T23U1  1
 UP BND       X_T23U2  1
 UP BND       X_T23U3  1
 UP BND       X_T23U4  1
 UP BND       X_T23U5  1
 UP BND       X_T23U6  1
 UP BND       X_T24U1  1
 UP BND       X_T24U2  1
 UP BND       X_T24U3  1
 UP BND       X_T24U4  1
 UP BND       X_T24U5  1
 UP BND       X_T24U6  1
 UP BND       S_T1U1  1
 UP BND       S_T1U2  1
 UP BND       S_T1U3  1
 UP BND       S_T1U4  1
 UP BND       S_T1U5  1
 UP BND       S_T1U6  1
 UP BND       S_T2U1  1
 UP BND       S_T2U2  1
 UP BND       S_T2U3  1
 UP BND       S_T2U4  1
 UP BND       S_T2U5  1
 UP BND       S_T2U6  1
 UP BND       S_T3U1  1
 UP BND       S_T3U2  1
 UP BND       S_T3U3  1
 UP BND       S_T3U4  1
 UP BND       S_T3U5  1
 UP BND       S_T3U6  1
 UP BND       S_T4U1  1
 UP BND       S_T4U2  1
 UP BND       S_T4U3  1
 UP BND       S_T4U4  1
 UP BND       S_T4U5  1
 UP BND       S_T4U6  1
 UP BND       S_T5U1  1
 UP BND       S_T5U2  1
 UP BND       S_T5U3  1
 UP BND       S_T5U4  1
 UP BND       S_T5U5  1
 UP BND       S_T5U6  1
 UP BND       S_T6U1  1
 UP BND       S_T6U2  1
 UP BND       S_T6U3  1
 UP BND       S_T6U4  1
 UP BND       S_T6U5  1
 UP BND       S_T6U6  1
 UP BND       S_T7U1  1
 UP BND       S_T7U2  1
 UP BND       S_T7U3  1
 UP BND       S_T7U4  1
 UP BND       S_T7U5  1
 UP BND       S_T7U6  1
 UP BND       S_T8U1  1
 UP BND       S_T8U2  1
 UP BND       S_T8U3  1
 UP BND       S_T8U4  1
 UP BND       S_T8U5  1
 UP BND       S_T8U6  1
 UP BND       S_T9U1  1
 UP BND       S_T9U2  1
 UP BND       S_T9U3  1
 UP BND       S_T9U4  1
 UP BND       S_T9U5  1
 UP BND       S_T9U6  1
 UP BND       S_T10U1  1
 UP BND       S_T10U2  1
 UP BND       S_T10U3  1
 UP BND       S_T10U4  1
 UP BND       S_T10U5  1
 UP BND       S_T10U6  1
 UP BND       S_T11U1  1
 UP BND       S_T11U2  1
 UP BND       S_T11U3  1
 UP BND       S_T11U4  1
 UP BND       S_T11U5  1
 UP BND       S_T11U6  1
 UP BND       S_T12U1  1
 UP BND       S_T12U2  1
 UP BND       S_T12U3  1
 UP BND       S_T12U4  1
 UP BND       S_T12U5  1
 UP BND       S_T12U6  1
 UP BND       S_T13U1  1
 UP BND       S_T13U2  1
 UP BND       S_T13U3  1
 UP BND       S_T13U4  1
 UP BND       S_T13U5  1
 UP BND       S_T13U6  1
 UP BND       S_T14U1  1
 UP BND       S_T14U2  1
 UP BND       S_T14U3  1
 UP BND       S_T14U4  1
 UP BND       S_T14U5  1
 UP BND       S_T14U6  1
 UP BND       S_T15U1  1
 UP BND       S_T15U2  1
 UP BND       S_T15U3  1
 UP BND       S_T15U4  1
 UP BND       S_T15U5  1
 UP BND       S_T15U6  1
 UP BND       S_T16U1  1
 UP BND       S_T16U2  1
 UP BND       S_T16U3  1
 UP BND       S_T16U4  1
 UP BND       S_T16U5  1
 UP BND       S_T16U6  1
 UP BND       S_T17U1  1
 UP BND       S_T17U2  1
 UP BND       S_T17U3  1
 UP BND       S_T17U4  1
 UP BND       S_T17U5  1
 UP BND       S_T17U6  1
 UP BND       S_T18U1  1
 UP BND       S_T18U2  1
 UP BND       S_T18U3  1
 UP BND       S_T18U4  1
 UP BND       S_T18U5  1
 UP BND       S_T18U6  1
 UP BND       S_T19U1  1
 UP BND       S_T19U2  1
 UP BND       S_T19U3  1
 UP BND       S_T19U4  1
 UP BND       S_T19U5  1
 UP BND       S_T19U6  1
 UP BND       S_T20U1  1
 UP BND       S_T20U2  1
 UP BND       S_T20U3  1
 UP BND       S_T20U4  1
 UP BND       S_T20U5  1
 UP BND       S_T20U6  1
 UP BND       S_T21U1  1
 UP BND       S_T21U2  1
 UP BND       S_T21U3  1
 UP BND       S_T21U4  1
 UP BND       S_T21U5  1
 UP BND       S_T21U6  1
 UP BND       S_T22U1  1
 UP BND       S_T22U2  1
 UP BND       S_T22U3  1
 UP BND       S_T22U4  1
 UP BND       S_T22U5  1
 UP BND       S_T22U6  1
 UP BND       S_T23U1  1
 UP BND       S_T23U2  1
 UP BND       S_T23U3  1
 UP BND       S_T23U4  1
 UP BND       S_T23U5  1
 UP BND       S_T23U6  1
 UP BND       S_T24U1  1
 UP BND       S_T24U2  1
 UP BND       S_T24U3  1
 UP BND       S_T24U4  1
 UP BND       S_T24U5  1
 UP BND       S_T24U6  1
ENDATA
