NAME          SCHED_S42
ROWS
 N  COST
 G  DEM_T1
 G  DEM_T2
 G  DEM_T3
 G  DEM_T4
 G  DEM_T5
 G  DEM_T6
 G  DEM_T7
 G  DEM_T8
 G  DEM_T9
 G  DEM_T10
 G  DEM_T11
 G  DEM_T12
 G  DEM_T13
 G  DEM_T14
 G  DEM_T15
 G  DEM_T16
 G  DEM_T17
 G  DEM_T18
 G  DEM_T19
 G  DEM_T20
 G  DEM_T21
 G  DEM_T22
 G  DEM_T23
 G  DEM_T24
 G  DEM_T25
 G  DEM_T26
 G  DEM_T27
 G  DEM_T28
 G  DEM_T29
 G  DEM_T30
 G  DEM_T31
 G  DEM_T32
 G  DEM_T33
 G  DEM_T34
 G  DEM_T35
 G  DEM_T36
 G  DEM_T37
 G  DEM_T38
 G  DEM_T39
 G  DEM_T40
 G  DEM_T41
 G  DEM_T42
 G  DEM_T43
 G  DEM_T44
 G  DEM_T45
 G  DEM_T46
 G  DEM_T47
 G  DEM_T48
 G  DEM_T49
 G  DEM_T50
 G  DEM_T51
 G  DEM_T52
 G  DEM_T53
 G  DEM_T54
 G  DEM_T55
 G  DEM_T56
 G  DEM_T57
 G  DEM_T58
 G  DEM_T59
 G  DEM_T60
 G  DEM_T61
 G  DEM_T62
 G  DEM_T63
 G  DEM_T64
 G  DEM_T65
 G  DEM_T66
 G  DEM_T67
 G  DEM_T68
 G  DEM_T69
 G  DEM_T70
 G  DEM_T71
 G  DEM_T72
 G  DEM_T73
 G  DEM_T74
 G  DEM_T75
 G  DEM_T76
 G  DEM_T77
 G  DEM_T78
 G  DEM_T79
 G  DEM_T80
 G  DEM_T81
 G  DEM_T82
 G  DEM_T83
 G  DEM_T84
 G  DEM_T85
 G  DEM_T86
 G  DEM_T87
 G  DEM_T88
 G  DEM_T89
 G  DEM_T90
 G  DEM_T91
 G  DEM_T92
 G  DEM_T93
 G  DEM_T94
 G  DEM_T95
 G  DEM_T96
 L  SU_T1U1
 L  SU_T1U2
 L  SU_T1U3
 L  SU_T1U4
 L  SU_T1U5
 L  SU_T1U6
 L  SU_T1U7
 L  SU_T1U8
 L  SU_T1U9
 L  SU_T1U10
 L  SU_T1U11
 L  SU_T1U12
 L  SU_T1U13
 L  SU_T1U14
 L  SU_T1U15
 L  SU_T1U16
 L  SU_T1U17
 L  SU_T1U18
 L  SU_T1U19
 L  SU_T1U20
 L  SU_T2U1
 L  SU_T2U2
 L  SU_T2U3
 L  SU_T2U4
 L  SU_T2U5
 L  SU_T2U6
 L  SU_T2U7
 L  SU_T2U8
 L  SU_T2U9
 L  SU_T2U10
 L  SU_T2U11
 L  SU_T2U12
 L  SU_T2U13
 L  SU_T2U14
 L  SU_T2U15
 L  SU_T2U16
 L  SU_T2U17
 L  SU_T2U18
 L  SU_T2U19
 L  SU_T2U20
 L  SU_T3U1
 L  SU_T3U2
 L  SU_T3U3
 L  SU_T3U4
 L  SU_T3U5
 L  SU_T3U6
 L  SU_T3U7
 L  SU_T3U8
 L  SU_T3U9
 L  SU_T3U10
 L  SU_T3U11
 L  SU_T3U12
 L  SU_T3U13
 L  SU_T3U14
 L  SU_T3U15
 L  SU_T3U16
 L  SU_T3U17
 L  SU_T3U18
 L  SU_T3U19
 L  SU_T3U20
 L  SU_T4U1
 L  SU_T4U2
 L  SU_T4U3
 L  SU_T4U4
 L  SU_T4U5
 L  SU_T4U6
 L  SU_T4U7
 L  SU_T4U8
 L  SU_T4U9
 L  SU_T4U10
 L  SU_T4U11
 L  SU_T4U12
 L  SU_T4U13
 L  SU_T4U14
 L  SU_T4U15
 L  SU_T4U16
 L  SU_T4U17
 L  SU_T4U18
 L  SU_T4U19
 L  SU_T4U20
 L  SU_T5U1
 L  SU_T5U2
 L  SU_T5U3
 L  SU_T5U4
 L  SU_T5U5
 L  SU_T5U6
 L  SU_T5U7
 L  SU_T5U8
 L  SU_T5U9
 L  SU_T5U10
 L  SU_T5U11
 L  SU_T5U12
 L  SU_T5U13
 L  SU_T5U14
 L  SU_T5U15
 L  SU_T5U16
 L  SU_T5U17
 L  SU_T5U18
 L  SU_T5U19
 L  SU_T5U20
 L  SU_T6U1
 L  SU_T6U2
 L  SU_T6U3
 L  SU_T6U4
 L  SU_T6U5
 L  SU_T6U6
 L  SU_T6U7
 L  SU_T6U8
 L  SU_T6U9
 L  SU_T6U10
 L  SU_T6U11
 L  SU_T6U12
 L  SU_T6U13
 L  SU_T6U14
 L  SU_T6U15
 L  SU_T6U16
 L  SU_T6U17
 L  SU_T6U18
 L  SU_T6U19
 L  SU_T6U20
 L  SU_T7U1
 L  SU_T7U2
 L  SU_T7U3
 L  SU_T7U4
 L  SU_T7U5
 L  SU_T7U6
 L  SU_T7U7
 L  SU_T7U8
 L  SU_T7U9
 L  SU_T7U10
 L  SU_T7U11
 L  SU_T7U12
 L  SU_T7U13
 L  SU_T7U14
 L  SU_T7U15
 L  SU_T7U16
 L  SU_T7U17
 L  SU_T7U18
 L  SU_T7U19
 L  SU_T7U20
 L  SU_T8U1
 L  SU_T8U2
 L  SU_T8U3
 L  SU_T8U4
 L  SU_T8U5
 L  SU_T8U6
 L  SU_T8U7
 L  SU_T8U8
 L  SU_T8U9
 L  SU_T8U10
 L  SU_T8U11
 L  SU_T8U12
 L  SU_T8U13
 L  SU_T8U14
 L  SU_T8U15
 L  SU_T8U16
 L  SU_T8U17
 L  SU_T8U18
 L  SU_T8U19
 L  SU_T8U20
 L  SU_T9U1
 L  SU_T9U2
 L  SU_T9U3
 L  SU_T9U4
 L  SU_T9U5
 L  SU_T9U6
 L  SU_T9U7
 L  SU_T9U8
 L  SU_T9U9
 L  SU_T9U10
 L  SU_T9U11
 L  SU_T9U12
 L  SU_T9U13
 L  SU_T9U14
 L  SU_T9U15
 L  SU_T9U16
 L  SU_T9U17
 L  SU_T9U18
 L  SU_T9U19
 L  SU_T9U20
 L  SU_T10U1
 L  SU_T10U2
 L  SU_T10U3
 L  SU_T10U4
 L  SU_T10U5
 L  SU_T10U6
 L  SU_T10U7
 L  SU_T10U8
 L  SU_T10U9
 L  SU_T10U10
 L  SU_T10U11
 L  SU_T10U12
 L  SU_T10U13
 L  SU_T10U14
 L  SU_T10U15
 L  SU_T10U16
 L  SU_T10U17
 L  SU_T10U18
 L  SU_T10U19
 L  SU_T10U20
 L  SU_T11U1
 L  SU_T11U2
 L  SU_T11U3
 L  SU_T11U4
 L  SU_T11U5
 L  SU_T11U6
 L  SU_T11U7
 L  SU_T11U8
 L  SU_T11U9
 L  SU_T11U10
 L  SU_T11U11
 L  SU_T11U12
 L  SU_T11U13
 L  SU_T11U14
 L  SU_T11U15
 L  SU_T11U16
 L  SU_T11U17
 L  SU_T11U18
 L  SU_T11U19
 L  SU_T11U20
 L  SU_T12U1
 L  SU_T12U2
 L  SU_T12U3
 L  SU_T12U4
 L  SU_T12U5
 L  SU_T12U6
 L  SU_T12U7
 L  SU_T12U8
 L  SU_T12U9
 L  SU_T12U10
 L  SU_T12U11
 L  SU_T12U12
 L  SU_T12U13
 L  SU_T12U14
 L  SU_T12U15
 L  SU_T12U16
 L  SU_T12U17
 L  SU_T12U18
 L  SU_T12U19
 L  SU_T12U20
 L  SU_T13U1
 L  SU_T13U2
 L  SU_T13U3
 L  SU_T13U4
 L  SU_T13U5
 L  SU_T13U6
 L  SU_T13U7
 L  SU_T13U8
 L  SU_T13U9
 L  SU_T13U10
 L  SU_T13U11
 L  SU_T13U12
 L  SU_T13U13
 L  SU_T13U14
 L  SU_T13U15
 L  SU_T13U16
 L  SU_T13U17
 L  SU_T13U18
 L  SU_T13U19
 L  SU_T13U20
 L  SU_T14U1
 L  SU_T14U2
 L  SU_T14U3
 L  SU_T14U4
 L  SU_T14U5
 L  SU_T14U6
 L  SU_T14U7
 L  SU_T14U8
 L  SU_T14U9
 L  SU_T14U10
 L  SU_T14U11
 L  SU_T14U12
 L  SU_T14U13
 L  SU_T14U14
 L  SU_T14U15
 L  SU_T14U16
 L  SU_T14U17
 L  SU_T14U18
 L  SU_T14U19
 L  SU_T14U20
 L  SU_T15U1
 L  SU_T15U2
 L  SU_T15U3
 L  SU_T15U4
 L  SU_T15U5
 L  SU_T15U6
 L  SU_T15U7
 L  SU_T15U8
 L  SU_T15U9
 L  SU_T15U10
 L  SU_T15U11
 L  SU_T15U12
 L  SU_T15U13
 L  SU_T15U14
 L  SU_T15U15
 L  SU_T15U16
 L  SU_T15U17
 L  SU_T15U18
 L  SU_T15U19
 L  SU_T15U20
 L  SU_T16U1
 L  SU_T16U2
 L  SU_T16U3
 L  SU_T16U4
 L  SU_T16U5
 L  SU_T16U6
 L  SU_T16U7
 L  SU_T16U8
 L  SU_T16U9
 L  SU_T16U10
 L  SU_T16U11
 L  SU_T16U12
 L  SU_T16U13
 L  SU_T16U14
 L  SU_T16U15
 L  SU_T16U16
 L  SU_T16U17
 L  SU_T16U18
 L  SU_T16U19
 L  SU_T16U20
 L  SU_T17U1
 L  SU_T17U2
 L  SU_T17U3
 L  SU_T17U4
 L  SU_T17U5
 L  SU_T17U6
 L  SU_T17U7
 L  SU_T17U8
 L  SU_T17U9
 L  SU_T17U10
 L  SU_T17U11
 L  SU_T17U12
 L  SU_T17U13
 L  SU_T17U14
 L  SU_T17U15
 L  SU_T17U16
 L  SU_T17U17
 L  SU_T17U18
 L  SU_T17U19
 L  SU_T17U20
 L  SU_T18U1
 L  SU_T18U2
 L  SU_T18U3
 L  SU_T18U4
 L  SU_T18U5
 L  SU_T18U6
 L  SU_T18U7
 L  SU_T18U8
 L  SU_T18U9
 L  SU_T18U10
 L  SU_T18U11
 L  SU_T18U12
 L  SU_T18U13
 L  SU_T18U14
 L  SU_T18U15
 L  SU_T18U16
 L  SU_T18U17
 L  SU_T18U18
 L  SU_T18U19
 L  SU_T18U20
 L  SU_T19U1
 L  SU_T19U2
 L  SU_T19U3
 L  SU_T19U4
 L  SU_T19U5
 L  SU_T19U6
 L  SU_T19U7
 L  SU_T19U8
 L  SU_T19U9
 L  SU_T19U10
 L  SU_T19U11
 L  SU_T19U12
 L  SU_T19U13
 L  SU_T19U14
 L  SU_T19U15
 L  SU_T19U16
 L  SU_T19U17
 L  SU_T19U18
 L  SU_T19U19
 L  SU_T19U20
 L  SU_T20U1
 L  SU_T20U2
 L  SU_T20U3
 L  SU_T20U4
 L  SU_T20U5
 L  SU_T20U6
 L  SU_T20U7
 L  SU_T20U8
 L  SU_T20U9
 L  SU_T20U10
 L  SU_T20U11
 L  SU_T20U12
 L  SU_T20U13
 L  SU_T20U14
 L  SU_T20U15
 L  SU_T20U16
 L  SU_T20U17
 L  SU_T20U18
 L  SU_T20U19
 L  SU_T20U20
 L  SU_T21U1
 L  SU_T21U2
 L  SU_T21U3
 L  SU_T21U4
 L  SU_T21U5
 L  SU_T21U6
 L  SU_T21U7
 L  SU_T21U8
 L  SU_T21U9
 L  SU_T21U10
 L  SU_T21U11
 L  SU_T21U12
 L  SU_T21U13
 L  SU_T21U14
 L  SU_T21U15
 L  SU_T21U16
 L  SU_T21U17
 L  SU_T21U18
 L  SU_T21U19
 L  SU_T21U20
 L  SU_T22U1
 L  SU_T22U2
 L  SU_T22U3
 L  SU_T22U4
 L  SU_T22U5
 L  SU_T22U6
 L  SU_T22U7
 L  SU_T22U8
 L  SU_T22U9
 L  SU_T22U10
 L  SU_T22U11
 L  SU_T22U12
 L  SU_T22U13
 L  SU_T22U14
 L  SU_T22U15
 L  SU_T22U16
 L  SU_T22U17
 L  SU_T22U18
 L  SU_T22U19
 L  SU_T22U20
 L  SU_T23U1
 L  SU_T23U2
 L  SU_T23U3
 L  SU_T23U4
 L  SU_T23U5
 L  SU_T23U6
 L  SU_T23U7
 L  SU_T23U8
 L  SU_T23U9
 L  SU_T23U10
 L  SU_T23U11
 L  SU_T23U12
 L  SU_T23U13
 L  SU_T23U14
 L  SU_T23U15
 L  SU_T23U16
 L  SU_T23U17
 L  SU_T23U18
 L  SU_T23U19
 L  SU_T23U20
 L  SU_T24U1
 L  SU_T24U2
 L  SU_T24U3
 L  SU_T24U4
 L  SU_T24U5
 L  SU_T24U6
 L  SU_T24U7
 L  SU_T24U8
 L  SU_T24U9
 L  SU_T24U10
 L  SU_T24U11
 L  SU_T24U12
 L  SU_T24U13
 L  SU_T24U14
 L  SU_T24U15
 L  SU_T24U16
 L  SU_T24U17
 L  SU_T24U18
 L  SU_T24U19
 L  SU_T24U20
 L  SU_T25U1
 L  SU_T25U2
 L  SU_T25U3
 L  SU_T25U4
 L  SU_T25U5
 L  SU_T25U6
 L  SU_T25U7
 L  SU_T25U8
 L  SU_T25U9
 L  SU_T25U10
 L  SU_T25U11
 L  SU_T25U12
 L  SU_T25U13
 L  SU_T25U14
 L  SU_T25U15
 L  SU_T25U16
 L  SU_T25U17
 L  SU_T25U18
 L  SU_T25U19
 L  SU_T25U20
 L  SU_T26U1
 L  SU_T26U2
 L  SU_T26U3
 L  SU_T26U4
 L  SU_T26U5
 L  SU_T26U6
 L  SU_T26U7
 L  SU_T26U8
 L  SU_T26U9
 L  SU_T26U10
 L  SU_T26U11
 L  SU_T26U12
 L  SU_T26U13
 L  SU_T26U14
 L  SU_T26U15
 L  SU_T26U16
 L  SU_T26U17
 L  SU_T26U18
 L  SU_T26U19
 L  SU_T26U20
 L  SU_T27U1
 L  SU_T27U2
 L  SU_T27U3
 L  SU_T27U4
 L  SU_T27U5
 L  SU_T27U6
 L  SU_T27U7
 L  SU_T27U8
 L  SU_T27U9
 L  SU_T27U10
 L  SU_T27U11
 L  SU_T27U12
 L  SU_T27U13
 L  SU_T27U14
 L  SU_T27U15
 L  SU_T27U16
 L  SU_T27U17
 L  SU_T27U18
 L  SU_T27U19
 L  SU_T27U20
 L  SU_T28U1
 L  SU_T28U2
 L  SU_T28U3
 L  SU_T28U4
 L  SU_T28U5
 L  SU_T28U6
 L  SU_T28U7
 L  SU_T28U8
 L  SU_T28U9
 L  SU_T28U10
 L  SU_T28U11
 L  SU_T28U12
 L  SU_T28U13
 L  SU_T28U14
 L  SU_T28U15
 L  SU_T28U16
 L  SU_T28U17
 L  SU_T28U18
 L  SU_T28U19
 L  SU_T28U20
 L  SU_T29U1
 L  SU_T29U2
 L  SU_T29U3
 L  SU_T29U4
 L  SU_T29U5
 L  SU_T29U6
 L  SU_T29U7
 L  SU_T29U8
 L  SU_T29U9
 L  SU_T29U10
 L  SU_T29U11
 L  SU_T29U12
 L  SU_T29U13
 L  SU_T29U14
 L  SU_T29U15
 L  SU_T29U16
 L  SU_T29U17
 L  SU_T29U18
 L  SU_T29U19
 L  SU_T29U20
 L  SU_T30U1
 L  SU_T30U2
 L  SU_T30U3
 L  SU_T30U4
 L  SU_T30U5
 L  SU_T30U6
 L  SU_T30U7
 L  SU_T30U8
 L  SU_T30U9
 L  SU_T30U10
 L  SU_T30U11
 L  SU_T30U12
 L  SU_T30U13
 L  SU_T30U14
 L  SU_T30U15
 L  SU_T30U16
 L  SU_T30U17
 L  SU_T30U18
 L  SU_T30U19
 L  SU_T30U20
 L  SU_T31U1
 L  SU_T31U2
 L  SU_T31U3
 L  SU_T31U4
 L  SU_T31U5
 L  SU_T31U6
 L  SU_T31U7
 L  SU_T31U8
 L  SU_T31U9
 L  SU_T31U10
 L  SU_T31U11
 L  SU_T31U12
 L  SU_T31U13
 L  SU_T31U14
 L  SU_T31U15
 L  SU_T31U16
 L  SU_T31U17
 L  SU_T31U18
 L  SU_T31U19
 L  SU_T31U20
 L  SU_T32U1
 L  SU_T32U2
 L  SU_T32U3
 L  SU_T32U4
 L  SU_T32U5
 L  SU_T32U6
 L  SU_T32U7
 L  SU_T32U8
 L  SU_T32U9
 L  SU_T32U10
 L  SU_T32U11
 L  SU_T32U12
 L  SU_T32U13
 L  SU_T32U14
 L  SU_T32U15
 L  SU_T32U16
 L  SU_T32U17
 L  SU_T32U18
 L  SU_T32U19
 L  SU_T32U20
 L  SU_T33U1
 L  SU_T33U2
 L  SU_T33U3
 L  SU_T33U4
 L  SU_T33U5
 L  SU_T33U6
 L  SU_T33U7
 L  SU_T33U8
 L  SU_T33U9
 L  SU_T33U10
 L  SU_T33U11
 L  SU_T33U12
 L  SU_T33U13
 L  SU_T33U14
 L  SU_T33U15
 L  SU_T33U16
 L  SU_T33U17
 L  SU_T33U18
 L  SU_T33U19
 L  SU_T33U20
 L  SU_T34U1
 L  SU_T34U2
 L  SU_T34U3
 L  SU_T34U4
 L  SU_T34U5
 L  SU_T34U6
 L  SU_T34U7
 L  SU_T34U8
 L  SU_T34U9
 L  SU_T34U10
 L  SU_T34U11
 L  SU_T34U12
 L  SU_T34U13
 L  SU_T34U14
 L  SU_T34U15
 L  SU_T34U16
 L  SU_T34U17
 L  SU_T34U18
 L  SU_T34U19
 L  SU_T34U20
 L  SU_T35U1
 L  SU_T35U2
 L  SU_T35U3
 L  SU_T35U4
 L  SU_T35U5
 L  SU_T35U6
 L  SU_T35U7
 L  SU_T35U8
 L  SU_T35U9
 L  SU_T35U10
 L  SU_T35U11
 L  SU_T35U12
 L  SU_T35U13
 L  SU_T35U14
 L  SU_T35U15
 L  SU_T35U16
 L  SU_T35U17
 L  SU_T35U18
 L  SU_T35U19
 L  SU_T35U20
 L  SU_T36U1
 L  SU_T36U2
 L  SU_T36U3
 L  SU_T36U4
 L  SU_T36U5
 L  SU_T36U6
 L  SU_T36U7
 L  SU_T36U8
 L  SU_T36U9
 L  SU_T36U10
 L  SU_T36U11
 L  SU_T36U12
 L  SU_T36U13
 L  SU_T36U14
 L  SU_T36U15
 L  SU_T36U16
 L  SU_T36U17
 L  SU_T36U18
 L  SU_T36U19
 L  SU_T36U20
 L  SU_T37U1
 L  SU_T37U2
 L  SU_T37U3
 L  SU_T37U4
 L  SU_T37U5
 L  SU_T37U6
 L  SU_T37U7
 L  SU_T37U8
 L  SU_T37U9
 L  SU_T37U10
 L  SU_T37U11
 L  SU_T37U12
 L  SU_T37U13
 L  SU_T37U14
 L  SU_T37U15
 L  SU_T37U16
 L  SU_T37U17
 L  SU_T37U18
 L  SU_T37U19
 L  SU_T37U20
 L  SU_T38U1
 L  SU_T38U2
 L  SU_T38U3
 L  SU_T38U4
 L  SU_T38U5
 L  SU_T38U6
 L  SU_T38U7
 L  SU_T38U8
 L  SU_T38U9
 L  SU_T38U10
 L  SU_T38U11
 L  SU_T38U12
 L  SU_T38U13
 L  SU_T38U14
 L  SU_T38U15
 L  SU_T38U16
 L  SU_T38U17
 L  SU_T38U18
 L  SU_T38U19
 L  SU_T38U20
 L  SU_T39U1
 L  SU_T39U2
 L  SU_T39U3
 L  SU_T39U4
 L  SU_T39U5
 L  SU_T39U6
 L  SU_T39U7
 L  SU_T39U8
 L  SU_T39U9
 L  SU_T39U10
 L  SU_T39U11
 L  SU_T39U12
 L  SU_T39U13
 L  SU_T39U14
 L  SU_T39U15
 L  SU_T39U16
 L  SU_T39U17
 L  SU_T39U18
 L  SU_T39U19
 L  SU_T39U20
 L  SU_T40U1
 L  SU_T40U2
 L  SU_T40U3
 L  SU_T40U4
 L  SU_T40U5
 L  SU_T40U6
 L  SU_T40U7
 L  SU_T40U8
 L  SU_T40U9
 L  SU_T40U10
 L  SU_T40U11
 L  SU_T40U12
 L  SU_T40U13
 L  SU_T40U14
 L  SU_T40U15
 L  SU_T40U16
 L  SU_T40U17
 L  SU_T40U18
 L  SU_T40U19
 L  SU_T40U20
 L  SU_T41U1
 L  SU_T41U2
 L  SU_T41U3
 L  SU_T41U4
 L  SU_T41U5
 L  SU_T41U6
 L  SU_T41U7
 L  SU_T41U8
 L  SU_T41U9
 L  SU_T41U10
 L  SU_T41U11
 L  SU_T41U12
 L  SU_T41U13
 L  SU_T41U14
 L  SU_T41U15
 L  SU_T41U16
 L  SU_T41U17
 L  SU_T41U18
 L  SU_T41U19
 L  SU_T41U20
 L  SU_T42U1
 L  SU_T42U2
 L  SU_T42U3
 L  SU_T42U4
 L  SU_T42U5
 L  SU_T42U6
 L  SU_T42U7
 L  SU_T42U8
 L  SU_T42U9
 L  SU_T42U10
 L  SU_T42U11
 L  SU_T42U12
 L  SU_T42U13
 L  SU_T42U14
 L  SU_T42U15
 L  SU_T42U16
 L  SU_T42U17
 L  SU_T42U18
 L  SU_T42U19
 L  SU_T42U20
 L  SU_T43U1
 L  SU_T43U2
 L  SU_T43U3
 L  SU_T43U4
 L  SU_T43U5
 L  SU_T43U6
 L  SU_T43U7
 L  SU_T43U8
 L  SU_T43U9
 L  SU_T43U10
 L  SU_T43U11
 L  SU_T43U12
 L  SU_T43U13
 L  SU_T43U14
 L  SU_T43U15
 L  SU_T43U16
 L  SU_T43U17
 L  SU_T43U18
 L  SU_T43U19
 L  SU_T43U20
 L  SU_T44U1
 L  SU_T44U2
 L  SU_T44U3
 L  SU_T44U4
 L  SU_T44U5
 L  SU_T44U6
 L  SU_T44U7
 L  SU_T44U8
 L  SU_T44U9
 L  SU_T44U10
 L  SU_T44U11
 L  SU_T44U12
 L  SU_T44U13
 L  SU_T44U14
 L  SU_T44U15
 L  SU_T44U16
 L  SU_T44U17
 L  SU_T44U18
 L  SU_T44U19
 L  SU_T44U20
 L  SU_T45U1
 L  SU_T45U2
 L  SU_T45U3
 L  SU_T45U4
 L  SU_T45U5
 L  SU_T45U6
 L  SU_T45U7
 L  SU_T45U8
 L  SU_T45U9
 L  SU_T45U10
 L  SU_T45U11
 L  SU_T45U12
 L  SU_T45U13
 L  SU_T45U14
 L  SU_T45U15
 L  SU_T45U16
 L  SU_T45U17
 L  SU_T45U18
 L  SU_T45U19
 L  SU_T45U20
 L  SU_T46U1
 L  SU_T46U2
 L  SU_T46U3
 L  SU_T46U4
 L  SU_T46U5
 L  SU_T46U6
 L  SU_T46U7
 L  SU_T46U8
 L  SU_T46U9
 L  SU_T46U10
 L  SU_T46U11
 L  SU_T46U12
 L  SU_T46U13
 L  SU_T46U14
 L  SU_T46U15
 L  SU_T46U16
 L  SU_T46U17
 L  SU_T46U18
 L  SU_T46U19
 L  SU_T46U20
 L  SU_T47U1
 L  SU_T47U2
 L  SU_T47U3
 L  SU_T47U4
 L  SU_T47U5
 L  SU_T47U6
 L  SU_T47U7
 L  SU_T47U8
 L  SU_T47U9
 L  SU_T47U10
 L  SU_T47U11
 L  SU_T47U12
 L  SU_T47U13
 L  SU_T47U14
 L  SU_T47U15
 L  SU_T47U16
 L  SU_T47U17
 L  SU_T47U18
 L  SU_T47U19
 L  SU_T47U20
 L  SU_T48U1
 L  SU_T48U2
 L  SU_T48U3
 L  SU_T48U4
 L  SU_T48U5
 L  SU_T48U6
 L  SU_T48U7
 L  SU_T48U8
 L  SU_T48U9
 L  SU_T48U10
 L  SU_T48U11
 L  SU_T48U12
 L  SU_T48U13
 L  SU_T48U14
 L  SU_T48U15
 L  SU_T48U16
 L  SU_T48U17
 L  SU_T48U18
 L  SU_T48U19
 L  SU_T48U20
 L  SU_T49U1
 L  SU_T49U2
 L  SU_T49U3
 L  SU_T49U4
 L  SU_T49U5
 L  SU_T49U6
 L  SU_T49U7
 L  SU_T49U8
 L  SU_T49U9
 L  SU_T49U10
 L  SU_T49U11
 L  SU_T49U12
 L  SU_T49U13
 L  SU_T49U14
 L  SU_T49U15
 L  SU_T49U16
 L  SU_T49U17
 L  SU_T49U18
 L  SU_T49U19
 L  SU_T49U20
 L  SU_T50U1
 L  SU_T50U2
 L  SU_T50U3
 L  SU_T50U4
 L  SU_T50U5
 L  SU_T50U6
 L  SU_T50U7
 L  SU_T50U8
 L  SU_T50U9
 L  SU_T50U10
 L  SU_T50U11
 L  SU_T50U12
 L  SU_T50U13
 L  SU_T50U14
 L  SU_T50U15
 L  SU_T50U16
 L  SU_T50U17
 L  SU_T50U18
 L  SU_T50U19
 L  SU_T50U20
 L  SU_T51U1
 L  SU_T51U2
 L  SU_T51U3
 L  SU_T51U4
 L  SU_T51U5
 L  SU_T51U6
 L  SU_T51U7
 L  SU_T51U8
 L  SU_T51U9
 L  SU_T51U10
 L  SU_T51U11
 L  SU_T51U12
 L  SU_T51U13
 L  SU_T51U14
 L  SU_T51U15
 L  SU_T51U16
 L  SU_T51U17
 L  SU_T51U18
 L  SU_T51U19
 L  SU_T51U20
 L  SU_T52U1
 L  SU_T52U2
 L  SU_T52U3
 L  SU_T52U4
 L  SU_T52U5
 L  SU_T52U6
 L  SU_T52U7
 L  SU_T52U8
 L  SU_T52U9
 L  SU_T52U10
 L  SU_T52U11
 L  SU_T52U12
 L  SU_T52U13
 L  SU_T52U14
 L  SU_T52U15
 L  SU_T52U16
 L  SU_T52U17
 L  SU_T52U18
 L  SU_T52U19
 L  SU_T52U20
 L  SU_T53U1
 L  SU_T53U2
 L  SU_T53U3
 L  SU_T53U4
 L  SU_T53U5
 L  SU_T53U6
 L  SU_T53U7
 L  SU_T53U8
 L  SU_T53U9
 L  SU_T53U10
 L  SU_T53U11
 L  SU_T53U12
 L  SU_T53U13
 L  SU_T53U14
 L  SU_T53U15
 L  SU_T53U16
 L  SU_T53U17
 L  SU_T53U18
 L  SU_T53U19
 L  SU_T53U20
 L  SU_T54U1
 L  SU_T54U2
 L  SU_T54U3
 L  SU_T54U4
 L  SU_T54U5
 L  SU_T54U6
 L  SU_T54U7
 L  SU_T54U8
 L  SU_T54U9
 L  SU_T54U10
 L  SU_T54U11
 L  SU_T54U12
 L  SU_T54U13
 L  SU_T54U14
 L  SU_T54U15
 L  SU_T54U16
 L  SU_T54U17
 L  SU_T54U18
 L  SU_T54U19
 L  SU_T54U20
 L  SU_T55U1
 L  SU_T55U2
 L  SU_T55U3
 L  SU_T55U4
 L  SU_T55U5
 L  SU_T55U6
 L  SU_T55U7
 L  SU_T55U8
 L  SU_T55U9
 L  SU_T55U10
 L  SU_T55U11
 L  SU_T55U12
 L  SU_T55U13
 L  SU_T55U14
 L  SU_T55U15
 L  SU_T55U16
 L  SU_T55U17
 L  SU_T55U18
 L  SU_T55U19
 L  SU_T55U20
 L  SU_T56U1
 L  SU_T56U2
 L  SU_T56U3
 L  SU_T56U4
 L  SU_T56U5
 L  SU_T56U6
 L  SU_T56U7
 L  SU_T56U8
 L  SU_T56U9
 L  SU_T56U10
 L  SU_T56U11
 L  SU_T56U12
 L  SU_T56U13
 L  SU_T56U14
 L  SU_T56U15
 L  SU_T56U16
 L  SU_T56U17
 L  SU_T56U18
 L  SU_T56U19
 L  SU_T56U20
 L  SU_T57U1
 L  SU_T57U2
 L  SU_T57U3
 L  SU_T57U4
 L  SU_T57U5
 L  SU_T57U6
 L  SU_T57U7
 L  SU_T57U8
 L  SU_T57U9
 L  SU_T57U10
 L  SU_T57U11
 L  SU_T57U12
 L  SU_T57U13
 L  SU_T57U14
 L  SU_T57U15
 L  SU_T57U16
 L  SU_T57U17
 L  SU_T57U18
 L  SU_T57U19
 L  SU_T57U20
 L  SU_T58U1
 L  SU_T58U2
 L  SU_T58U3
 L  SU_T58U4
 L  SU_T58U5
 L  SU_T58U6
 L  SU_T58U7
 L  SU_T58U8
 L  SU_T58U9
 L  SU_T58U10
 L  SU_T58U11
 L  SU_T58U12
 L  SU_T58U13
 L  SU_T58U14
 L  SU_T58U15
 L  SU_T58U16
 L  SU_T58U17
 L  SU_T58U18
 L  SU_T58U19
 L  SU_T58U20
 L  SU_T59U1
 L  SU_T59U2
 L  SU_T59U3
 L  SU_T59U4
 L  SU_T59U5
 L  SU_T59U6
 L  SU_T59U7
 L  SU_T59U8
 L  SU_T59U9
 L  SU_T59U10
 L  SU_T59U11
 L  SU_T59U12
 L  SU_T59U13
 L  SU_T59U14
 L  SU_T59U15
 L  SU_T59U16
 L  SU_T59U17
 L  SU_T59U18
 L  SU_T59U19
 L  SU_T59U20
 L  SU_T60U1
 L  SU_T60U2
 L  SU_T60U3
 L  SU_T60U4
 L  SU_T60U5
 L  SU_T60U6
 L  SU_T60U7
 L  SU_T60U8
 L  SU_T60U9
 L  SU_T60U10
 L  SU_T60U11
 L  SU_T60U12
 L  SU_T60U13
 L  SU_T60U14
 L  SU_T60U15
 L  SU_T60U16
 L  SU_T60U17
 L  SU_T60U18
 L  SU_T60U19
 L  SU_T60U20
 L  SU_T61U1
 L  SU_T61U2
 L  SU_T61U3
 L  SU_T61U4
 L  SU_T61U5
 L  SU_T61U6
 L  SU_T61U7
 L  SU_T61U8
 L  SU_T61U9
 L  SU_T61U10
 L  SU_T61U11
 L  SU_T61U12
 L  SU_T61U13
 L  SU_T61U14
 L  SU_T61U15
 L  SU_T61U16
 L  SU_T61U17
 L  SU_T61U18
 L  SU_T61U19
 L  SU_T61U20
 L  SU_T62U1
 L  SU_T62U2
 L  SU_T62U3
 L  SU_T62U4
 L  SU_T62U5
 L  SU_T62U6
 L  SU_T62U7
 L  SU_T62U8
 L  SU_T62U9
 L  SU_T62U10
 L  SU_T62U11
 L  SU_T62U12
 L  SU_T62U13
 L  SU_T62U14
 L  SU_T62U15
 L  SU_T62U16
 L  SU_T62U17
 L  SU_T62U18
 L  SU_T62U19
 L  SU_T62U20
 L  SU_T63U1
 L  SU_T63U2
 L  SU_T63U3
 L  SU_T63U4
 L  SU_T63U5
 L  SU_T63U6
 L  SU_T63U7
 L  SU_T63U8
 L  SU_T63U9
 L  SU_T63U10
 L  SU_T63U11
 L  SU_T63U12
 L  SU_T63U13
 L  SU_T63U14
 L  SU_T63U15
 L  SU_T63U16
 L  SU_T63U17
 L  SU_T63U18
 L  SU_T63U19
 L  SU_T63U20
 L  SU_T64U1
 L  SU_T64U2
 L  SU_T64U3
 L  SU_T64U4
 L  SU_T64U5
 L  SU_T64U6
 L  SU_T64U7
 L  SU_T64U8
 L  SU_T64U9
 L  SU_T64U10
 L  SU_T64U11
 L  SU_T64U12
 L  SU_T64U13
 L  SU_T64U14
 L  SU_T64U15
 L  SU_T64U16
 L  SU_T64U17
 L  SU_T64U18
 L  SU_T64U19
 L  SU_T64U20
 L  SU_T65U1
 L  SU_T65U2
 L  SU_T65U3
 L  SU_T65U4
 L  SU_T65U5
 L  SU_T65U6
 L  SU_T65U7
 L  SU_T65U8
 L  SU_T65U9
 L  SU_T65U10
 L  SU_T65U11
 L  SU_T65U12
 L  SU_T65U13
 L  SU_T65U14
 L  SU_T65U15
 L  SU_T65U16
 L  SU_T65U17
 L  SU_T65U18
 L  SU_T65U19
 L  SU_T65U20
 L  SU_T66U1
 L  SU_T66U2
 L  SU_T66U3
 L  SU_T66U4
 L  SU_T66U5
 L  SU_T66U6
 L  SU_T66U7
 L  SU_T66U8
 L  SU_T66U9
 L  SU_T66U10
 L  SU_T66U11
 L  SU_T66U12
 L  SU_T66U13
 L  SU_T66U14
 L  SU_T66U15
 L  SU_T66U16
 L  SU_T66U17
 L  SU_T66U18
 L  SU_T66U19
 L  SU_T66U20
 L  SU_T67U1
 L  SU_T67U2
 L  SU_T67U3
 L  SU_T67U4
 L  SU_T67U5
 L  SU_T67U6
 L  SU_T67U7
 L  SU_T67U8
 L  SU_T67U9
 L  SU_T67U10
 L  SU_T67U11
 L  SU_T67U12
 L  SU_T67U13
 L  SU_T67U14
 L  SU_T67U15
 L  SU_T67U16
 L  SU_T67U17
 L  SU_T67U18
 L  SU_T67U19
 L  SU_T67U20
 L  SU_T68U1
 L  SU_T68U2
 L  SU_T68U3
 L  SU_T68U4
 L  SU_T68U5
 L  SU_T68U6
 L  SU_T68U7
 L  SU_T68U8
 L  SU_T68U9
 L  SU_T68U10
 L  SU_T68U11
 L  SU_T68U12
 L  SU_T68U13
 L  SU_T68U14
 L  SU_T68U15
 L  SU_T68U16
 L  SU_T68U17
 L  SU_T68U18
 L  SU_T68U19
 L  SU_T68U20
 L  SU_T69U1
 L  SU_T69U2
 L  SU_T69U3
 L  SU_T69U4
 L  SU_T69U5
 L  SU_T69U6
 L  SU_T69U7
 L  SU_T69U8
 L  SU_T69U9
 L  SU_T69U10
 L  SU_T69U11
 L  SU_T69U12
 L  SU_T69U13
 L  SU_T69U14
 L  SU_T69U15
 L  SU_T69U16
 L  SU_T69U17
 L  SU_T69U18
 L  SU_T69U19
 L  SU_T69U20
 L  SU_T70U1
 L  SU_T70U2
 L  SU_T70U3
 L  SU_T70U4
 L  SU_T70U5
 L  SU_T70U6
 L  SU_T70U7
 L  SU_T70U8
 L  SU_T70U9
 L  SU_T70U10
 L  SU_T70U11
 L  SU_T70U12
 L  SU_T70U13
 L  SU_T70U14
 L  SU_T70U15
 L  SU_T70U16
 L  SU_T70U17
 L  SU_T70U18
 L  SU_T70U19
 L  SU_T70U20
 L  SU_T71U1
 L  SU_T71U2
 L  SU_T71U3
 L  SU_T71U4
 L  SU_T71U5
 L  SU_T71U6
 L  SU_T71U7
 L  SU_T71U8
 L  SU_T71U9
 L  SU_T71U10
 L  SU_T71U11
 L  SU_T71U12
 L  SU_T71U13
 L  SU_T71U14
 L  SU_T71U15
 L  SU_T71U16
 L  SU_T71U17
 L  SU_T71U18
 L  SU_T71U19
 L  SU_T71U20
 L  SU_T72U1
 L  SU_T72U2
 L  SU_T72U3
 L  SU_T72U4
 L  SU_T72U5
 L  SU_T72U6
 L  SU_T72U7
 L  SU_T72U8
 L  SU_T72U9
 L  SU_T72U10
 L  SU_T72U11
 L  SU_T72U12
 L  SU_T72U13
 L  SU_T72U14
 L  SU_T72U15
 L  SU_T72U16
 L  SU_T72U17
 L  SU_T72U18
 L  SU_T72U19
 L  SU_T72U20
 L  SU_T73U1
 L  SU_T73U2
 L  SU_T73U3
 L  SU_T73U4
 L  SU_T73U5
 L  SU_T73U6
 L  SU_T73U7
 L  SU_T73U8
 L  SU_T73U9
 L  SU_T73U10
 L  SU_T73U11
 L  SU_T73U12
 L  SU_T73U13
 L  SU_T73U14
 L  SU_T73U15
 L  SU_T73U16
 L  SU_T73U17
 L  SU_T73U18
 L  SU_T73U19
 L  SU_T73U20
 L  SU_T74U1
 L  SU_T74U2
 L  SU_T74U3
 L  SU_T74U4
 L  SU_T74U5
 L  SU_T74U6
 L  SU_T74U7
 L  SU_T74U8
 L  SU_T74U9
 L  SU_T74U10
 L  SU_T74U11
 L  SU_T74U12
 L  SU_T74U13
 L  SU_T74U14
 L  SU_T74U15
 L  SU_T74U16
 L  SU_T74U17
 L  SU_T74U18
 L  SU_T74U19
 L  SU_T74U20
 L  SU_T75U1
 L  SU_T75U2
 L  SU_T75U3
 L  SU_T75U4
 L  SU_T75U5
 L  SU_T75U6
 L  SU_T75U7
 L  SU_T75U8
 L  SU_T75U9
 L  SU_T75U10
 L  SU_T75U11
 L  SU_T75U12
 L  SU_T75U13
 L  SU_T75U14
 L  SU_T75U15
 L  SU_T75U16
 L  SU_T75U17
 L  SU_T75U18
 L  SU_T75U19
 L  SU_T75U20
 L  SU_T76U1
 L  SU_T76U2
 L  SU_T76U3
 L  SU_T76U4
 L  SU_T76U5
 L  SU_T76U6
 L  SU_T76U7
 L  SU_T76U8
 L  SU_T76U9
 L  SU_T76U10
 L  SU_T76U11
 L  SU_T76U12
 L  SU_T76U13
 L  SU_T76U14
 L  SU_T76U15
 L  SU_T76U16
 L  SU_T76U17
 L  SU_T76U18
 L  SU_T76U19
 L  SU_T76U20
 L  SU_T77U1
 L  SU_T77U2
 L  SU_T77U3
 L  SU_T77U4
 L  SU_T77U5
 L  SU_T77U6
 L  SU_T77U7
 L  SU_T77U8
 L  SU_T77U9
 L  SU_T77U10
 L  SU_T77U11
 L  SU_T77U12
 L  SU_T77U13
 L  SU_T77U14
 L  SU_T77U15
 L  SU_T77U16
 L  SU_T77U17
 L  SU_T77U18
 L  SU_T77U19
 L  SU_T77U20
 L  SU_T78U1
 L  SU_T78U2
 L  SU_T78U3
 L  SU_T78U4
 L  SU_T78U5
 L  SU_T78U6
 L  SU_T78U7
 L  SU_T78U8
 L  SU_T78U9
 L  SU_T78U10
 L  SU_T78U11
 L  SU_T78U12
 L  SU_T78U13
 L  SU_T78U14
 L  SU_T78U15
 L  SU_T78U16
 L  SU_T78U17
 L  SU_T78U18
 L  SU_T78U19
 L  SU_T78U20
 L  SU_T79U1
 L  SU_T79U2
 L  SU_T79U3
 L  SU_T79U4
 L  SU_T79U5
 L  SU_T79U6
 L  SU_T79U7
 L  SU_T79U8
 L  SU_T79U9
 L  SU_T79U10
 L  SU_T79U11
 L  SU_T79U12
 L  SU_T79U13
 L  SU_T79U14
 L  SU_T79U15
 L  SU_T79U16
 L  SU_T79U17
 L  SU_T79U18
 L  SU_T79U19
 L  SU_T79U20
 L  SU_T80U1
 L  SU_T80U2
 L  SU_T80U3
 L  SU_T80U4
 L  SU_T80U5
 L  SU_T80U6
 L  SU_T80U7
 L  SU_T80U8
 L  SU_T80U9
 L  SU_T80U10
 L  SU_T80U11
 L  SU_T80U12
 L  SU_T80U13
 L  SU_T80U14
 L  SU_T80U15
 L  SU_T80U16
 L  SU_T80U17
 L  SU_T80U18
 L  SU_T80U19
 L  SU_T80U20
 L  SU_T81U1
 L  SU_T81U2
 L  SU_T81U3
 L  SU_T81U4
 L  SU_T81U5
 L  SU_T81U6
 L  SU_T81U7
 L  SU_T81U8
 L  SU_T81U9
 L  SU_T81U10
 L  SU_T81U11
 L  SU_T81U12
 L  SU_T81U13
 L  SU_T81U14
 L  SU_T81U15
 L  SU_T81U16
 L  SU_T81U17
 L  SU_T81U18
 L  SU_T81U19
 L  SU_T81U20
 L  SU_T82U1
 L  SU_T82U2
 L  SU_T82U3
 L  SU_T82U4
 L  SU_T82U5
 L  SU_T82U6
 L  SU_T82U7
 L  SU_T82U8
 L  SU_T82U9
 L  SU_T82U10
 L  SU_T82U11
 L  SU_T82U12
 L  SU_T82U13
 L  SU_T82U14
 L  SU_T82U15
 L  SU_T82U16
 L  SU_T82U17
 L  SU_T82U18
 L  SU_T82U19
 L  SU_T82U20
 L  SU_T83U1
 L  SU_T83U2
 L  SU_T83U3
 L  SU_T83U4
 L  SU_T83U5
 L  SU_T83U6
 L  SU_T83U7
 L  SU_T83U8
 L  SU_T83U9
 L  SU_T83U10
 L  SU_T83U11
 L  SU_T83U12
 L  SU_T83U13
 L  SU_T83U14
 L  SU_T83U15
 L  SU_T83U16
 L  SU_T83U17
 L  SU_T83U18
 L  SU_T83U19
 L  SU_T83U20
 L  SU_T84U1
 L  SU_T84U2
 L  SU_T84U3
 L  SU_T84U4
 L  SU_T84U5
 L  SU_T84U6
 L  SU_T84U7
 L  SU_T84U8
 L  SU_T84U9
 L  SU_T84U10
 L  SU_T84U11
 L  SU_T84U12
 L  SU_T84U13
 L  SU_T84U14
 L  SU_T84U15
 L  SU_T84U16
 L  SU_T84U17
 L  SU_T84U18
 L  SU_T84U19
 L  SU_T84U20
 L  SU_T85U1
 L  SU_T85U2
 L  SU_T85U3
 L  SU_T85U4
 L  SU_T85U5
 L  SU_T85U6
 L  SU_T85U7
 L  SU_T85U8
 L  SU_T85U9
 L  SU_T85U10
 L  SU_T85U11
 L  SU_T85U12
 L  SU_T85U13
 L  SU_T85U14
 L  SU_T85U15
 L  SU_T85U16
 L  SU_T85U17
 L  SU_T85U18
 L  SU_T85U19
 L  SU_T85U20
 L  SU_T86U1
 L  SU_T86U2
 L  SU_T86U3
 L  SU_T86U4
 L  SU_T86U5
 L  SU_T86U6
 L  SU_T86U7
 L  SU_T86U8
 L  SU_T86U9
 L  SU_T86U10
 L  SU_T86U11
 L  SU_T86U12
 L  SU_T86U13
 L  SU_T86U14
 L  SU_T86U15
 L  SU_T86U16
 L  SU_T86U17
 L  SU_T86U18
 L  SU_T86U19
 L  SU_T86U20
 L  SU_T87U1
 L  SU_T87U2
 L  SU_T87U3
 L  SU_T87U4
 L  SU_T87U5
 L  SU_T87U6
 L  SU_T87U7
 L  SU_T87U8
 L  SU_T87U9
 L  SU_T87U10
 L  SU_T87U11
 L  SU_T87U12
 L  SU_T87U13
 L  SU_T87U14
 L  SU_T87U15
 L  SU_T87U16
 L  SU_T87U17
 L  SU_T87U18
 L  SU_T87U19
 L  SU_T87U20
 L  SU_T88U1
 L  SU_T88U2
 L  SU_T88U3
 L  SU_T88U4
 L  SU_T88U5
 L  SU_T88U6
 L  SU_T88U7
 L  SU_T88U8
 L  SU_T88U9
 L  SU_T88U10
 L  SU_T88U11
 L  SU_T88U12
 L  SU_T88U13
 L  SU_T88U14
 L  SU_T88U15
 L  SU_T88U16
 L  SU_T88U17
 L  SU_T88U18
 L  SU_T88U19
 L  SU_T88U20
 L  SU_T89U1
 L  SU_T89U2
 L  SU_T89U3
 L  SU_T89U4
 L  SU_T89U5
 L  SU_T89U6
 L  SU_T89U7
 L  SU_T89U8
 L  SU_T89U9
 L  SU_T89U10
 L  SU_T89U11
 L  SU_T89U12
 L  SU_T89U13
 L  SU_T89U14
 L  SU_T89U15
 L  SU_T89U16
 L  SU_T89U17
 L  SU_T89U18
 L  SU_T89U19
 L  SU_T89U20
 L  SU_T90U1
 L  SU_T90U2
 L  SU_T90U3
 L  SU_T90U4
 L  SU_T90U5
 L  SU_T90U6
 L  SU_T90U7
 L  SU_T90U8
 L  SU_T90U9
 L  SU_T90U10
 L  SU_T90U11
 L  SU_T90U12
 L  SU_T90U13
 L  SU_T90U14
 L  SU_T90U15
 L  SU_T90U16
 L  SU_T90U17
 L  SU_T90U18
 L  SU_T90U19
 L  SU_T90U20
 L  SU_T91U1
 L  SU_T91U2
 L  SU_T91U3
 L  SU_T91U4
 L  SU_T91U5
 L  SU_T91U6
 L  SU_T91U7
 L  SU_T91U8
 L  SU_T91U9
 L  SU_T91U10
 L  SU_T91U11
 L  SU_T91U12
 L  SU_T91U13
 L  SU_T91U14
 L  SU_T91U15
 L  SU_T91U16
 L  SU_T91U17
 L  SU_T91U18
 L  SU_T91U19
 L  SU_T91U20
 L  SU_T92U1
 L  SU_T92U2
 L  SU_T92U3
 L  SU_T92U4
 L  SU_T92U5
 L  SU_T92U6
 L  SU_T92U7
 L  SU_T92U8
 L  SU_T92U9
 L  SU_T92U10
 L  SU_T92U11
 L  SU_T92U12
 L  SU_T92U13
 L  SU_T92U14
 L  SU_T92U15
 L  SU_T92U16
 L  SU_T92U17
 L  SU_T92U18
 L  SU_T92U19
 L  SU_T92U20
 L  SU_T93U1
 L  SU_T93U2
 L  SU_T93U3
 L  SU_T93U4
 L  SU_T93U5
 L  SU_T93U6
 L  SU_T93U7
 L  SU_T93U8
 L  SU_T93U9
 L  SU_T93U10
 L  SU_T93U11
 L  SU_T93U12
 L  SU_T93U13
 L  SU_T93U14
 L  SU_T93U15
 L  SU_T93U16
 L  SU_T93U17
 L  SU_T93U18
 L  SU_T93U19
 L  SU_T93U20
 L  SU_T94U1
 L  SU_T94U2
 L  SU_T94U3
 L  SU_T94U4
 L  SU_T94U5
 L  SU_T94U6
 L  SU_T94U7
 L  SU_T94U8
 L  SU_T94U9
 L  SU_T94U10
 L  SU_T94U11
 L  SU_T94U12
 L  SU_T94U13
 L  SU_T94U14
 L  SU_T94U15
 L  SU_T94U16
 L  SU_T94U17
 L  SU_T94U18
 L  SU_T94U19
 L  SU_T94U20
 L  SU_T95U1
 L  SU_T95U2
 L  SU_T95U3
 L  SU_T95U4
 L  SU_T95U5
 L  SU_T95U6
 L  SU_T95U7
 L  SU_T95U8
 L  SU_T95U9
 L  SU_T95U10
 L  SU_T95U11
 L  SU_T95U12
 L  SU_T95U13
 L  SU_T95U14
 L  SU_T95U15
 L  SU_T95U16
 L  SU_T95U17
 L  SU_T95U18
 L  SU_T95U19
 L  SU_T95U20
 L  SU_T96U1
 L  SU_T96U2
 L  SU_T96U3
 L  SU_T96U4
 L  SU_T96U5
 L  SU_T96U6
 L  SU_T96U7
 L  SU_T96U8
 L  SU_T96U9
 L  SU_T96U10
 L  SU_T96U11
 L  SU_T96U12
 L  SU_T96U13
 L  SU_T96U14
 L  SU_T96U15
 L  SU_T96U16
 L  SU_T96U17
 L  SU_T96U18
 L  SU_T96U19
 L  SU_T96U20
COLUMNS
    MARK0000  'MARKER'                 'INTORG'
    X_T1U1  COST  33.8963  DEM_T1  1
    X_T1U1  SU_T1U1  1  SU_T2U1  -1
    X_T1U2  COST  33.3907  DEM_T1  1
    X_T1U2  SU_T1U2  1  SU_T2U2  -1
    X_T1U3  COST  23.375  DEM_T1  1
    X_T1U3  SU_T1U3  1  SU_T2U3  -1
    X_T1U4  COST  23.7775  DEM_T1  1
    X_T1U4  SU_T1U4  1  SU_T2U4  -1
    X_T1U5  COST  14.286  DEM_T1  1
    X_T1U5  SU_T1U5  1  SU_T2U5  -1
    X_T1U6  COST  11.6923  DEM_T1  1
    X_T1U6  SU_T1U6  1  SU_T2U6  -1
    X_T1U7  COST  38.1566  DEM_T1  1
    X_T1U7  SU_T1U7  1  SU_T2U7  -1
    X_T1U8  COST  39.7663  DEM_T1  1
    X_T1U8  SU_T1U8  1  SU_T2U8  -1
    X_T1U9  COST  28.3496  DEM_T1  1
    X_T1U9  SU_T1U9  1  SU_T2U9  -1
    X_T1U10  COST  10.6919  DEM_T1  1
    X_T1U10  SU_T1U10  1  SU_T2U10  -1
    X_T1U11  COST  21.9958  DEM_T1  1
    X_T1U11  SU_T1U11  1  SU_T2U11  -1
    X_T1U12  COST  39.2127  DEM_T1  1
    X_T1U12  SU_T1U12  1  SU_T2U12  -1
    X_T1U13  COST  12.7182  DEM_T1  1
    X_T1U13  SU_T1U13  1  SU_T2U13  -1
    X_T1U14  COST  21.4739  DEM_T1  1
    X_T1U14  SU_T1U14  1  SU_T2U14  -1
    X_T1U15  COST  24.0029  DEM_T1  1
    X_T1U15  SU_T1U15  1  SU_T2U15  -1
    X_T1U16  COST  30.4092  DEM_T1  1
    X_T1U16  SU_T1U16  1  SU_T2U16  -1
    X_T1U17  COST  10.3979  DEM_T1  1
    X_T1U17  SU_T1U17  1  SU_T2U17  -1
    X_T1U18  COST  26.8986  DEM_T1  1
    X_T1U18  SU_T1U18  1  SU_T2U18  -1
    X_T1U19  COST  10.479  DEM_T1  1
    X_T1U19  SU_T1U19  1  SU_T2U19  -1
    X_T1U20  COST  17.2308  DEM_T1  1
    X_T1U20  SU_T1U20  1  SU_T2U20  -1
    X_T2U1  COST  28.2999  DEM_T2  1
    X_T2U1  SU_T2U1  1  SU_T3U1  -1
    X_T2U2  COST  15.2009  DEM_T2  1
    X_T2U2  SU_T2U2  1  SU_T3U2  -1
    X_T2U3  COST  15.4671  DEM_T2  1
    X_T2U3  SU_T2U3  1  SU_T3U3  -1
    X_T2U4  COST  22.7547  DEM_T2  1
    X_T2U4  SU_T2U4  1  SU_T3U4  -1
    X_T2U5  COST  27.031  DEM_T2  1
    X_T2U5  SU_T2U5  1  SU_T3U5  -1
    X_T2U6  COST  35.2685  DEM_T2  1
    X_T2U6  SU_T2U6  1  SU_T3U6  -1
    X_T2U7  COST  21.8545  DEM_T2  1
    X_T2U7  SU_T2U7  1  SU_T3U7  -1
    X_T2U8  COST  31.8182  DEM_T2  1
    X_T2U8  SU_T2U8  1  SU_T3U8  -1
    X_T2U9  COST  27.1133  DEM_T2  1
    X_T2U9  SU_T2U9  1  SU_T3U9  -1
    X_T2U10  COST  38.8352  DEM_T2  1
    X_T2U10  SU_T2U10  1  SU_T3U10  -1
    X_T2U11  COST  32.4196  DEM_T2  1
    X_T2U11  SU_T2U11  1  SU_T3U11  -1
    X_T2U12  COST  27.6025  DEM_T2  1
    X_T2U12  SU_T2U12  1  SU_T3U12  -1
    X_T2U13  COST  28.211  DEM_T2  1
    X_T2U13  SU_T2U13  1  SU_T3U13  -1
    X_T2U14  COST  18.8882  DEM_T2  1
    X_T2U14  SU_T2U14  1  SU_T3U14  -1
    X_T2U15  COST  10.4691  DEM_T2  1
    X_T2U15  SU_T2U15  1  SU_T3U15  -1
    X_T2U16  COST  21.8464  DEM_T2  1
    X_T2U16  SU_T2U16  1  SU_T3U16  -1
    X_T2U17  COST  10.4224  DEM_T2  1
    X_T2U17  SU_T2U17  1  SU_T3U17  -1
    X_T2U18  COST  31.3403  DEM_T2  1
    X_T2U18  SU_T2U18  1  SU_T3U18  -1
    X_T2U19  COST  28.1788  DEM_T2  1
    X_T2U19  SU_T2U19  1  SU_T3U19  -1
    X_T2U20  COST  29.5323  DEM_T2  1
    X_T2U20  SU_T2U20  1  SU_T3U20  -1
    X_T3U1  COST  35.5012  DEM_T3  1
    X_T3U1  SU_T3U1  1  SU_T4U1  -1
    X_T3U2  COST  12.8623  DEM_T3  1
    X_T3U2  SU_T3U2  1  SU_T4U2  -1
    X_T3U3  COST  30.0652  DEM_T3  1
    X_T3U3  SU_T3U3  1  SU_T4U3  -1
    X_T3U4  COST  27.7389  DEM_T3  1
    X_T3U4  SU_T3U4  1  SU_T4U4  -1
    X_T3U5  COST  26.8373  DEM_T3  1
    X_T3U5  SU_T3U5  1  SU_T4U5  -1
    X_T3U6  COST  39.1514  DEM_T3  1
    X_T3U6  SU_T3U6  1  SU_T4U6  -1
    X_T3U7  COST  31.6519  DEM_T3  1
    X_T3U7  SU_T3U7  1  SU_T4U7  -1
    X_T3U8  COST  17.682  DEM_T3  1
    X_T3U8  SU_T3U8  1  SU_T4U8  -1
    X_T3U9  COST  31.3199  DEM_T3  1
    X_T3U9  SU_T3U9  1  SU_T4U9  -1
    X_T3U10  COST  23.1801  DEM_T3  1
    X_T3U10  SU_T3U10  1  SU_T4U10  -1
    X_T3U11  COST  36.8729  DEM_T3  1
    X_T3U11  SU_T3U11  1  SU_T4U11  -1
    X_T3U12  COST  26.8983  DEM_T3  1
    X_T3U12  SU_T3U12  1  SU_T4U12  -1
    X_T3U13  COST  14.1799  DEM_T3  1
    X_T3U13  SU_T3U13  1  SU_T4U13  -1
    X_T3U14  COST  26.1952  DEM_T3  1
    X_T3U14  SU_T3U14  1  SU_T4U14  -1
    X_T3U15  COST  38.2856  DEM_T3  1
    X_T3U15  SU_T3U15  1  SU_T4U15  -1
    X_T3U16  COST  30.8435  DEM_T3  1
    X_T3U16  SU_T3U16  1  SU_T4U16  -1
    X_T3U17  COST  28.7306  DEM_T3  1
    X_T3U17  SU_T3U17  1  SU_T4U17  -1
    X_T3U18  COST  13.1648  DEM_T3  1
    X_T3U18  SU_T3U18  1  SU_T4U18  -1
    X_T3U19  COST  16.5532  DEM_T3  1
    X_T3U19  SU_T3U19  1  SU_T4U19  -1
    X_T3U20  COST  36.4984  DEM_T3  1
    X_T3U20  SU_T3U20  1  SU_T4U20  -1
    X_T4U1  COST  13.6626  DEM_T4  1
    X_T4U1  SU_T4U1  1  SU_T5U1  -1
    X_T4U2  COST  37.2049  DEM_T4  1
    X_T4U2  SU_T4U2  1  SU_T5U2  -1
    X_T4U3  COST  29.4307  DEM_T4  1
    X_T4U3  SU_T4U3  1  SU_T5U3  -1
    X_T4U4  COST  20.5771  DEM_T4  1
    X_T4U4  SU_T4U4  1  SU_T5U4  -1
    X_T4U5  COST  14.9397  DEM_T4  1
    X_T4U5  SU_T4U5  1  SU_T5U5  -1
    X_T4U6  COST  24.5449  DEM_T4  1
    X_T4U6  SU_T4U6  1  SU_T5U6  -1
    X_T4U7  COST  18.0824  DEM_T4  1
    X_T4U7  SU_T4U7  1  SU_T5U7  -1
    X_T4U8  COST  15.0487  DEM_T4  1
    X_T4U8  SU_T4U8  1  SU_T5U8  -1
    X_T4U9  COST  26.7431  DEM_T4  1
    X_T4U9  SU_T4U9  1  SU_T5U9  -1
    X_T4U10  COST  11.9468  DEM_T4  1
    X_T4U10  SU_T4U10  1  SU_T5U10  -1
    X_T4U11  COST  17.4063  DEM_T4  1
    X_T4U11  SU_T4U11  1  SU_T5U11  -1
    X_T4U12  COST  31.3681  DEM_T4  1
    X_T4U12  SU_T4U12  1  SU_T5U12  -1
    X_T4U13  COST  39.9322  DEM_T4  1
    X_T4U13  SU_T4U13  1  SU_T5U13  -1
    X_T4U14  COST  39.2984  DEM_T4  1
    X_T4U14  SU_T4U14  1  SU_T5U14  -1
    X_T4U15  COST  10.9915  DEM_T4  1
    X_T4U15  SU_T4U15  1  SU_T5U15  -1
    X_T4U16  COST  29.0305  DEM_T4  1
    X_T4U16  SU_T4U16  1  SU_T5U16  -1
    X_T4U17  COST  25.928  DEM_T4  1
    X_T4U17  SU_T4U17  1  SU_T5U17  -1
    X_T4U18  COST  26.5868  DEM_T4  1
    X_T4U18  SU_T4U18  1  SU_T5U18  -1
    X_T4U19  COST  12.4256  DEM_T4  1
    X_T4U19  SU_T4U19  1  SU_T5U19  -1
    X_T4U20  COST  17.2648  DEM_T4  1
    X_T4U20  SU_T4U20  1  SU_T5U20  -1
    X_T5U1  COST  24.109  DEM_T5  1
    X_T5U1  SU_T5U1  1  SU_T6U1  -1
    X_T5U2  COST  21.9647  DEM_T5  1
    X_T5U2  SU_T5U2  1  SU_T6U2  -1
    X_T5U3  COST  33.9504  DEM_T5  1
    X_T5U3  SU_T5U3  1  SU_T6U3  -1
    X_T5U4  COST  25.246  DEM_T5  1
    X_T5U4  SU_T5U4  1  SU_T6U4  -1
    X_T5U5  COST  35.7508  DEM_T5  1
    X_T5U5  SU_T5U5  1  SU_T6U5  -1
    X_T5U6  COST  16.6072  DEM_T5  1
    X_T5U6  SU_T5U6  1  SU_T6U6  -1
    X_T5U7  COST  34.285  DEM_T5  1
    X_T5U7  SU_T5U7  1  SU_T6U7  -1
    X_T5U8  COST  12.8853  DEM_T5  1
    X_T5U8  SU_T5U8  1  SU_T6U8  -1
    X_T5U9  COST  21.9272  DEM_T5  1
    X_T5U9  SU_T5U9  1  SU_T6U9  -1
    X_T5U10  COST  35.1313  DEM_T5  1
    X_T5U10  SU_T5U10  1  SU_T6U10  -1
    X_T5U11  COST  32.0565  DEM_T5  1
    X_T5U11  SU_T5U11  1  SU_T6U11  -1
    X_T5U12  COST  26.2434  DEM_T5  1
    X_T5U12  SU_T5U12  1  SU_T6U12  -1
    X_T5U13  COST  16.8565  DEM_T5  1
    X_T5U13  SU_T5U13  1  SU_T6U13  -1
    X_T5U14  COST  39.4651  DEM_T5  1
    X_T5U14  SU_T5U14  1  SU_T6U14  -1
    X_T5U15  COST  17.8249  DEM_T5  1
    X_T5U15  SU_T5U15  1  SU_T6U15  -1
    X_T5U16  COST  38.9626  DEM_T5  1
    X_T5U16  SU_T5U16  1  SU_T6U16  -1
    X_T5U17  COST  36.4791  DEM_T5  1
    X_T5U17  SU_T5U17  1  SU_T6U17  -1
    X_T5U18  COST  18.3661  DEM_T5  1
    X_T5U18  SU_T5U18  1  SU_T6U18  -1
    X_T5U19  COST  35.3998  DEM_T5  1
    X_T5U19  SU_T5U19  1  SU_T6U19  -1
    X_T5U20  COST  22.1352  DEM_T5  1
    X_T5U20  SU_T5U20  1  SU_T6U20  -1
    X_T6U1  COST  35.5279  DEM_T6  1
    X_T6U1  SU_T6U1  1  SU_T7U1  -1
    X_T6U2  COST  33.5602  DEM_T6  1
    X_T6U2  SU_T6U2  1  SU_T7U2  -1
    X_T6U3  COST  27.4206  DEM_T6  1
    X_T6U3  SU_T6U3  1  SU_T7U3  -1
    X_T6U4  COST  38.204  DEM_T6  1
    X_T6U4  SU_T6U4  1  SU_T7U4  -1
    X_T6U5  COST  18.5176  DEM_T6  1
    X_T6U5  SU_T6U5  1  SU_T7U5  -1
    X_T6U6  COST  24.5684  DEM_T6  1
    X_T6U6  SU_T6U6  1  SU_T7U6  -1
    X_T6U7  COST  39.8337  DEM_T6  1
    X_T6U7  SU_T6U7  1  SU_T7U7  -1
    X_T6U8  COST  10.5423  DEM_T6  1
    X_T6U8  SU_T6U8  1  SU_T7U8  -1
    X_T6U9  COST  15.3647  DEM_T6  1
    X_T6U9  SU_T6U9  1  SU_T7U9  -1
    X_T6U10  COST  32.3251  DEM_T6  1
    X_T6U10  SU_T6U10  1  SU_T7U10  -1
    X_T6U11  COST  19.2418  DEM_T6  1
    X_T6U11  SU_T6U11  1  SU_T7U11  -1
    X_T6U12  COST  25.2644  DEM_T6  1
    X_T6U12  SU_T6U12  1  SU_T7U12  -1
    X_T6U13  COST  17.5139  DEM_T6  1
    X_T6U13  SU_T6U13  1  SU_T7U13  -1
    X_T6U14  COST  39.3668  DEM_T6  1
    X_T6U14  SU_T6U14  1  SU_T7U14  -1
    X_T6U15  COST  37.183  DEM_T6  1
    X_T6U15  SU_T6U15  1  SU_T7U15  -1
    X_T6U16  COST  20.5024  DEM_T6  1
    X_T6U16  SU_T6U16  1  SU_T7U16  -1
    X_T6U17  COST  30.0677  DEM_T6  1
    X_T6U17  SU_T6U17  1  SU_T7U17  -1
    X_T6U18  COST  16.9056  DEM_T6  1
    X_T6U18  SU_T6U18  1  SU_T7U18  -1
    X_T6U19  COST  27.1601  DEM_T6  1
    X_T6U19  SU_T6U19  1  SU_T7U19  -1
    X_T6U20  COST  11.3081  DEM_T6  1
    X_T6U20  SU_T6U20  1  SU_T7U20  -1
    X_T7U1  COST  24.0983  DEM_T7  1
    X_T7U1  SU_T7U1  1  SU_T8U1  -1
    X_T7U2  COST  36.5048  DEM_T7  1
    X_T7U2  SU_T7U2  1  SU_T8U2  -1
    X_T7U3  COST  38.5922  DEM_T7  1
    X_T7U3  SU_T7U3  1  SU_T8U3  -1
    X_T7U4  COST  26.5829  DEM_T7  1
    X_T7U4  SU_T7U4  1  SU_T8U4  -1
    X_T7U5  COST  39.4099  DEM_T7  1
    X_T7U5  SU_T7U5  1  SU_T8U5  -1
    X_T7U6  COST  19.1709  DEM_T7  1
    X_T7U6  SU_T7U6  1  SU_T8U6  -1
    X_T7U7  COST  18.0542  DEM_T7  1
    X_T7U7  SU_T7U7  1  SU_T8U7  -1
    X_T7U8  COST  21.1806  DEM_T7  1
    X_T7U8  SU_T7U8  1  SU_T8U8  -1
    X_T7U9  COST  35.3264  DEM_T7  1
    X_T7U9  SU_T7U9  1  SU_T8U9  -1
    X_T7U10  COST  12.1125  DEM_T7  1
    X_T7U10  SU_T7U10  1  SU_T8U10  -1
    X_T7U11  COST  30.1343  DEM_T7  1
    X_T7U11  SU_T7U11  1  SU_T8U11  -1
    X_T7U12  COST  17.6249  DEM_T7  1
    X_T7U12  SU_T7U12  1  SU_T8U12  -1
    X_T7U13  COST  19.6765  DEM_T7  1
    X_T7U13  SU_T7U13  1  SU_T8U13  -1
    X_T7U14  COST  14.0986  DEM_T7  1
    X_T7U14  SU_T7U14  1  SU_T8U14  -1
    X_T7U15  COST  26.5846  DEM_T7  1
    X_T7U15  SU_T7U15  1  SU_T8U15  -1
    X_T7U16  COST  22.5934  DEM_T7  1
    X_T7U16  SU_T7U16  1  SU_T8U16  -1
    X_T7U17  COST  28.3454  DEM_T7  1
    X_T7U17  SU_T7U17  1  SU_T8U17  -1
    X_T7U18  COST  10.1555  DEM_T7  1
    X_T7U18  SU_T7U18  1  SU_T8U18  -1
    X_T7U19  COST  15.8282  DEM_T7  1
    X_T7U19  SU_T7U19  1  SU_T8U19  -1
    X_T7U20  COST  21.9035  DEM_T7  1
    X_T7U20  SU_T7U20  1  SU_T8U20  -1
    X_T8U1  COST  36.5985  DEM_T8  1
    X_T8U1  SU_T8U1  1  SU_T9U1  -1
    X_T8U2  COST  27.3659  DEM_T8  1
    X_T8U2  SU_T8U2  1  SU_T9U2  -1
    X_T8U3  COST  30.1608  DEM_T8  1
    X_T8U3  SU_T8U3  1  SU_T9U3  -1
    X_T8U4  COST  14.6512  DEM_T8  1
    X_T8U4  SU_T8U4  1  SU_T9U4  -1
    X_T8U5  COST  35.168  DEM_T8  1
    X_T8U5  SU_T8U5  1  SU_T9U5  -1
    X_T8U6  COST  17.5075  DEM_T8  1
    X_T8U6  SU_T8U6  1  SU_T9U6  -1
    X_T8U7  COST  19.098  DEM_T8  1
    X_T8U7  SU_T8U7  1  SU_T9U7  -1
    X_T8U8  COST  19.7995  DEM_T8  1
    X_T8U8  SU_T8U8  1  SU_T9U8  -1
    X_T8U9  COST  18.1463  DEM_T8  1
    X_T8U9  SU_T8U9  1  SU_T9U9  -1
    X_T8U10  COST  23.718  DEM_T8  1
    X_T8U10  SU_T8U10  1  SU_T9U10  -1
    X_T8U11  COST  15.8314  DEM_T8  1
    X_T8U11  SU_T8U11  1  SU_T9U11  -1
    X_T8U12  COST  30.9854  DEM_T8  1
    X_T8U12  SU_T8U12  1  SU_T9U12  -1
    X_T8U13  COST  13.9824  DEM_T8  1
    X_T8U13  SU_T8U13  1  SU_T9U13  -1
    X_T8U14  COST  31.4379  DEM_T8  1
    X_T8U14  SU_T8U14  1  SU_T9U14  -1
    X_T8U15  COST  21.9646  DEM_T8  1
    X_T8U15  SU_T8U15  1  SU_T9U15  -1
    X_T8U16  COST  32.3213  DEM_T8  1
    X_T8U16  SU_T8U16  1  SU_T9U16  -1
    X_T8U17  COST  15.53  DEM_T8  1
    X_T8U17  SU_T8U17  1  SU_T9U17  -1
    X_T8U18  COST  22.8494  DEM_T8  1
    X_T8U18  SU_T8U18  1  SU_T9U18  -1
    X_T8U19  COST  11.7458  DEM_T8  1
    X_T8U19  SU_T8U19  1  SU_T9U19  -1
    X_T8U20  COST  23.2706  DEM_T8  1
    X_T8U20  SU_T8U20  1  SU_T9U20  -1
    X_T9U1  COST  12.8162  DEM_T9  1
    X_T9U1  SU_T9U1  1  SU_T10U1  -1
    X_T9U2  COST  38.0384  DEM_T9  1
    X_T9U2  SU_T9U2  1  SU_T10U2  -1
    X_T9U3  COST  25.5009  DEM_T9  1
    X_T9U3  SU_T9U3  1  SU_T10U3  -1
    X_T9U4  COST  23.0702  DEM_T9  1
    X_T9U4  SU_T9U4  1  SU_T10U4  -1
    X_T9U5  COST  11.4315  DEM_T9  1
    X_T9U5  SU_T9U5  1  SU_T10U5  -1
    X_T9U6  COST  14.7594  DEM_T9  1
    X_T9U6  SU_T9U6  1  SU_T10U6  -1
    X_T9U7  COST  20.2564  DEM_T9  1
    X_T9U7  SU_T9U7  1  SU_T10U7  -1
    X_T9U8  COST  12.8247  DEM_T9  1
    X_T9U8  SU_T9U8  1  SU_T10U8  -1
    X_T9U9  COST  39.3853  DEM_T9  1
    X_T9U9  SU_T9U9  1  SU_T10U9  -1
    X_T9U10  COST  10.5148  DEM_T9  1
    X_T9U10  SU_T9U10  1  SU_T10U10  -1
    X_T9U11  COST  34.2074  DEM_T9  1
    X_T9U11  SU_T9U11  1  SU_T10U11  -1
    X_T9U12  COST  23.9402  DEM_T9  1
    X_T9U12  SU_T9U12  1  SU_T10U12  -1
    X_T9U13  COST  11.4418  DEM_T9  1
    X_T9U13  SU_T9U13  1  SU_T10U13  -1
    X_T9U14  COST  36.6004  DEM_T9  1
    X_T9U14  SU_T9U14  1  SU_T10U14  -1
    X_T9U15  COST  10.4591  DEM_T9  1
    X_T9U15  SU_T9U15  1  SU_T10U15  -1
    X_T9U16  COST  25.0312  DEM_T9  1
    X_T9U16  SU_T9U16  1  SU_T10U16  -1
    X_T9U17  COST  30.5189  DEM_T9  1
    X_T9U17  SU_T9U17  1  SU_T10U17  -1
    X_T9U18  COST  38.3167  DEM_T9  1
    X_T9U18  SU_T9U18  1  SU_T10U18  -1
    X_T9U19  COST  36.016  DEM_T9  1
    X_T9U19  SU_T9U19  1  SU_T10U19  -1
    X_T9U20  COST  34.0285  DEM_T9  1
    X_T9U20  SU_T9U20  1  SU_T10U20  -1
    X_T10U1  COST  27.201  DEM_T10  1
    X_T10U1  SU_T10U1  1  SU_T11U1  -1
    X_T10U2  COST  34.3361  DEM_T10  1
    X_T10U2  SU_T10U2  1  SU_T11U2  -1
    X_T10U3  COST  28.7782  DEM_T10  1
    X_T10U3  SU_T10U3  1  SU_T11U3  -1
    X_T10U4  COST  29.5445  DEM_T10  1
    X_T10U4  SU_T10U4  1  SU_T11U4  -1
    X_T10U5  COST  18.2188  DEM_T10  1
    X_T10U5  SU_T10U5  1  SU_T11U5  -1
    X_T10U6  COST  21.3178  DEM_T10  1
    X_T10U6  SU_T10U6  1  SU_T11U6  -1
    X_T10U7  COST  28.5476  DEM_T10  1
    X_T10U7  SU_T10U7  1  SU_T11U7  -1
    X_T10U8  COST  29.6717  DEM_T10  1
    X_T10U8  SU_T10U8  1  SU_T11U8  -1
    X_T10U9  COST  30.4484  DEM_T10  1
    X_T10U9  SU_T10U9  1  SU_T11U9  -1
    X_T10U10  COST  17.8208  DEM_T10  1
    X_T10U10  SU_T10U10  1  SU_T11U10  -1
    X_T10U11  COST  30.7867  DEM_T10  1
    X_T10U11  SU_T10U11  1  SU_T11U11  -1
    X_T10U12  COST  38.0994  DEM_T10  1
    X_T10U12  SU_T10U12  1  SU_T11U12  -1
    X_T10U13  COST  22.5384  DEM_T10  1
    X_T10U13  SU_T10U13  1  SU_T11U13  -1
    X_T10U14  COST  26.4392  DEM_T10  1
    X_T10U14  SU_T10U14  1  SU_T11U14  -1
    X_T10U15  COST  27.0556  DEM_T10  1
    X_T10U15  SU_T10U15  1  SU_T11U15  -1
    X_T10U16  COST  31.9494  DEM_T10  1
    X_T10U16  SU_T10U16  1  SU_T11U16  -1
    X_T10U17  COST  17.5005  DEM_T10  1
    X_T10U17  SU_T10U17  1  SU_T11U17  -1
    X_T10U18  COST  36.0135  DEM_T10  1
    X_T10U18  SU_T10U18  1  SU_T11U18  -1
    X_T10U19  COST  17.1579  DEM_T10  1
    X_T10U19  SU_T10U19  1  SU_T11U19  -1
    X_T10U20  COST  32.1973  DEM_T10  1
    X_T10U20  SU_T10U20  1  SU_T11U20  -1
    X_T11U1  COST  21.3319  DEM_T11  1
    X_T11U1  SU_T11U1  1  SU_T12U1  -1
    X_T11U2  COST  24.8968  DEM_T11  1
    X_T11U2  SU_T11U2  1  SU_T12U2  -1
    X_T11U3  COST  18.9291  DEM_T11  1
    X_T11U3  SU_T11U3  1  SU_T12U3  -1
    X_T11U4  COST  11.6046  DEM_T11  1
    X_T11U4  SU_T11U4  1  SU_T12U4  -1
    X_T11U5  COST  35.4143  DEM_T11  1
    X_T11U5  SU_T11U5  1  SU_T12U5  -1
    X_T11U6  COST  38.704  DEM_T11  1
    X_T11U6  SU_T11U6  1  SU_T12U6  -1
    X_T11U7  COST  24.4756  DEM_T11  1
    X_T11U7  SU_T11U7  1  SU_T12U7  -1
    X_T11U8  COST  12.4985  DEM_T11  1
    X_T11U8  SU_T11U8  1  SU_T12U8  -1
    X_T11U9  COST  28.0732  DEM_T11  1
    X_T11U9  SU_T11U9  1  SU_T12U9  -1
    X_T11U10  COST  16.3818  DEM_T11  1
    X_T11U10  SU_T11U10  1  SU_T12U10  -1
    X_T11U11  COST  33.4389  DEM_T11  1
    X_T11U11  SU_T11U11  1  SU_T12U11  -1
    X_T11U12  COST  37.9279  DEM_T11  1
    X_T11U12  SU_T11U12  1  SU_T12U12  -1
    X_T11U13  COST  39.8779  DEM_T11  1
    X_T11U13  SU_T11U13  1  SU_T12U13  -1
    X_T11U14  COST  32.1111  DEM_T11  1
    X_T11U14  SU_T11U14  1  SU_T12U14  -1
    X_T11U15  COST  31.1749  DEM_T11  1
    X_T11U15  SU_T11U15  1  SU_T12U15  -1
    X_T11U16  COST  30.6409  DEM_T11  1
    X_T11U16  SU_T11U16  1  SU_T12U16  -1
    X_T11U17  COST  36.0061  DEM_T11  1
    X_T11U17  SU_T11U17  1  SU_T12U17  -1
    X_T11U18  COST  22.7827  DEM_T11  1
    X_T11U18  SU_T11U18  1  SU_T12U18  -1
    X_T11U19  COST  21.8995  DEM_T11  1
    X_T11U19  SU_T11U19  1  SU_T12U19  -1
    X_T11U20  COST  14.3981  DEM_T11  1
    X_T11U20  SU_T11U20  1  SU_T12U20  -1
    X_T12U1  COST  16.9968  DEM_T12  1
    X_T12U1  SU_T12U1  1  SU_T13U1  -1
    X_T12U2  COST  35.8942  DEM_T12  1
    X_T12U2  SU_T12U2  1  SU_T13U2  -1
    X_T12U3  COST  17.1006  DEM_T12  1
    X_T12U3  SU_T12U3  1  SU_T13U3  -1
    X_T12U4  COST  27.7567  DEM_T12  1
    X_T12U4  SU_T12U4  1  SU_T13U4  -1
    X_T12U5  COST  31.2454  DEM_T12  1
    X_T12U5  SU_T12U5  1  SU_T13U5  -1
    X_T12U6  COST  21.3396  DEM_T12  1
    X_T12U6  SU_T12U6  1  SU_T13U6  -1
    X_T12U7  COST  17.4617  DEM_T12  1
    X_T12U7  SU_T12U7  1  SU_T13U7  -1
    X_T12U8  COST  23.0336  DEM_T12  1
    X_T12U8  SU_T12U8  1  SU_T13U8  -1
    X_T12U9  COST  22.1561  DEM_T12  1
    X_T12U9  SU_T12U9  1  SU_T13U9  -1
    X_T12U10  COST  32.2292  DEM_T12  1
    X_T12U10  SU_T12U10  1  SU_T13U10  -1
    X_T12U11  COST  34.6837  DEM_T12  1
    X_T12U11  SU_T12U11  1  SU_T13U11  -1
    X_T12U12  COST  30.4312  DEM_T12  1
    X_T12U12  SU_T12U12  1  SU_T13U12  -1
    X_T12U13  COST  22.0067  DEM_T12  1
    X_T12U13  SU_T12U13  1  SU_T13U13  -1
    X_T12U14  COST  12.4867  DEM_T12  1
    X_T12U14  SU_T12U14  1  SU_T13U14  -1
    X_T12U15  COST  23.0901  DEM_T12  1
    X_T12U15  SU_T12U15  1  SU_T13U15  -1
    X_T12U16  COST  39.337  DEM_T12  1
    X_T12U16  SU_T12U16  1  SU_T13U16  -1
    X_T12U17  COST  19.6806  DEM_T12  1
    X_T12U17  SU_T12U17  1  SU_T13U17  -1
    X_T12U18  COST  37.7393  DEM_T12  1
    X_T12U18  SU_T12U18  1  SU_T13U18  -1
    X_T12U19  COST  17.5897  DEM_T12  1
    X_T12U19  SU_T12U19  1  SU_T13U19  -1
    X_T12U20  COST  12.263  DEM_T12  1
    X_T12U20  SU_T12U20  1  SU_T13U20  -1
    X_T13U1  COST  16.5043  DEM_T13  1
    X_T13U1  SU_T13U1  1  SU_T14U1  -1
    X_T13U2  COST  39.8749  DEM_T13  1
    X_T13U2  SU_T13U2  1  SU_T14U2  -1
    X_T13U3  COST  21.5261  DEM_T13  1
    X_T13U3  SU_T13U3  1  SU_T14U3  -1
    X_T13U4  COST  37.4576  DEM_T13  1
    X_T13U4  SU_T13U4  1  SU_T14U4  -1
    X_T13U5  COST  11.7359  DEM_T13  1
    X_T13U5  SU_T13U5  1  SU_T14U5  -1
    X_T13U6  COST  13.2027  DEM_T13  1
    X_T13U6  SU_T13U6  1  SU_T14U6  -1
    X_T13U7  COST  15.0904  DEM_T13  1
    X_T13U7  SU_T13U7  1  SU_T14U7  -1
    X_T13U8  COST  21.6481  DEM_T13  1
    X_T13U8  SU_T13U8  1  SU_T14U8  -1
    X_T13U9  COST  17.9781  DEM_T13  1
    X_T13U9  SU_T13U9  1  SU_T14U9  -1
    X_T13U10  COST  17.7985  DEM_T13  1
    X_T13U10  SU_T13U10  1  SU_T14U10  -1
    X_T13U11  COST  10.9695  DEM_T13  1
    X_T13U11  SU_T13U11  1  SU_T14U11  -1
    X_T13U12  COST  22.3362  DEM_T13  1
    X_T13U12  SU_T13U12  1  SU_T14U12  -1
    X_T13U13  COST  18.1287  DEM_T13  1
    X_T13U13  SU_T13U13  1  SU_T14U13  -1
    X_T13U14  COST  12.286  DEM_T13  1
    X_T13U14  SU_T13U14  1  SU_T14U14  -1
    X_T13U15  COST  22.4992  DEM_T13  1
    X_T13U15  SU_T13U15  1  SU_T14U15  -1
    X_T13U16  COST  37.5753  DEM_T13  1
    X_T13U16  SU_T13U16  1  SU_T14U16  -1
    X_T13U17  COST  36.2998  DEM_T13  1
    X_T13U17  SU_T13U17  1  SU_T14U17  -1
    X_T13U18  COST  14.945  DEM_T13  1
    X_T13U18  SU_T13U18  1  SU_T14U18  -1
    X_T13U19  COST  33.3281  DEM_T13  1
    X_T13U19  SU_T13U19  1  SU_T14U19  -1
    X_T13U20  COST  39.5586  DEM_T13  1
    X_T13U20  SU_T13U20  1  SU_T14U20  -1
    X_T14U1  COST  32.4873  DEM_T14  1
    X_T14U1  SU_T14U1  1  SU_T15U1  -1
    X_T14U2  COST  34.8749  DEM_T14  1
    X_T14U2  SU_T14U2  1  SU_T15U2  -1
    X_T14U3  COST  11.9054  DEM_T14  1
    X_T14U3  SU_T14U3  1  SU_T15U3  -1
    X_T14U4  COST  14.0156  DEM_T14  1
    X_T14U4  SU_T14U4  1  SU_T15U4  -1
    X_T14U5  COST  12.2608  DEM_T14  1
    X_T14U5  SU_T14U5  1  SU_T15U5  -1
    X_T14U6  COST  26.0304  DEM_T14  1
    X_T14U6  SU_T14U6  1  SU_T15U6  -1
    X_T14U7  COST  37.395  DEM_T14  1
    X_T14U7  SU_T14U7  1  SU_T15U7  -1
    X_T14U8  COST  31.7836  DEM_T14  1
    X_T14U8  SU_T14U8  1  SU_T15U8  -1
    X_T14U9  COST  21.3355  DEM_T14  1
    X_T14U9  SU_T14U9  1  SU_T15U9  -1
    X_T14U10  COST  16.1514  DEM_T14  1
    X_T14U10  SU_T14U10  1  SU_T15U10  -1
    X_T14U11  COST  18.242  DEM_T14  1
    X_T14U11  SU_T14U11  1  SU_T15U11  -1
    X_T14U12  COST  36.3466  DEM_T14  1
    X_T14U12  SU_T14U12  1  SU_T15U12  -1
    X_T14U13  COST  11.4069  DEM_T14  1
    X_T14U13  SU_T14U13  1  SU_T15U13  -1
    X_T14U14  COST  10.6655  DEM_T14  1
    X_T14U14  SU_T14U14  1  SU_T15U14  -1
    X_T14U15  COST  24.2863  DEM_T14  1
    X_T14U15  SU_T14U15  1  SU_T15U15  -1
    X_T14U16  COST  19.2333  DEM_T14  1
    X_T14U16  SU_T14U16  1  SU_T15U16  -1
    X_T14U17  COST  39.0392  DEM_T14  1
    X_T14U17  SU_T14U17  1  SU_T15U17  -1
    X_T14U18  COST  33.7545  DEM_T14  1
    X_T14U18  SU_T14U18  1  SU_T15U18  -1
    X_T14U19  COST  24.4014  DEM_T14  1
    X_T14U19  SU_T14U19  1  SU_T15U19  -1
    X_T14U20  COST  33.54  DEM_T14  1
    X_T14U20  SU_T14U20  1  SU_T15U20  -1
    X_T15U1  COST  34.1513  DEM_T15  1
    X_T15U1  SU_T15U1  1  SU_T16U1  -1
    X_T15U2  COST  28.5179  DEM_T15  1
    X_T15U2  SU_T15U2  1  SU_T16U2  -1
    X_T15U3  COST  28.2426  DEM_T15  1
    X_T15U3  SU_T15U3  1  SU_T16U3  -1
    X_T15U4  COST  26.6445  DEM_T15  1
    X_T15U4  SU_T15U4  1  SU_T16U4  -1
    X_T15U5  COST  31.7919  DEM_T15  1
    X_T15U5  SU_T15U5  1  SU_T16U5  -1
    X_T15U6  COST  23.5273  DEM_T15  1
    X_T15U6  SU_T15U6  1  SU_T16U6  -1
    X_T15U7  COST  18.9388  DEM_T15  1
    X_T15U7  SU_T15U7  1  SU_T16U7  -1
    X_T15U8  COST  30.9293  DEM_T15  1
    X_T15U8  SU_T15U8  1  SU_T16U8  -1
    X_T15U9  COST  23.7804  DEM_T15  1
    X_T15U9  SU_T15U9  1  SU_T16U9  -1
    X_T15U10  COST  33.0675  DEM_T15  1
    X_T15U10  SU_T15U10  1  SU_T16U10  -1
    X_T15U11  COST  11.3758  DEM_T15  1
    X_T15U11  SU_T15U11  1  SU_T16U11  -1
    X_T15U12  COST  20.4224  DEM_T15  1
    X_T15U12  SU_T15U12  1  SU_T16U12  -1
    X_T15U13  COST  27.3895  DEM_T15  1
    X_T15U13  SU_T15U13  1  SU_T16U13  -1
    X_T15U14  COST  26.1179  DEM_T15  1
    X_T15U14  SU_T15U14  1  SU_T16U14  -1
    X_T15U15  COST  27.543  DEM_T15  1
    X_T15U15  SU_T15U15  1  SU_T16U15  -1
    X_T15U16  COST  30.93  DEM_T15  1
    X_T15U16  SU_T15U16  1  SU_T16U16  -1
    X_T15U17  COST  30.895  DEM_T15  1
    X_T15U17  SU_T15U17  1  SU_T16U17  -1
    X_T15U18  COST  36.2295  DEM_T15  1
    X_T15U18  SU_T15U18  1  SU_T16U18  -1
    X_T15U19  COST  39.1933  DEM_T15  1
    X_T15U19  SU_T15U19  1  SU_T16U19  -1
    X_T15U20  COST  16.7155  DEM_T15  1
    X_T15U20  SU_T15U20  1  SU_T16U20  -1
    X_T16U1  COST  20.3525  DEM_T16  1
    X_T16U1  SU_T16U1  1  SU_T17U1  -1
    X_T16U2  COST  10.9541  DEM_T16  1
    X_T16U2  SU_T16U2  1  SU_T17U2  -1
    X_T16U3  COST  26.0327  DEM_T16  1
    X_T16U3  SU_T16U3  1  SU_T17U3  -1
    X_T16U4  COST  36.8265  DEM_T16  1
    X_T16U4  SU_T16U4  1  SU_T17U4  -1
    X_T16U5  COST  19.903  DEM_T16  1
    X_T16U5  SU_T16U5  1  SU_T17U5  -1
    X_T16U6  COST  12.7687  DEM_T16  1
    X_T16U6  SU_T16U6  1  SU_T17U6  -1
    X_T16U7  COST  30.6335  DEM_T16  1
    X_T16U7  SU_T16U7  1  SU_T17U7  -1
    X_T16U8  COST  14.7093  DEM_T16  1
    X_T16U8  SU_T16U8  1  SU_T17U8  -1
    X_T16U9  COST  10.0779  DEM_T16  1
    X_T16U9  SU_T16U9  1  SU_T17U9  -1
    X_T16U10  COST  12.5355  DEM_T16  1
    X_T16U10  SU_T16U10  1  SU_T17U10  -1
    X_T16U11  COST  39.5877  DEM_T16  1
    X_T16U11  SU_T16U11  1  SU_T17U11  -1
    X_T16U12  COST  37.7213  DEM_T16  1
    X_T16U12  SU_T16U12  1  SU_T17U12  -1
    X_T16U13  COST  32.7987  DEM_T16  1
    X_T16U13  SU_T16U13  1  SU_T17U13  -1
    X_T16U14  COST  31.6155  DEM_T16  1
    X_T16U14  SU_T16U14  1  SU_T17U14  -1
    X_T16U15  COST  14.4322  DEM_T16  1
    X_T16U15  SU_T16U15  1  SU_T17U15  -1
    X_T16U16  COST  30.615  DEM_T16  1
    X_T16U16  SU_T16U16  1  SU_T17U16  -1
    X_T16U17  COST  32.4885  DEM_T16  1
    X_T16U17  SU_T16U17  1  SU_T17U17  -1
    X_T16U18  COST  36.0164  DEM_T16  1
    X_T16U18  SU_T16U18  1  SU_T17U18  -1
    X_T16U19  COST  21.9149  DEM_T16  1
    X_T16U19  SU_T16U19  1  SU_T17U19  -1
    X_T16U20  COST  32.1222  DEM_T16  1
    X_T16U20  SU_T16U20  1  SU_T17U20  -1
    X_T17U1  COST  26.919  DEM_T17  1
    X_T17U1  SU_T17U1  1  SU_T18U1  -1
    X_T17U2  COST  12.6761  DEM_T17  1
    X_T17U2  SU_T17U2  1  SU_T18U2  -1
    X_T17U3  COST  16.9965  DEM_T17  1
    X_T17U3  SU_T17U3  1  SU_T18U3  -1
    X_T17U4  COST  24.2191  DEM_T17  1
    X_T17U4  SU_T17U4  1  SU_T18U4  -1
    X_T17U5  COST  29.4647  DEM_T17  1
    X_T17U5  SU_T17U5  1  SU_T18U5  -1
    X_T17U6  COST  27.526  DEM_T17  1
    X_T17U6  SU_T17U6  1  SU_T18U6  -1
    X_T17U7  COST  26.7323  DEM_T17  1
    X_T17U7  SU_T17U7  1  SU_T18U7  -1
    X_T17U8  COST  26.9338  DEM_T17  1
    X_T17U8  SU_T17U8  1  SU_T18U8  -1
    X_T17U9  COST  20.1234  DEM_T17  1
    X_T17U9  SU_T17U9  1  SU_T18U9  -1
    X_T17U10  COST  28.2267  DEM_T17  1
    X_T17U10  SU_T17U10  1  SU_T18U10  -1
    X_T17U11  COST  24.9474  DEM_T17  1
    X_T17U11  SU_T17U11  1  SU_T18U11  -1
    X_T17U12  COST  38.0108  DEM_T17  1
    X_T17U12  SU_T17U12  1  SU_T18U12  -1
    X_T17U13  COST  16.76  DEM_T17  1
    X_T17U13  SU_T17U13  1  SU_T18U13  -1
    X_T17U14  COST  24.6343  DEM_T17  1
    X_T17U14  SU_T17U14  1  SU_T18U14  -1
    X_T17U15  COST  12.6366  DEM_T17  1
    X_T17U15  SU_T17U15  1  SU_T18U15  -1
    X_T17U16  COST  11.6696  DEM_T17  1
    X_T17U16  SU_T17U16  1  SU_T18U16  -1
    X_T17U17  COST  11.5491  DEM_T17  1
    X_T17U17  SU_T17U17  1  SU_T18U17  -1
    X_T17U18  COST  30.9088  DEM_T17  1
    X_T17U18  SU_T17U18  1  SU_T18U18  -1
    X_T17U19  COST  36.8983  DEM_T17  1
    X_T17U19  SU_T17U19  1  SU_T18U19  -1
    X_T17U20  COST  37.5219  DEM_T17  1
    X_T17U20  SU_T17U20  1  SU_T18U20  -1
    X_T18U1  COST  39.252  DEM_T18  1
    X_T18U1  SU_T18U1  1  SU_T19U1  -1
    X_T18U2  COST  31.6869  DEM_T18  1
    X_T18U2  SU_T18U2  1  SU_T19U2  -1
    X_T18U3  COST  31.5537  DEM_T18  1
    X_T18U3  SU_T18U3  1  SU_T19U3  -1
    X_T18U4  COST  24.2986  DEM_T18  1
    X_T18U4  SU_T18U4  1  SU_T19U4  -1
    X_T18U5  COST  16.1523  DEM_T18  1
    X_T18U5  SU_T18U5  1  SU_T19U5  -1
    X_T18U6  COST  31.3286  DEM_T18  1
    X_T18U6  SU_T18U6  1  SU_T19U6  -1
    X_T18U7  COST  32.0874  DEM_T18  1
    X_T18U7  SU_T18U7  1  SU_T19U7  -1
    X_T18U8  COST  31.2169  DEM_T18  1
    X_T18U8  SU_T18U8  1  SU_T19U8  -1
    X_T18U9  COST  12.6187  DEM_T18  1
    X_T18U9  SU_T18U9  1  SU_T19U9  -1
    X_T18U10  COST  37.9604  DEM_T18  1
    X_T18U10  SU_T18U10  1  SU_T19U10  -1
    X_T18U11  COST  27.8165  DEM_T18  1
    X_T18U11  SU_T18U11  1  SU_T19U11  -1
    X_T18U12  COST  23.628  DEM_T18  1
    X_T18U12  SU_T18U12  1  SU_T19U12  -1
    X_T18U13  COST  26.4677  DEM_T18  1
    X_T18U13  SU_T18U13  1  SU_T19U13  -1
    X_T18U14  COST  30.5371  DEM_T18  1
    X_T18U14  SU_T18U14  1  SU_T19U14  -1
    X_T18U15  COST  14.1647  DEM_T18  1
    X_T18U15  SU_T18U15  1  SU_T19U15  -1
    X_T18U16  COST  13.5009  DEM_T18  1
    X_T18U16  SU_T18U16  1  SU_T19U16  -1
    X_T18U17  COST  28.1831  DEM_T18  1
    X_T18U17  SU_T18U17  1  SU_T19U17  -1
    X_T18U18  COST  13.201  DEM_T18  1
    X_T18U18  SU_T18U18  1  SU_T19U18  -1
    X_T18U19  COST  32.3792  DEM_T18  1
    X_T18U19  SU_T18U19  1  SU_T19U19  -1
    X_T18U20  COST  37.9881  DEM_T18  1
    X_T18U20  SU_T18U20  1  SU_T19U20  -1
    X_T19U1  COST  16.1501  DEM_T19  1
    X_T19U1  SU_T19U1  1  SU_T20U1  -1
    X_T19U2  COST  37.7935  DEM_T19  1
    X_T19U2  SU_T19U2  1  SU_T20U2  -1
    X_T19U3  COST  11.4428  DEM_T19  1
    X_T19U3  SU_T19U3  1  SU_T20U3  -1
    X_T19U4  COST  34.8382  DEM_T19  1
    X_T19U4  SU_T19U4  1  SU_T20U4  -1
    X_T19U5  COST  33.9861  DEM_T19  1
    X_T19U5  SU_T19U5  1  SU_T20U5  -1
    X_T19U6  COST  15.5921  DEM_T19  1
    X_T19U6  SU_T19U6  1  SU_T20U6  -1
    X_T19U7  COST  29.0128  DEM_T19  1
    X_T19U7  SU_T19U7  1  SU_T20U7  -1
    X_T19U8  COST  19.4859  DEM_T19  1
    X_T19U8  SU_T19U8  1  SU_T20U8  -1
    X_T19U9  COST  30.4895  DEM_T19  1
    X_T19U9  SU_T19U9  1  SU_T20U9  -1
    X_T19U10  COST  31.4135  DEM_T19  1
    X_T19U10  SU_T19U10  1  SU_T20U10  -1
    X_T19U11  COST  28.723  DEM_T19  1
    X_T19U11  SU_T19U11  1  SU_T20U11  -1
    X_T19U12  COST  23.1623  DEM_T19  1
    X_T19U12  SU_T19U12  1  SU_T20U12  -1
    X_T19U13  COST  20.6609  DEM_T19  1
    X_T19U13  SU_T19U13  1  SU_T20U13  -1
    X_T19U14  COST  25.9557  DEM_T19  1
    X_T19U14  SU_T19U14  1  SU_T20U14  -1
    X_T19U15  COST  16.8708  DEM_T19  1
    X_T19U15  SU_T19U15  1  SU_T20U15  -1
    X_T19U16  COST  22.9458  DEM_T19  1
    X_T19U16  SU_T19U16  1  SU_T20U16  -1
    X_T19U17  COST  31.9165  DEM_T19  1
    X_T19U17  SU_T19U17  1  SU_T20U17  -1
    X_T19U18  COST  15.0019  DEM_T19  1
    X_T19U18  SU_T19U18  1  SU_T20U18  -1
    X_T19U19  COST  24.8627  DEM_T19  1
    X_T19U19  SU_T19U19  1  SU_T20U19  -1
    X_T19U20  COST  27.1945  DEM_T19  1
    X_T19U20  SU_T19U20  1  SU_T20U20  -1
    X_T20U1  COST  32.5721  DEM_T20  1
    X_T20U1  SU_T20U1  1  SU_T21U1  -1
    X_T20U2  COST  33.3572  DEM_T20  1
    X_T20U2  SU_T20U2  1  SU_T21U2  -1
    X_T20U3  COST  16.1363  DEM_T20  1
    X_T20U3  SU_T20U3  1  SU_T21U3  -1
    X_T20U4  COST  24.8194  DEM_T20  1
    X_T20U4  SU_T20U4  1  SU_T21U4  -1
    X_T20U5  COST  13.0875  DEM_T20  1
    X_T20U5  SU_T20U5  1  SU_T21U5  -1
    X_T20U6  COST  21.3646  DEM_T20  1
    X_T20U6  SU_T20U6  1  SU_T21U6  -1
    X_T20U7  COST  28.1187  DEM_T20  1
    X_T20U7  SU_T20U7  1  SU_T21U7  -1
    X_T20U8  COST  26.1958  DEM_T20  1
    X_T20U8  SU_T20U8  1  SU_T21U8  -1
    X_T20U9  COST  22.2687  DEM_T20  1
    X_T20U9  SU_T20U9  1  SU_T21U9  -1
    X_T20U10  COST  10.3661  DEM_T20  1
    X_T20U10  SU_T20U10  1  SU_T21U10  -1
    X_T20U11  COST  26.9653  DEM_T20  1
    X_T20U11  SU_T20U11  1  SU_T21U11  -1
    X_T20U12  COST  27.9709  DEM_T20  1
    X_T20U12  SU_T20U12  1  SU_T21U12  -1
    X_T20U13  COST  38.7722  DEM_T20  1
    X_T20U13  SU_T20U13  1  SU_T21U13  -1
    X_T20U14  COST  16.8205  DEM_T20  1
    X_T20U14  SU_T20U14  1  SU_T21U14  -1
    X_T20U15  COST  18.6379  DEM_T20  1
    X_T20U15  SU_T20U15  1  SU_T21U15  -1
    X_T20U16  COST  37.3556  DEM_T20  1
    X_T20U16  SU_T20U16  1  SU_T21U16  -1
    X_T20U17  COST  13.0238  DEM_T20  1
    X_T20U17  SU_T20U17  1  SU_T21U17  -1
    X_T20U18  COST  31.7829  DEM_T20  1
    X_T20U18  SU_T20U18  1  SU_T21U18  -1
    X_T20U19  COST  13.0664  DEM_T20  1
    X_T20U19  SU_T20U19  1  SU_T21U19  -1
    X_T20U20  COST  33.7025  DEM_T20  1
    X_T20U20  SU_T20U20  1  SU_T21U20  -1
    X_T21U1  COST  29.541  DEM_T21  1
    X_T21U1  SU_T21U1  1  SU_T22U1  -1
    X_T21U2  COST  21.2331  DEM_T21  1
    X_T21U2  SU_T21U2  1  SU_T22U2  -1
    X_T21U3  COST  12.3196  DEM_T21  1
    X_T21U3  SU_T21U3  1  SU_T22U3  -1
    X_T21U4  COST  35.2132  DEM_T21  1
    X_T21U4  SU_T21U4  1  SU_T22U4  -1
    X_T21U5  COST  13.6843  DEM_T21  1
    X_T21U5  SU_T21U5  1  SU_T22U5  -1
    X_T21U6  COST  14.9656  DEM_T21  1
    X_T21U6  SU_T21U6  1  SU_T22U6  -1
    X_T21U7  COST  35.1247  DEM_T21  1
    X_T21U7  SU_T21U7  1  SU_T22U7  -1
    X_T21U8  COST  19.3433  DEM_T21  1
    X_T21U8  SU_T21U8  1  SU_T22U8  -1
    X_T21U9  COST  28.2368  DEM_T21  1
    X_T21U9  SU_T21U9  1  SU_T22U9  -1
    X_T21U10  COST  32.3275  DEM_T21  1
    X_T21U10  SU_T21U10  1  SU_T22U10  -1
    X_T21U11  COST  33.6337  DEM_T21  1
    X_T21U11  SU_T21U11  1  SU_T22U11  -1
    X_T21U12  COST  13.428  DEM_T21  1
    X_T21U12  SU_T21U12  1  SU_T22U12  -1
    X_T21U13  COST  35.9055  DEM_T21  1
    X_T21U13  SU_T21U13  1  SU_T22U13  -1
    X_T21U14  COST  23.971  DEM_T21  1
    X_T21U14  SU_T21U14  1  SU_T22U14  -1
    X_T21U15  COST  37.5536  DEM_T21  1
    X_T21U15  SU_T21U15  1  SU_T22U15  -1
    X_T21U16  COST  10.9854  DEM_T21  1
    X_T21U16  SU_T21U16  1  SU_T22U16  -1
    X_T21U17  COST  17.4468  DEM_T21  1
    X_T21U17  SU_T21U17  1  SU_T22U17  -1
    X_T21U18  COST  14.9654  DEM_T21  1
    X_T21U18  SU_T21U18  1  SU_T22U18  -1
    X_T21U19  COST  19.3442  DEM_T21  1
    X_T21U19  SU_T21U19  1  SU_T22U19  -1
    X_T21U20  COST  18.3276  DEM_T21  1
    X_T21U20  SU_T21U20  1  SU_T22U20  -1
    X_T22U1  COST  16.3804  DEM_T22  1
    X_T22U1  SU_T22U1  1  SU_T23U1  -1
    X_T22U2  COST  39.2662  DEM_T22  1
    X_T22U2  SU_T22U2  1  SU_T23U2  -1
    X_T22U3  COST  26.7192  DEM_T22  1
    X_T22U3  SU_T22U3  1  SU_T23U3  -1
    X_T22U4  COST  26.0521  DEM_T22  1
    X_T22U4  SU_T22U4  1  SU_T23U4  -1
    X_T22U5  COST  18.9879  DEM_T22  1
    X_T22U5  SU_T22U5  1  SU_T23U5  -1
    X_T22U6  COST  21.9195  DEM_T22  1
    X_T22U6  SU_T22U6  1  SU_T23U6  -1
    X_T22U7  COST  33.9935  DEM_T22  1
    X_T22U7  SU_T22U7  1  SU_T23U7  -1
    X_T22U8  COST  24.047  DEM_T22  1
    X_T22U8  SU_T22U8  1  SU_T23U8  -1
    X_T22U9  COST  21.3318  DEM_T22  1
    X_T22U9  SU_T22U9  1  SU_T23U9  -1
    X_T22U10  COST  27.6236  DEM_T22  1
    X_T22U10  SU_T22U10  1  SU_T23U10  -1
    X_T22U11  COST  31.4218  DEM_T22  1
    X_T22U11  SU_T22U11  1  SU_T23U11  -1
    X_T22U12  COST  26.0337  DEM_T22  1
    X_T22U12  SU_T22U12  1  SU_T23U12  -1
    X_T22U13  COST  24.9104  DEM_T22  1
    X_T22U13  SU_T22U13  1  SU_T23U13  -1
    X_T22U14  COST  13.0894  DEM_T22  1
    X_T22U14  SU_T22U14  1  SU_T23U14  -1
    X_T22U15  COST  12.2651  DEM_T22  1
    X_T22U15  SU_T22U15  1  SU_T23U15  -1
    X_T22U16  COST  18.1691  DEM_T22  1
    X_T22U16  SU_T22U16  1  SU_T23U16  -1
    X_T22U17  COST  25.7974  DEM_T22  1
    X_T22U17  SU_T22U17  1  SU_T23U17  -1
    X_T22U18  COST  39.3679  DEM_T22  1
    X_T22U18  SU_T22U18  1  SU_T23U18  -1
    X_T22U19  COST  36.0098  DEM_T22  1
    X_T22U19  SU_T22U19  1  SU_T23U19  -1
    X_T22U20  COST  26.5517  DEM_T22  1
    X_T22U20  SU_T22U20  1  SU_T23U20  -1
    X_T23U1  COST  15.8834  DEM_T23  1
    X_T23U1  SU_T23U1  1  SU_T24U1  -1
    X_T23U2  COST  27.8515  DEM_T23  1
    X_T23U2  SU_T23U2  1  SU_T24U2  -1
    X_T23U3  COST  27.0833  DEM_T23  1
    X_T23U3  SU_T23U3  1  SU_T24U3  -1
    X_T23U4  COST  26.7016  DEM_T23  1
    X_T23U4  SU_T23U4  1  SU_T24U4  -1
    X_T23U5  COST  34.1594  DEM_T23  1
    X_T23U5  SU_T23U5  1  SU_T24U5  -1
    X_T23U6  COST  28.0959  DEM_T23  1
    X_T23U6  SU_T23U6  1  SU_T24U6  -1
    X_T23U7  COST  38.8795  DEM_T23  1
    X_T23U7  SU_T23U7  1  SU_T24U7  -1
    X_T23U8  COST  14.2325  DEM_T23  1
    X_T23U8  SU_T23U8  1  SU_T24U8  -1
    X_T23U9  COST  19.7197  DEM_T23  1
    X_T23U9  SU_T23U9  1  SU_T24U9  -1
    X_T23U10  COST  28.9972  DEM_T23  1
    X_T23U10  SU_T23U10  1  SU_T24U10  -1
    X_T23U11  COST  35.4438  DEM_T23  1
    X_T23U11  SU_T23U11  1  SU_T24U11  -1
    X_T23U12  COST  36.2933  DEM_T23  1
    X_T23U12  SU_T23U12  1  SU_T24U12  -1
    X_T23U13  COST  31.1184  DEM_T23  1
    X_T23U13  SU_T23U13  1  SU_T24U13  -1
    X_T23U14  COST  28.7428  DEM_T23  1
    X_T23U14  SU_T23U14  1  SU_T24U14  -1
    X_T23U15  COST  34.7532  DEM_T23  1
    X_T23U15  SU_T23U15  1  SU_T24U15  -1
    X_T23U16  COST  11.0268  DEM_T23  1
    X_T23U16  SU_T23U16  1  SU_T24U16  -1
    X_T23U17  COST  20.3558  DEM_T23  1
    X_T23U17  SU_T23U17  1  SU_T24U17  -1
    X_T23U18  COST  20.8827  DEM_T23  1
    X_T23U18  SU_T23U18  1  SU_T24U18  -1
    X_T23U19  COST  16.5853  DEM_T23  1
    X_T23U19  SU_T23U19  1  SU_T24U19  -1
    X_T23U20  COST  33.3928  DEM_T23  1
    X_T23U20  SU_T23U20  1  SU_T24U20  -1
    X_T24U1  COST  26.9733  DEM_T24  1
    X_T24U1  SU_T24U1  1  SU_T25U1  -1
    X_T24U2  COST  24.132  DEM_T24  1
    X_T24U2  SU_T24U2  1  SU_T25U2  -1
    X_T24U3  COST  24.5434  DEM_T24  1
    X_T24U3  SU_T24U3  1  SU_T25U3  -1
    X_T24U4  COST  32.2506  DEM_T24  1
    X_T24U4  SU_T24U4  1  SU_T25U4  -1
    X_T24U5  COST  22.0765  DEM_T24  1
    X_T24U5  SU_T24U5  1  SU_T25U5  -1
    X_T24U6  COST  29.3516  DEM_T24  1
    X_T24U6  SU_T24U6  1  SU_T25U6  -1
    X_T24U7  COST  13.9683  DEM_T24  1
    X_T24U7  SU_T24U7  1  SU_T25U7  -1
    X_T24U8  COST  30.7367  DEM_T24  1
    X_T24U8  SU_T24U8  1  SU_T25U8  -1
    X_T24U9  COST  34.6775  DEM_T24  1
    X_T24U9  SU_T24U9  1  SU_T25U9  -1
    X_T24U10  COST  34.4516  DEM_T24  1
    X_T24U10  SU_T24U10  1  SU_T25U10  -1
    X_T24U11  COST  12.0153  DEM_T24  1
    X_T24U11  SU_T24U11  1  SU_T25U11  -1
    X_T24U12  COST  24.9239  DEM_T24  1
    X_T24U12  SU_T24U12  1  SU_T25U12  -1
    X_T24U13  COST  13.1974  DEM_T24  1
    X_T24U13  SU_T24U13  1  SU_T25U13  -1
    X_T24U14  COST  17.9105  DEM_T24  1
    X_T24U14  SU_T24U14  1  SU_T25U14  -1
    X_T24U15  COST  31.9655  DEM_T24  1
    X_T24U15  SU_T24U15  1  SU_T25U15  -1
    X_T24U16  COST  28.9929  DEM_T24  1
    X_T24U16  SU_T24U16  1  SU_T25U16  -1
    X_T24U17  COST  27.1988  DEM_T24  1
    X_T24U17  SU_T24U17  1  SU_T25U17  -1
    X_T24U18  COST  22.1314  DEM_T24  1
    X_T24U18  SU_T24U18  1  SU_T25U18  -1
    X_T24U19  COST  22.6611  DEM_T24  1
    X_T24U19  SU_T24U19  1  SU_T25U19  -1
    X_T24U20  COST  38.7588  DEM_T24  1
    X_T24U20  SU_T24U20  1  SU_T25U20  -1
    X_T25U1  COST  12.7101  DEM_T25  1
    X_T25U1  SU_T25U1  1  SU_T26U1  -1
    X_T25U2  COST  12.0475  DEM_T25  1
    X_T25U2  SU_T25U2  1  SU_T26U2  -1
    X_T25U3  COST  23.1158  DEM_T25  1
    X_T25U3  SU_T25U3  1  SU_T26U3  -1
    X_T25U4  COST  31.646  DEM_T25  1
    X_T25U4  SU_T25U4  1  SU_T26U4  -1
    X_T25U5  COST  38.4792  DEM_T25  1
    X_T25U5  SU_T25U5  1  SU_T26U5  -1
    X_T25U6  COST  38.6226  DEM_T25  1
    X_T25U6  SU_T25U6  1  SU_T26U6  -1
    X_T25U7  COST  24.5126  DEM_T25  1
    X_T25U7  SU_T25U7  1  SU_T26U7  -1
    X_T25U8  COST  26.1953  DEM_T25  1
    X_T25U8  SU_T25U8  1  SU_T26U8  -1
    X_T25U9  COST  35.2459  DEM_T25  1
    X_T25U9  SU_T25U9  1  SU_T26U9  -1
    X_T25U10  COST  38.6571  DEM_T25  1
    X_T25U10  SU_T25U10  1  SU_T26U10  -1
    X_T25U11  COST  28.7  DEM_T25  1
    X_T25U11  SU_T25U11  1  SU_T26U11  -1
    X_T25U12  COST  20.3315  DEM_T25  1
    X_T25U12  SU_T25U12  1  SU_T26U12  -1
    X_T25U13  COST  22.3838  DEM_T25  1
    X_T25U13  SU_T25U13  1  SU_T26U13  -1
    X_T25U14  COST  27.9486  DEM_T25  1
    X_T25U14  SU_T25U14  1  SU_T26U14  -1
    X_T25U15  COST  12.278  DEM_T25  1
    X_T25U15  SU_T25U15  1  SU_T26U15  -1
    X_T25U16  COST  10.0702  DEM_T25  1
    X_T25U16  SU_T25U16  1  SU_T26U16  -1
    X_T25U17  COST  10.1576  DEM_T25  1
    X_T25U17  SU_T25U17  1  SU_T26U17  -1
    X_T25U18  COST  19.4379  DEM_T25  1
    X_T25U18  SU_T25U18  1  SU_T26U18  -1
    X_T25U19  COST  38.863  DEM_T25  1
    X_T25U19  SU_T25U19  1  SU_T26U19  -1
    X_T25U20  COST  30.7168  DEM_T25  1
    X_T25U20  SU_T25U20  1  SU_T26U20  -1
    X_T26U1  COST  12.6012  DEM_T26  1
    X_T26U1  SU_T26U1  1  SU_T27U1  -1
    X_T26U2  COST  32.7518  DEM_T26  1
    X_T26U2  SU_T26U2  1  SU_T27U2  -1
    X_T26U3  COST  32.7711  DEM_T26  1
    X_T26U3  SU_T26U3  1  SU_T27U3  -1
    X_T26U4  COST  29.1169  DEM_T26  1
    X_T26U4  SU_T26U4  1  SU_T27U4  -1
    X_T26U5  COST  37.1009  DEM_T26  1
    X_T26U5  SU_T26U5  1  SU_T27U5  -1
    X_T26U6  COST  30.7953  DEM_T26  1
    X_T26U6  SU_T26U6  1  SU_T27U6  -1
    X_T26U7  COST  30.0975  DEM_T26  1
    X_T26U7  SU_T26U7  1  SU_T27U7  -1
    X_T26U8  COST  27.6479  DEM_T26  1
    X_T26U8  SU_T26U8  1  SU_T27U8  -1
    X_T26U9  COST  26.6742  DEM_T26  1
    X_T26U9  SU_T26U9  1  SU_T27U9  -1
    X_T26U10  COST  19.3856  DEM_T26  1
    X_T26U10  SU_T26U10  1  SU_T27U10  -1
    X_T26U11  COST  31.9307  DEM_T26  1
    X_T26U11  SU_T26U11  1  SU_T27U11  -1
    X_T26U12  COST  13.4585  DEM_T26  1
    X_T26U12  SU_T26U12  1  SU_T27U12  -1
    X_T26U13  COST  33.8603  DEM_T26  1
    X_T26U13  SU_T26U13  1  SU_T27U13  -1
    X_T26U14  COST  11.6465  DEM_T26  1
    X_T26U14  SU_T26U14  1  SU_T27U14  -1
    X_T26U15  COST  25.673  DEM_T26  1
    X_T26U15  SU_T26U15  1  SU_T27U15  -1
    X_T26U16  COST  29.505  DEM_T26  1
    X_T26U16  SU_T26U16  1  SU_T27U16  -1
    X_T26U17  COST  26.8203  DEM_T26  1
    X_T26U17  SU_T26U17  1  SU_T27U17  -1
    X_T26U18  COST  36.55  DEM_T26  1
    X_T26U18  SU_T26U18  1  SU_T27U18  -1
    X_T26U19  COST  23.231  DEM_T26  1
    X_T26U19  SU_T26U19  1  SU_T27U19  -1
    X_T26U20  COST  27.1728  DEM_T26  1
    X_T26U20  SU_T26U20  1  SU_T27U20  -1
    X_T27U1  COST  26.152  DEM_T27  1
    X_T27U1  SU_T27U1  1  SU_T28U1  -1
    X_T27U2  COST  32.1357  DEM_T27  1
    X_T27U2  SU_T27U2  1  SU_T28U2  -1
    X_T27U3  COST  22.8045  DEM_T27  1
    X_T27U3  SU_T27U3  1  SU_T28U3  -1
    X_T27U4  COST  22.5252  DEM_T27  1
    X_T27U4  SU_T27U4  1  SU_T28U4  -1
    X_T27U5  COST  39.7102  DEM_T27  1
    X_T27U5  SU_T27U5  1  SU_T28U5  -1
    X_T27U6  COST  15.5642  DEM_T27  1
    X_T27U6  SU_T27U6  1  SU_T28U6  -1
    X_T27U7  COST  37.9777  DEM_T27  1
    X_T27U7  SU_T27U7  1  SU_T28U7  -1
    X_T27U8  COST  10.2846  DEM_T27  1
    X_T27U8  SU_T27U8  1  SU_T28U8  -1
    X_T27U9  COST  12.6563  DEM_T27  1
    X_T27U9  SU_T27U9  1  SU_T28U9  -1
    X_T27U10  COST  24.3934  DEM_T27  1
    X_T27U10  SU_T27U10  1  SU_T28U10  -1
    X_T27U11  COST  18.1506  DEM_T27  1
    X_T27U11  SU_T27U11  1  SU_T28U11  -1
    X_T27U12  COST  12.751  DEM_T27  1
    X_T27U12  SU_T27U12  1  SU_T28U12  -1
    X_T27U13  COST  25.6756  DEM_T27  1
    X_T27U13  SU_T27U13  1  SU_T28U13  -1
    X_T27U14  COST  10.1004  DEM_T27  1
    X_T27U14  SU_T27U14  1  SU_T28U14  -1
    X_T27U15  COST  18.9101  DEM_T27  1
    X_T27U15  SU_T27U15  1  SU_T28U15  -1
    X_T27U16  COST  31.4666  DEM_T27  1
    X_T27U16  SU_T27U16  1  SU_T28U16  -1
    X_T27U17  COST  18.318  DEM_T27  1
    X_T27U17  SU_T27U17  1  SU_T28U17  -1
    X_T27U18  COST  11.353  DEM_T27  1
    X_T27U18  SU_T27U18  1  SU_T28U18  -1
    X_T27U19  COST  21.7489  DEM_T27  1
    X_T27U19  SU_T27U19  1  SU_T28U19  -1
    X_T27U20  COST  38.6925  DEM_T27  1
    X_T27U20  SU_T27U20  1  SU_T28U20  -1
    X_T28U1  COST  17.7695  DEM_T28  1
    X_T28U1  SU_T28U1  1  SU_T29U1  -1
    X_T28U2  COST  39.4699  DEM_T28  1
    X_T28U2  SU_T28U2  1  SU_T29U2  -1
    X_T28U3  COST  28.024  DEM_T28  1
    X_T28U3  SU_T28U3  1  SU_T29U3  -1
    X_T28U4  COST  39.6755  DEM_T28  1
    X_T28U4  SU_T28U4  1  SU_T29U4  -1
    X_T28U5  COST  11.9496  DEM_T28  1
    X_T28U5  SU_T28U5  1  SU_T29U5  -1
    X_T28U6  COST  35.1348  DEM_T28  1
    X_T28U6  SU_T28U6  1  SU_T29U6  -1
    X_T28U7  COST  34.9193  DEM_T28  1
    X_T28U7  SU_T28U7  1  SU_T29U7  -1
    X_T28U8  COST  11.4084  DEM_T28  1
    X_T28U8  SU_T28U8  1  SU_T29U8  -1
    X_T28U9  COST  11.102  DEM_T28  1
    X_T28U9  SU_T28U9  1  SU_T29U9  -1
    X_T28U10  COST  34.7862  DEM_T28  1
    X_T28U10  SU_T28U10  1  SU_T29U10  -1
    X_T28U11  COST  28.8933  DEM_T28  1
    X_T28U11  SU_T28U11  1  SU_T29U11  -1
    X_T28U12  COST  25.5478  DEM_T28  1
    X_T28U12  SU_T28U12  1  SU_T29U12  -1
    X_T28U13  COST  25.7509  DEM_T28  1
    X_T28U13  SU_T28U13  1  SU_T29U13  -1
    X_T28U14  COST  25.4574  DEM_T28  1
    X_T28U14  SU_T28U14  1  SU_T29U14  -1
    X_T28U15  COST  39.8901  DEM_T28  1
    X_T28U15  SU_T28U15  1  SU_T29U15  -1
    X_T28U16  COST  23.9014  DEM_T28  1
    X_T28U16  SU_T28U16  1  SU_T29U16  -1
    X_T28U17  COST  32.4361  DEM_T28  1
    X_T28U17  SU_T28U17  1  SU_T29U17  -1
    X_T28U18  COST  36.8476  DEM_T28  1
    X_T28U18  SU_T28U18  1  SU_T29U18  -1
    X_T28U19  COST  23.723  DEM_T28  1
    X_T28U19  SU_T28U19  1  SU_T29U19  -1
    X_T28U20  COST  18.1888  DEM_T28  1
    X_T28U20  SU_T28U20  1  SU_T29U20  -1
    X_T29U1  COST  11.3313  DEM_T29  1
    X_T29U1  SU_T29U1  1  SU_T30U1  -1
    X_T29U2  COST  11.0627  DEM_T29  1
    X_T29U2  SU_T29U2  1  SU_T30U2  -1
    X_T29U3  COST  37.9477  DEM_T29  1
    X_T29U3  SU_T29U3  1  SU_T30U3  -1
    X_T29U4  COST  18.4417  DEM_T29  1
    X_T29U4  SU_T29U4  1  SU_T30U4  -1
    X_T29U5  COST  10.1525  DEM_T29  1
    X_T29U5  SU_T29U5  1  SU_T30U5  -1
    X_T29U6  COST  11.4635  DEM_T29  1
    X_T29U6  SU_T29U6  1  SU_T30U6  -1
    X_T29U7  COST  38.8637  DEM_T29  1
    X_T29U7  SU_T29U7  1  SU_T30U7  -1
    X_T29U8  COST  36.8344  DEM_T29  1
    X_T29U8  SU_T29U8  1  SU_T30U8  -1
    X_T29U9  COST  11.8455  DEM_T29  1
    X_T29U9  SU_T29U9  1  SU_T30U9  -1
    X_T29U10  COST  25.4824  DEM_T29  1
    X_T29U10  SU_T29U10  1  SU_T30U10  -1
    X_T29U11  COST  27.1396  DEM_T29  1
    X_T29U11  SU_T29U11  1  SU_T30U11  -1
    X_T29U12  COST  26.3134  DEM_T29  1
    X_T29U12  SU_T29U12  1  SU_T30U12  -1
    X_T29U13  COST  32.0173  DEM_T29  1
    X_T29U13  SU_T29U13  1  SU_T30U13  -1
    X_T29U14  COST  36.0448  DEM_T29  1
    X_T29U14  SU_T29U14  1  SU_T30U14  -1
    X_T29U15  COST  14.7202  DEM_T29  1
    X_T29U15  SU_T29U15  1  SU_T30U15  -1
    X_T29U16  COST  20.0203  DEM_T29  1
    X_T29U16  SU_T29U16  1  SU_T30U16  -1
    X_T29U17  COST  37.9027  DEM_T29  1
    X_T29U17  SU_T29U17  1  SU_T30U17  -1
    X_T29U18  COST  30.9697  DEM_T29  1
    X_T29U18  SU_T29U18  1  SU_T30U18  -1
    X_T29U19  COST  36.4491  DEM_T29  1
    X_T29U19  SU_T29U19  1  SU_T30U19  -1
    X_T29U20  COST  23.9641  DEM_T29  1
    X_T29U20  SU_T29U20  1  SU_T30U20  -1
    X_T30U1  COST  10.1544  DEM_T30  1
    X_T30U1  SU_T30U1  1  SU_T31U1  -1
    X_T30U2  COST  16.8588  DEM_T30  1
    X_T30U2  SU_T30U2  1  SU_T31U2  -1
    X_T30U3  COST  10.0336  DEM_T30  1
    X_T30U3  SU_T30U3  1  SU_T31U3  -1
    X_T30U4  COST  32.6991  DEM_T30  1
    X_T30U4  SU_T30U4  1  SU_T31U4  -1
    X_T30U5  COST  15.794  DEM_T30  1
    X_T30U5  SU_T30U5  1  SU_T31U5  -1
    X_T30U6  COST  19.793  DEM_T30  1
    X_T30U6  SU_T30U6  1  SU_T31U6  -1
    X_T30U7  COST  13.4753  DEM_T30  1
    X_T30U7  SU_T30U7  1  SU_T31U7  -1
    X_T30U8  COST  10.2722  DEM_T30  1
    X_T30U8  SU_T30U8  1  SU_T31U8  -1
    X_T30U9  COST  13.8535  DEM_T30  1
    X_T30U9  SU_T30U9  1  SU_T31U9  -1
    X_T30U10  COST  10.5528  DEM_T30  1
    X_T30U10  SU_T30U10  1  SU_T31U10  -1
    X_T30U11  COST  35.2036  DEM_T30  1
    X_T30U11  SU_T30U11  1  SU_T31U11  -1
    X_T30U12  COST  15.3849  DEM_T30  1
    X_T30U12  SU_T30U12  1  SU_T31U12  -1
    X_T30U13  COST  33.6642  DEM_T30  1
    X_T30U13  SU_T30U13  1  SU_T31U13  -1
    X_T30U14  COST  33.1256  DEM_T30  1
    X_T30U14  SU_T30U14  1  SU_T31U14  -1
    X_T30U15  COST  14.9913  DEM_T30  1
    X_T30U15  SU_T30U15  1  SU_T31U15  -1
    X_T30U16  COST  31.2572  DEM_T30  1
    X_T30U16  SU_T30U16  1  SU_T31U16  -1
    X_T30U17  COST  11.7376  DEM_T30  1
    X_T30U17  SU_T30U17  1  SU_T31U17  -1
    X_T30U18  COST  35.5724  DEM_T30  1
    X_T30U18  SU_T30U18  1  SU_T31U18  -1
    X_T30U19  COST  30.2816  DEM_T30  1
    X_T30U19  SU_T30U19  1  SU_T31U19  -1
    X_T30U20  COST  29.4272  DEM_T30  1
    X_T30U20  SU_T30U20  1  SU_T31U20  -1
    X_T31U1  COST  21.5084  DEM_T31  1
    X_T31U1  SU_T31U1  1  SU_T32U1  -1
    X_T31U2  COST  34.6454  DEM_T31  1
    X_T31U2  SU_T31U2  1  SU_T32U2  -1
    X_T31U3  COST  34.5636  DEM_T31  1
    X_T31U3  SU_T31U3  1  SU_T32U3  -1
    X_T31U4  COST  10.0309  DEM_T31  1
    X_T31U4  SU_T31U4  1  SU_T32U4  -1
    X_T31U5  COST  24.0562  DEM_T31  1
    X_T31U5  SU_T31U5  1  SU_T32U5  -1
    X_T31U6  COST  13.0658  DEM_T31  1
    X_T31U6  SU_T31U6  1  SU_T32U6  -1
    X_T31U7  COST  25.8107  DEM_T31  1
    X_T31U7  SU_T31U7  1  SU_T32U7  -1
    X_T31U8  COST  18.9512  DEM_T31  1
    X_T31U8  SU_T31U8  1  SU_T32U8  -1
    X_T31U9  COST  33.1847  DEM_T31  1
    X_T31U9  SU_T31U9  1  SU_T32U9  -1
    X_T31U10  COST  13.9401  DEM_T31  1
    X_T31U10  SU_T31U10  1  SU_T32U10  -1
    X_T31U11  COST  38.8971  DEM_T31  1
    X_T31U11  SU_T31U11  1  SU_T32U11  -1
    X_T31U12  COST  31.9381  DEM_T31  1
    X_T31U12  SU_T31U12  1  SU_T32U12  -1
    X_T31U13  COST  35.7208  DEM_T31  1
    X_T31U13  SU_T31U13  1  SU_T32U13  -1
    X_T31U14  COST  32.8028  DEM_T31  1
    X_T31U14  SU_T31U14  1  SU_T32U14  -1
    X_T31U15  COST  19.3586  DEM_T31  1
    X_T31U15  SU_T31U15  1  SU_T32U15  -1
    X_T31U16  COST  31.7327  DEM_T31  1
    X_T31U16  SU_T31U16  1  SU_T32U16  -1
    X_T31U17  COST  16.0108  DEM_T31  1
    X_T31U17  SU_T31U17  1  SU_T32U17  -1
    X_T31U18  COST  31.4477  DEM_T31  1
    X_T31U18  SU_T31U18  1  SU_T32U18  -1
    X_T31U19  COST  24.146  DEM_T31  1
    X_T31U19  SU_T31U19  1  SU_T32U19  -1
    X_T31U20  COST  14.7774  DEM_T31  1
    X_T31U20  SU_T31U20  1  SU_T32U20  -1
    X_T32U1  COST  12.7349  DEM_T32  1
    X_T32U1  SU_T32U1  1  SU_T33U1  -1
    X_T32U2  COST  23.6108  DEM_T32  1
    X_T32U2  SU_T32U2  1  SU_T33U2  -1
    X_T32U3  COST  10.5359  DEM_T32  1
    X_T32U3  SU_T32U3  1  SU_T33U3  -1
    X_T32U4  COST  18.825  DEM_T32  1
    X_T32U4  SU_T32U4  1  SU_T33U4  -1
    X_T32U5  COST  39.0253  DEM_T32  1
    X_T32U5  SU_T32U5  1  SU_T33U5  -1
    X_T32U6  COST  23.8629  DEM_T32  1
    X_T32U6  SU_T32U6  1  SU_T33U6  -1
    X_T32U7  COST  27.9498  DEM_T32  1
    X_T32U7  SU_T32U7  1  SU_T33U7  -1
    X_T32U8  COST  17.4262  DEM_T32  1
    X_T32U8  SU_T32U8  1  SU_T33U8  -1
    X_T32U9  COST  16.7662  DEM_T32  1
    X_T32U9  SU_T32U9  1  SU_T33U9  -1
    X_T32U10  COST  29.5456  DEM_T32  1
    X_T32U10  SU_T32U10  1  SU_T33U10  -1
    X_T32U11  COST  27.7079  DEM_T32  1
    X_T32U11  SU_T32U11  1  SU_T33U11  -1
    X_T32U12  COST  39.5305  DEM_T32  1
    X_T32U12  SU_T32U12  1  SU_T33U12  -1
    X_T32U13  COST  23.938  DEM_T32  1
    X_T32U13  SU_T32U13  1  SU_T33U13  -1
    X_T32U14  COST  21.8664  DEM_T32  1
    X_T32U14  SU_T32U14  1  SU_T33U14  -1
    X_T32U15  COST  31.6566  DEM_T32  1
    X_T32U15  SU_T32U15  1  SU_T33U15  -1
    X_T32U16  COST  32.7118  DEM_T32  1
    X_T32U16  SU_T32U16  1  SU_T33U16  -1
    X_T32U17  COST  37.2346  DEM_T32  1
    X_T32U17  SU_T32U17  1  SU_T33U17  -1
    X_T32U18  COST  32.4748  DEM_T32  1
    X_T32U18  SU_T32U18  1  SU_T33U18  -1
    X_T32U19  COST  13.0838  DEM_T32  1
    X_T32U19  SU_T32U19  1  SU_T33U19  -1
    X_T32U20  COST  10.551  DEM_T32  1
    X_T32U20  SU_T32U20  1  SU_T33U20  -1
    X_T33U1  COST  16.3105  DEM_T33  1
    X_T33U1  SU_T33U1  1  SU_T34U1  -1
    X_T33U2  COST  33.2741  DEM_T33  1
    X_T33U2  SU_T33U2  1  SU_T34U2  -1
    X_T33U3  COST  12.1725  DEM_T33  1
    X_T33U3  SU_T33U3  1  SU_T34U3  -1
    X_T33U4  COST  36.476  DEM_T33  1
    X_T33U4  SU_T33U4  1  SU_T34U4  -1
    X_T33U5  COST  34.7354  DEM_T33  1
    X_T33U5  SU_T33U5  1  SU_T34U5  -1
    X_T33U6  COST  19.6628  DEM_T33  1
    X_T33U6  SU_T33U6  1  SU_T34U6  -1
    X_T33U7  COST  16.0258  DEM_T33  1
    X_T33U7  SU_T33U7  1  SU_T34U7  -1
    X_T33U8  COST  34.6432  DEM_T33  1
    X_T33U8  SU_T33U8  1  SU_T34U8  -1
    X_T33U9  COST  30.1116  DEM_T33  1
    X_T33U9  SU_T33U9  1  SU_T34U9  -1
    X_T33U10  COST  13.7266  DEM_T33  1
    X_T33U10  SU_T33U10  1  SU_T34U10  -1
    X_T33U11  COST  27.8433  DEM_T33  1
    X_T33U11  SU_T33U11  1  SU_T34U11  -1
    X_T33U12  COST  28.3883  DEM_T33  1
    X_T33U12  SU_T33U12  1  SU_T34U12  -1
    X_T33U13  COST  38.0561  DEM_T33  1
    X_T33U13  SU_T33U13  1  SU_T34U13  -1
    X_T33U14  COST  28.7591  DEM_T33  1
    X_T33U14  SU_T33U14  1  SU_T34U14  -1
    X_T33U15  COST  28.3677  DEM_T33  1
    X_T33U15  SU_T33U15  1  SU_T34U15  -1
    X_T33U16  COST  29.8246  DEM_T33  1
    X_T33U16  SU_T33U16  1  SU_T34U16  -1
    X_T33U17  COST  27.9243  DEM_T33  1
    X_T33U17  SU_T33U17  1  SU_T34U17  -1
    X_T33U18  COST  24.4271  DEM_T33  1
    X_T33U18  SU_T33U18  1  SU_T34U18  -1
    X_T33U19  COST  14.92  DEM_T33  1
    X_T33U19  SU_T33U19  1  SU_T34U19  -1
    X_T33U20  COST  31.7448  DEM_T33  1
    X_T33U20  SU_T33U20  1  SU_T34U20  -1
    X_T34U1  COST  29.5088  DEM_T34  1
    X_T34U1  SU_T34U1  1  SU_T35U1  -1
    X_T34U2  COST  28.4723  DEM_T34  1
    X_T34U2  SU_T34U2  1  SU_T35U2  -1
    X_T34U3  COST  24.1055  DEM_T34  1
    X_T34U3  SU_T34U3  1  SU_T35U3  -1
    X_T34U4  COST  36.155  DEM_T34  1
    X_T34U4  SU_T34U4  1  SU_T35U4  -1
    X_T34U5  COST  11.3098  DEM_T34  1
    X_T34U5  SU_T34U5  1  SU_T35U5  -1
    X_T34U6  COST  10.6258  DEM_T34  1
    X_T34U6  SU_T34U6  1  SU_T35U6  -1
    X_T34U7  COST  19.9694  DEM_T34  1
    X_T34U7  SU_T34U7  1  SU_T35U7  -1
    X_T34U8  COST  24.7983  DEM_T34  1
    X_T34U8  SU_T34U8  1  SU_T35U8  -1
    X_T34U9  COST  22.0978  DEM_T34  1
    X_T34U9  SU_T34U9  1  SU_T35U9  -1
    X_T34U10  COST  22.552  DEM_T34  1
    X_T34U10  SU_T34U10  1  SU_T35U10  -1
    X_T34U11  COST  35.2136  DEM_T34  1
    X_T34U11  SU_T34U11  1  SU_T35U11  -1
    X_T34U12  COST  38.8234  DEM_T34  1
    X_T34U12  SU_T34U12  1  SU_T35U12  -1
    X_T34U13  COST  35.3874  DEM_T34  1
    X_T34U13  SU_T34U13  1  SU_T35U13  -1
    X_T34U14  COST  32.0605  DEM_T34  1
    X_T34U14  SU_T34U14  1  SU_T35U14  -1
    X_T34U15  COST  25.1453  DEM_T34  1
    X_T34U15  SU_T34U15  1  SU_T35U15  -1
    X_T34U16  COST  25.4199  DEM_T34  1
    X_T34U16  SU_T34U16  1  SU_T35U16  -1
    X_T34U17  COST  10.8818  DEM_T34  1
    X_T34U17  SU_T34U17  1  SU_T35U17  -1
    X_T34U18  COST  28.1857  DEM_T34  1
    X_T34U18  SU_T34U18  1  SU_T35U18  -1
    X_T34U19  COST  33.7887  DEM_T34  1
    X_T34U19  SU_T34U19  1  SU_T35U19  -1
    X_T34U20  COST  39.764  DEM_T34  1
    X_T34U20  SU_T34U20  1  SU_T35U20  -1
    X_T35U1  COST  20.7745  DEM_T35  1
    X_T35U1  SU_T35U1  1  SU_T36U1  -1
    X_T35U2  COST  23.9744  DEM_T35  1
    X_T35U2  SU_T35U2  1  SU_T36U2  -1
    X_T35U3  COST  17.0738  DEM_T35  1
    X_T35U3  SU_T35U3  1  SU_T36U3  -1
    X_T35U4  COST  22.1593  DEM_T35  1
    X_T35U4  SU_T35U4  1  SU_T36U4  -1
    X_T35U5  COST  28.9762  DEM_T35  1
    X_T35U5  SU_T35U5  1  SU_T36U5  -1
    X_T35U6  COST  25.3785  DEM_T35  1
    X_T35U6  SU_T35U6  1  SU_T36U6  -1
    X_T35U7  COST  12.074  DEM_T35  1
    X_T35U7  SU_T35U7  1  SU_T36U7  -1
    X_T35U8  COST  12.9218  DEM_T35  1
    X_T35U8  SU_T35U8  1  SU_T36U8  -1
    X_T35U9  COST  27.7876  DEM_T35  1
    X_T35U9  SU_T35U9  1  SU_T36U9  -1
    X_T35U10  COST  29.8786  DEM_T35  1
    X_T35U10  SU_T35U10  1  SU_T36U10  -1
    X_T35U11  COST  29.5637  DEM_T35  1
    X_T35U11  SU_T35U11  1  SU_T36U11  -1
    X_T35U12  COST  21.9714  DEM_T35  1
    X_T35U12  SU_T35U12  1  SU_T36U12  -1
    X_T35U13  COST  10.2709  DEM_T35  1
    X_T35U13  SU_T35U13  1  SU_T36U13  -1
    X_T35U14  COST  27.9614  DEM_T35  1
    X_T35U14  SU_T35U14  1  SU_T36U14  -1
    X_T35U15  COST  17.1108  DEM_T35  1
    X_T35U15  SU_T35U15  1  SU_T36U15  -1
    X_T35U16  COST  36.5113  DEM_T35  1
    X_T35U16  SU_T35U16  1  SU_T36U16  -1
    X_T35U17  COST  19.9267  DEM_T35  1
    X_T35U17  SU_T35U17  1  SU_T36U17  -1
    X_T35U18  COST  30.0817  DEM_T35  1
    X_T35U18  SU_T35U18  1  SU_T36U18  -1
    X_T35U19  COST  23.483  DEM_T35  1
    X_T35U19  SU_T35U19  1  SU_T36U19  -1
    X_T35U20  COST  38.4575  DEM_T35  1
    X_T35U20  SU_T35U20  1  SU_T36U20  -1
    X_T36U1  COST  20.7775  DEM_T36  1
    X_T36U1  SU_T36U1  1  SU_T37U1  -1
    X_T36U2  COST  28.1661  DEM_T36  1
    X_T36U2  SU_T36U2  1  SU_T37U2  -1
    X_T36U3  COST  26.0054  DEM_T36  1
    X_T36U3  SU_T36U3  1  SU_T37U3  -1
    X_T36U4  COST  31.1616  DEM_T36  1
    X_T36U4  SU_T36U4  1  SU_T37U4  -1
    X_T36U5  COST  35.9265  DEM_T36  1
    X_T36U5  SU_T36U5  1  SU_T37U5  -1
    X_T36U6  COST  26.1972  DEM_T36  1
    X_T36U6  SU_T36U6  1  SU_T37U6  -1
    X_T36U7  COST  39.6008  DEM_T36  1
    X_T36U7  SU_T36U7  1  SU_T37U7  -1
    X_T36U8  COST  16.9339  DEM_T36  1
    X_T36U8  SU_T36U8  1  SU_T37U8  -1
    X_T36U9  COST  29.2001  DEM_T36  1
    X_T36U9  SU_T36U9  1  SU_T37U9  -1
    X_T36U10  COST  15.4003  DEM_T36  1
    X_T36U10  SU_T36U10  1  SU_T37U10  -1
    X_T36U11  COST  13.0993  DEM_T36  1
    X_T36U11  SU_T36U11  1  SU_T37U11  -1
    X_T36U12  COST  30.6462  DEM_T36  1
    X_T36U12  SU_T36U12  1  SU_T37U12  -1
    X_T36U13  COST  24.3969  DEM_T36  1
    X_T36U13  SU_T36U13  1  SU_T37U13  -1
    X_T36U14  COST  10.5214  DEM_T36  1
    X_T36U14  SU_T36U14  1  SU_T37U14  -1
    X_T36U15  COST  39.1929  DEM_T36  1
    X_T36U15  SU_T36U15  1  SU_T37U15  -1
    X_T36U16  COST  17.6267  DEM_T36  1
    X_T36U16  SU_T36U16  1  SU_T37U16  -1
    X_T36U17  COST  20.2796  DEM_T36  1
    X_T36U17  SU_T36U17  1  SU_T37U17  -1
    X_T36U18  COST  13.7722  DEM_T36  1
    X_T36U18  SU_T36U18  1  SU_T37U18  -1
    X_T36U19  COST  14.3063  DEM_T36  1
    X_T36U19  SU_T36U19  1  SU_T37U19  -1
    X_T36U20  COST  31.987  DEM_T36  1
    X_T36U20  SU_T36U20  1  SU_T37U20  -1
    X_T37U1  COST  15.6505  DEM_T37  1
    X_T37U1  SU_T37U1  1  SU_T38U1  -1
    X_T37U2  COST  14.6849  DEM_T37  1
    X_T37U2  SU_T37U2  1  SU_T38U2  -1
    X_T37U3  COST  38.9004  DEM_T37  1
    X_T37U3  SU_T37U3  1  SU_T38U3  -1
    X_T37U4  COST  29.849  DEM_T37  1
    X_T37U4  SU_T37U4  1  SU_T38U4  -1
    X_T37U5  COST  21.2289  DEM_T37  1
    X_T37U5  SU_T37U5  1  SU_T38U5  -1
    X_T37U6  COST  17.3244  DEM_T37  1
    X_T37U6  SU_T37U6  1  SU_T38U6  -1
    X_T37U7  COST  35.9383  DEM_T37  1
    X_T37U7  SU_T37U7  1  SU_T38U7  -1
    X_T37U8  COST  13.3933  DEM_T37  1
    X_T37U8  SU_T37U8  1  SU_T38U8  -1
    X_T37U9  COST  37.5603  DEM_T37  1
    X_T37U9  SU_T37U9  1  SU_T38U9  -1
    X_T37U10  COST  38.2263  DEM_T37  1
    X_T37U10  SU_T37U10  1  SU_T38U10  -1
    X_T37U11  COST  30.0091  DEM_T37  1
    X_T37U11  SU_T37U11  1  SU_T38U11  -1
    X_T37U12  COST  20.4572  DEM_T37  1
    X_T37U12  SU_T37U12  1  SU_T38U12  -1
    X_T37U13  COST  28.1486  DEM_T37  1
    X_T37U13  SU_T37U13  1  SU_T38U13  -1
    X_T37U14  COST  35.9932  DEM_T37  1
    X_T37U14  SU_T37U14  1  SU_T38U14  -1
    X_T37U15  COST  32.5728  DEM_T37  1
    X_T37U15  SU_T37U15  1  SU_T38U15  -1
    X_T37U16  COST  18.6606  DEM_T37  1
    X_T37U16  SU_T37U16  1  SU_T38U16  -1
    X_T37U17  COST  29.5153  DEM_T37  1
    X_T37U17  SU_T37U17  1  SU_T38U17  -1
    X_T37U18  COST  37.7702  DEM_T37  1
    X_T37U18  SU_T37U18  1  SU_T38U18  -1
    X_T37U19  COST  37.0413  DEM_T37  1
    X_T37U19  SU_T37U19  1  SU_T38U19  -1
    X_T37U20  COST  19.5159  DEM_T37  1
    X_T37U20  SU_T37U20  1  SU_T38U20  -1
    X_T38U1  COST  21.2702  DEM_T38  1
    X_T38U1  SU_T38U1  1  SU_T39U1  -1
    X_T38U2  COST  29.4722  DEM_T38  1
    X_T38U2  SU_T38U2  1  SU_T39U2  -1
    X_T38U3  COST  28.9063  DEM_T38  1
    X_T38U3  SU_T38U3  1  SU_T39U3  -1
    X_T38U4  COST  26.9032  DEM_T38  1
    X_T38U4  SU_T38U4  1  SU_T39U4  -1
    X_T38U5  COST  26.455  DEM_T38  1
    X_T38U5  SU_T38U5  1  SU_T39U5  -1
    X_T38U6  COST  26.3706  DEM_T38  1
    X_T38U6  SU_T38U6  1  SU_T39U6  -1
    X_T38U7  COST  10.44  DEM_T38  1
    X_T38U7  SU_T38U7  1  SU_T39U7  -1
    X_T38U8  COST  15.0533  DEM_T38  1
    X_T38U8  SU_T38U8  1  SU_T39U8  -1
    X_T38U9  COST  32.7803  DEM_T38  1
    X_T38U9  SU_T38U9  1  SU_T39U9  -1
    X_T38U10  COST  26.2709  DEM_T38  1
    X_T38U10  SU_T38U10  1  SU_T39U10  -1
    X_T38U11  COST  35.415  DEM_T38  1
    X_T38U11  SU_T38U11  1  SU_T39U11  -1
    X_T38U12  COST  34.413  DEM_T38  1
    X_T38U12  SU_T38U12  1  SU_T39U12  -1
    X_T38U13  COST  14.4698  DEM_T38  1
    X_T38U13  SU_T38U13  1  SU_T39U13  -1
    X_T38U14  COST  17.3821  DEM_T38  1
    X_T38U14  SU_T38U14  1  SU_T39U14  -1
    X_T38U15  COST  21.831  DEM_T38  1
    X_T38U15  SU_T38U15  1  SU_T39U15  -1
    X_T38U16  COST  32.4063  DEM_T38  1
    X_T38U16  SU_T38U16  1  SU_T39U16  -1
    X_T38U17  COST  25.637  DEM_T38  1
    X_T38U17  SU_T38U17  1  SU_T39U17  -1
    X_T38U18  COST  22.9259  DEM_T38  1
    X_T38U18  SU_T38U18  1  SU_T39U18  -1
    X_T38U19  COST  12.1384  DEM_T38  1
    X_T38U19  SU_T38U19  1  SU_T39U19  -1
    X_T38U20  COST  29.6408  DEM_T38  1
    X_T38U20  SU_T38U20  1  SU_T39U20  -1
    X_T39U1  COST  15.9146  DEM_T39  1
    X_T39U1  SU_T39U1  1  SU_T40U1  -1
    X_T39U2  COST  15.8367  DEM_T39  1
    X_T39U2  SU_T39U2  1  SU_T40U2  -1
    X_T39U3  COST  28.5206  DEM_T39  1
    X_T39U3  SU_T39U3  1  SU_T40U3  -1
    X_T39U4  COST  30.1029  DEM_T39  1
    X_T39U4  SU_T39U4  1  SU_T40U4  -1
    X_T39U5  COST  25.9678  DEM_T39  1
    X_T39U5  SU_T39U5  1  SU_T40U5  -1
    X_T39U6  COST  12.6888  DEM_T39  1
    X_T39U6  SU_T39U6  1  SU_T40U6  -1
    X_T39U7  COST  21.9972  DEM_T39  1
    X_T39U7  SU_T39U7  1  SU_T40U7  -1
    X_T39U8  COST  34.6952  DEM_T39  1
    X_T39U8  SU_T39U8  1  SU_T40U8  -1
    X_T39U9  COST  13.6967  DEM_T39  1
    X_T39U9  SU_T39U9  1  SU_T40U9  -1
    X_T39U10  COST  33.9934  DEM_T39  1
    X_T39U10  SU_T39U10  1  SU_T40U10  -1
    X_T39U11  COST  18.8583  DEM_T39  1
    X_T39U11  SU_T39U11  1  SU_T40U11  -1
    X_T39U12  COST  15.5569  DEM_T39  1
    X_T39U12  SU_T39U12  1  SU_T40U12  -1
    X_T39U13  COST  22.7358  DEM_T39  1
    X_T39U13  SU_T39U13  1  SU_T40U13  -1
    X_T39U14  COST  34.4725  DEM_T39  1
    X_T39U14  SU_T39U14  1  SU_T40U14  -1
    X_T39U15  COST  25.795  DEM_T39  1
    X_T39U15  SU_T39U15  1  SU_T40U15  -1
    X_T39U16  COST  10.0775  DEM_T39  1
    X_T39U16  SU_T39U16  1  SU_T40U16  -1
    X_T39U17  COST  25.4553  DEM_T39  1
    X_T39U17  SU_T39U17  1  SU_T40U17  -1
    X_T39U18  COST  33.8123  DEM_T39  1
    X_T39U18  SU_T39U18  1  SU_T40U18  -1
    X_T39U19  COST  15.2432  DEM_T39  1
    X_T39U19  SU_T39U19  1  SU_T40U19  -1
    X_T39U20  COST  37.1767  DEM_T39  1
    X_T39U20  SU_T39U20  1  SU_T40U20  -1
    X_T40U1  COST  26.6991  DEM_T40  1
    X_T40U1  SU_T40U1  1  SU_T41U1  -1
    X_T40U2  COST  19.0618  DEM_T40  1
    X_T40U2  SU_T40U2  1  SU_T41U2  -1
    X_T40U3  COST  35.5352  DEM_T40  1
    X_T40U3  SU_T40U3  1  SU_T41U3  -1
    X_T40U4  COST  34.2859  DEM_T40  1
    X_T40U4  SU_T40U4  1  SU_T41U4  -1
    X_T40U5  COST  14.4911  DEM_T40  1
    X_T40U5  SU_T40U5  1  SU_T41U5  -1
    X_T40U6  COST  14.5895  DEM_T40  1
    X_T40U6  SU_T40U6  1  SU_T41U6  -1
    X_T40U7  COST  36.0778  DEM_T40  1
    X_T40U7  SU_T40U7  1  SU_T41U7  -1
    X_T40U8  COST  26.0607  DEM_T40  1
    X_T40U8  SU_T40U8  1  SU_T41U8  -1
    X_T40U9  COST  19.3682  DEM_T40  1
    X_T40U9  SU_T40U9  1  SU_T41U9  -1
    X_T40U10  COST  16.1856  DEM_T40  1
    X_T40U10  SU_T40U10  1  SU_T41U10  -1
    X_T40U11  COST  17.7065  DEM_T40  1
    X_T40U11  SU_T40U11  1  SU_T41U11  -1
    X_T40U12  COST  11.7536  DEM_T40  1
    X_T40U12  SU_T40U12  1  SU_T41U12  -1
    X_T40U13  COST  18.2362  DEM_T40  1
    X_T40U13  SU_T40U13  1  SU_T41U13  -1
    X_T40U14  COST  30.2752  DEM_T40  1
    X_T40U14  SU_T40U14  1  SU_T41U14  -1
    X_T40U15  COST  23.3737  DEM_T40  1
    X_T40U15  SU_T40U15  1  SU_T41U15  -1
    X_T40U16  COST  10.4746  DEM_T40  1
    X_T40U16  SU_T40U16  1  SU_T41U16  -1
    X_T40U17  COST  34.5612  DEM_T40  1
    X_T40U17  SU_T40U17  1  SU_T41U17  -1
    X_T40U18  COST  20.1168  DEM_T40  1
    X_T40U18  SU_T40U18  1  SU_T41U18  -1
    X_T40U19  COST  33.1787  DEM_T40  1
    X_T40U19  SU_T40U19  1  SU_T41U19  -1
    X_T40U20  COST  29.3587  DEM_T40  1
    X_T40U20  SU_T40U20  1  SU_T41U20  -1
    X_T41U1  COST  22.0356  DEM_T41  1
    X_T41U1  SU_T41U1  1  SU_T42U1  -1
    X_T41U2  COST  20.3068  DEM_T41  1
    X_T41U2  SU_T41U2  1  SU_T42U2  -1
    X_T41U3  COST  23.2723  DEM_T41  1
    X_T41U3  SU_T41U3  1  SU_T42U3  -1
    X_T41U4  COST  30.0881  DEM_T41  1
    X_T41U4  SU_T41U4  1  SU_T42U4  -1
    X_T41U5  COST  29.205  DEM_T41  1
    X_T41U5  SU_T41U5  1  SU_T42U5  -1
    X_T41U6  COST  27.7844  DEM_T41  1
    X_T41U6  SU_T41U6  1  SU_T42U6  -1
    X_T41U7  COST  16.9249  DEM_T41  1
    X_T41U7  SU_T41U7  1  SU_T42U7  -1
    X_T41U8  COST  15.7097  DEM_T41  1
    X_T41U8  SU_T41U8  1  SU_T42U8  -1
    X_T41U9  COST  21.3543  DEM_T41  1
    X_T41U9  SU_T41U9  1  SU_T42U9  -1
    X_T41U10  COST  39.8644  DEM_T41  1
    X_T41U10  SU_T41U10  1  SU_T42U10  -1
    X_T41U11  COST  20.0071  DEM_T41  1
    X_T41U11  SU_T41U11  1  SU_T42U11  -1
    X_T41U12  COST  12.663  DEM_T41  1
    X_T41U12  SU_T41U12  1  SU_T42U12  -1
    X_T41U13  COST  29.0488  DEM_T41  1
    X_T41U13  SU_T41U13  1  SU_T42U13  -1
    X_T41U14  COST  15.1143  DEM_T41  1
    X_T41U14  SU_T41U14  1  SU_T42U14  -1
    X_T41U15  COST  22.6807  DEM_T41  1
    X_T41U15  SU_T41U15  1  SU_T42U15  -1
    X_T41U16  COST  10.0371  DEM_T41  1
    X_T41U16  SU_T41U16  1  SU_T42U16  -1
    X_T41U17  COST  39.4371  DEM_T41  1
    X_T41U17  SU_T41U17  1  SU_T42U17  -1
    X_T41U18  COST  21.4758  DEM_T41  1
    X_T41U18  SU_T41U18  1  SU_T42U18  -1
    X_T41U19  COST  39.2249  DEM_T41  1
    X_T41U19  SU_T41U19  1  SU_T42U19  -1
    X_T41U20  COST  32.1154  DEM_T41  1
    X_T41U20  SU_T41U20  1  SU_T42U20  -1
    X_T42U1  COST  17.3097  DEM_T42  1
    X_T42U1  SU_T42U1  1  SU_T43U1  -1
    X_T42U2  COST  12.7879  DEM_T42  1
    X_T42U2  SU_T42U2  1  SU_T43U2  -1
    X_T42U3  COST  33.6371  DEM_T42  1
    X_T42U3  SU_T42U3  1  SU_T43U3  -1
    X_T42U4  COST  28.2546  DEM_T42  1
    X_T42U4  SU_T42U4  1  SU_T43U4  -1
    X_T42U5  COST  14.7791  DEM_T42  1
    X_T42U5  SU_T42U5  1  SU_T43U5  -1
    X_T42U6  COST  13.5295  DEM_T42  1
    X_T42U6  SU_T42U6  1  SU_T43U6  -1
    X_T42U7  COST  20.2502  DEM_T42  1
    X_T42U7  SU_T42U7  1  SU_T43U7  -1
    X_T42U8  COST  20.3897  DEM_T42  1
    X_T42U8  SU_T42U8  1  SU_T43U8  -1
    X_T42U9  COST  25.2917  DEM_T42  1
    X_T42U9  SU_T42U9  1  SU_T43U9  -1
    X_T42U10  COST  18.3911  DEM_T42  1
    X_T42U10  SU_T42U10  1  SU_T43U10  -1
    X_T42U11  COST  36.2001  DEM_T42  1
    X_T42U11  SU_T42U11  1  SU_T43U11  -1
    X_T42U12  COST  33.5883  DEM_T42  1
    X_T42U12  SU_T42U12  1  SU_T43U12  -1
    X_T42U13  COST  26.9973  DEM_T42  1
    X_T42U13  SU_T42U13  1  SU_T43U13  -1
    X_T42U14  COST  25.0346  DEM_T42  1
    X_T42U14  SU_T42U14  1  SU_T43U14  -1
    X_T42U15  COST  26.192  DEM_T42  1
    X_T42U15  SU_T42U15  1  SU_T43U15  -1
    X_T42U16  COST  30.2291  DEM_T42  1
    X_T42U16  SU_T42U16  1  SU_T43U16  -1
    X_T42U17  COST  31.6427  DEM_T42  1
    X_T42U17  SU_T42U17  1  SU_T43U17  -1
    X_T42U18  COST  16.3595  DEM_T42  1
    X_T42U18  SU_T42U18  1  SU_T43U18  -1
    X_T42U19  COST  19.6758  DEM_T42  1
    X_T42U19  SU_T42U19  1  SU_T43U19  -1
    X_T42U20  COST  14.6137  DEM_T42  1
    X_T42U20  SU_T42U20  1  SU_T43U20  -1
    X_T43U1  COST  38.7197  DEM_T43  1
    X_T43U1  SU_T43U1  1  SU_T44U1  -1
    X_T43U2  COST  37.9819  DEM_T43  1
    X_T43U2  SU_T43U2  1  SU_T44U2  -1
    X_T43U3  COST  24.3806  DEM_T43  1
    X_T43U3  SU_T43U3  1  SU_T44U3  -1
    X_T43U4  COST  28.1911  DEM_T43  1
    X_T43U4  SU_T43U4  1  SU_T44U4  -1
    X_T43U5  COST  36.9478  DEM_T43  1
    X_T43U5  SU_T43U5  1  SU_T44U5  -1
    X_T43U6  COST  19.5259  DEM_T43  1
    X_T43U6  SU_T43U6  1  SU_T44U6  -1
    X_T43U7  COST  34.756  DEM_T43  1
    X_T43U7  SU_T43U7  1  SU_T44U7  -1
    X_T43U8  COST  13.6529  DEM_T43  1
    X_T43U8  SU_T43U8  1  SU_T44U8  -1
    X_T43U9  COST  25.1832  DEM_T43  1
    X_T43U9  SU_T43U9  1  SU_T44U9  -1
    X_T43U10  COST  12.399  DEM_T43  1
    X_T43U10  SU_T43U10  1  SU_T44U10  -1
    X_T43U11  COST  13.6611  DEM_T43  1
    X_T43U11  SU_T43U11  1  SU_T44U11  -1
    X_T43U12  COST  38.0935  DEM_T43  1
    X_T43U12  SU_T43U12  1  SU_T44U12  -1
    X_T43U13  COST  18.3326  DEM_T43  1
    X_T43U13  SU_T43U13  1  SU_T44U13  -1
    X_T43U14  COST  10.01  DEM_T43  1
    X_T43U14  SU_T43U14  1  SU_T44U14  -1
    X_T43U15  COST  28.0766  DEM_T43  1
    X_T43U15  SU_T43U15  1  SU_T44U15  -1
    X_T43U16  COST  21.5938  DEM_T43  1
    X_T43U16  SU_T43U16  1  SU_T44U16  -1
    X_T43U17  COST  15.7535  DEM_T43  1
    X_T43U17  SU_T43U17  1  SU_T44U17  -1
    X_T43U18  COST  24.538  DEM_T43  1
    X_T43U18  SU_T43U18  1  SU_T44U18  -1
    X_T43U19  COST  28.5849  DEM_T43  1
    X_T43U19  SU_T43U19  1  SU_T44U19  -1
    X_T43U20  COST  22.9101  DEM_T43  1
    X_T43U20  SU_T43U20  1  SU_T44U20  -1
    X_T44U1  COST  12.2389  DEM_T44  1
    X_T44U1  SU_T44U1  1  SU_T45U1  -1
    X_T44U2  COST  17.9616  DEM_T44  1
    X_T44U2  SU_T44U2  1  SU_T45U2  -1
    X_T44U3  COST  30.7485  DEM_T44  1
    X_T44U3  SU_T44U3  1  SU_T45U3  -1
    X_T44U4  COST  28.9957  DEM_T44  1
    X_T44U4  SU_T44U4  1  SU_T45U4  -1
    X_T44U5  COST  16.9794  DEM_T44  1
    X_T44U5  SU_T44U5  1  SU_T45U5  -1
    X_T44U6  COST  15.2126  DEM_T44  1
    X_T44U6  SU_T44U6  1  SU_T45U6  -1
    X_T44U7  COST  35.4405  DEM_T44  1
    X_T44U7  SU_T44U7  1  SU_T45U7  -1
    X_T44U8  COST  33.7628  DEM_T44  1
    X_T44U8  SU_T44U8  1  SU_T45U8  -1
    X_T44U9  COST  29.6223  DEM_T44  1
    X_T44U9  SU_T44U9  1  SU_T45U9  -1
    X_T44U10  COST  25.7651  DEM_T44  1
    X_T44U10  SU_T44U10  1  SU_T45U10  -1
    X_T44U11  COST  15.3066  DEM_T44  1
    X_T44U11  SU_T44U11  1  SU_T45U11  -1
    X_T44U12  COST  38.9147  DEM_T44  1
    X_T44U12  SU_T44U12  1  SU_T45U12  -1
    X_T44U13  COST  14.0141  DEM_T44  1
    X_T44U13  SU_T44U13  1  SU_T45U13  -1
    X_T44U14  COST  33.7101  DEM_T44  1
    X_T44U14  SU_T44U14  1  SU_T45U14  -1
    X_T44U15  COST  30.4292  DEM_T44  1
    X_T44U15  SU_T44U15  1  SU_T45U15  -1
    X_T44U16  COST  28.5684  DEM_T44  1
    X_T44U16  SU_T44U16  1  SU_T45U16  -1
    X_T44U17  COST  35.0291  DEM_T44  1
    X_T44U17  SU_T44U17  1  SU_T45U17  -1
    X_T44U18  COST  15.9657  DEM_T44  1
    X_T44U18  SU_T44U18  1  SU_T45U18  -1
    X_T44U19  COST  11.279  DEM_T44  1
    X_T44U19  SU_T44U19  1  SU_T45U19  -1
    X_T44U20  COST  17.9755  DEM_T44  1
    X_T44U20  SU_T44U20  1  SU_T45U20  -1
    X_T45U1  COST  24.98  DEM_T45  1
    X_T45U1  SU_T45U1  1  SU_T46U1  -1
    X_T45U2  COST  14.4771  DEM_T45  1
    X_T45U2  SU_T45U2  1  SU_T46U2  -1
    X_T45U3  COST  35.9398  DEM_T45  1
    X_T45U3  SU_T45U3  1  SU_T46U3  -1
    X_T45U4  COST  29.5513  DEM_T45  1
    X_T45U4  SU_T45U4  1  SU_T46U4  -1
    X_T45U5  COST  28.4224  DEM_T45  1
    X_T45U5  SU_T45U5  1  SU_T46U5  -1
    X_T45U6  COST  21.7718  DEM_T45  1
    X_T45U6  SU_T45U6  1  SU_T46U6  -1
    X_T45U7  COST  13.9944  DEM_T45  1
    X_T45U7  SU_T45U7  1  SU_T46U7  -1
    X_T45U8  COST  29.7608  DEM_T45  1
    X_T45U8  SU_T45U8  1  SU_T46U8  -1
    X_T45U9  COST  34.2665  DEM_T45  1
    X_T45U9  SU_T45U9  1  SU_T46U9  -1
    X_T45U10  COST  18.381  DEM_T45  1
    X_T45U10  SU_T45U10  1  SU_T46U10  -1
    X_T45U11  COST  17.5918  DEM_T45  1
    X_T45U11  SU_T45U11  1  SU_T46U11  -1
    X_T45U12  COST  34.754  DEM_T45  1
    X_T45U12  SU_T45U12  1  SU_T46U12  -1
    X_T45U13  COST  21.5905  DEM_T45  1
    X_T45U13  SU_T45U13  1  SU_T46U13  -1
    X_T45U14  COST  16.8089  DEM_T45  1
    X_T45U14  SU_T45U14  1  SU_T46U14  -1
    X_T45U15  COST  23.5186  DEM_T45  1
    X_T45U15  SU_T45U15  1  SU_T46U15  -1
    X_T45U16  COST  13.1708  DEM_T45  1
    X_T45U16  SU_T45U16  1  SU_T46U16  -1
    X_T45U17  COST  23.2982  DEM_T45  1
    X_T45U17  SU_T45U17  1  SU_T46U17  -1
    X_T45U18  COST  11.1407  DEM_T45  1
    X_T45U18  SU_T45U18  1  SU_T46U18  -1
    X_T45U19  COST  29.7711  DEM_T45  1
    X_T45U19  SU_T45U19  1  SU_T46U19  -1
    X_T45U20  COST  13.161  DEM_T45  1
    X_T45U20  SU_T45U20  1  SU_T46U20  -1
    X_T46U1  COST  25.2574  DEM_T46  1
    X_T46U1  SU_T46U1  1  SU_T47U1  -1
    X_T46U2  COST  23.8584  DEM_T46  1
    X_T46U2  SU_T46U2  1  SU_T47U2  -1
    X_T46U3  COST  39.1225  DEM_T46  1
    X_T46U3  SU_T46U3  1  SU_T47U3  -1
    X_T46U4  COST  33.5153  DEM_T46  1
    X_T46U4  SU_T46U4  1  SU_T47U4  -1
    X_T46U5  COST  22.3639  DEM_T46  1
    X_T46U5  SU_T46U5  1  SU_T47U5  -1
    X_T46U6  COST  34.916  DEM_T46  1
    X_T46U6  SU_T46U6  1  SU_T47U6  -1
    X_T46U7  COST  22.7289  DEM_T46  1
    X_T46U7  SU_T46U7  1  SU_T47U7  -1
    X_T46U8  COST  25.4397  DEM_T46  1
    X_T46U8  SU_T46U8  1  SU_T47U8  -1
    X_T46U9  COST  33.4745  DEM_T46  1
    X_T46U9  SU_T46U9  1  SU_T47U9  -1
    X_T46U10  COST  39.2797  DEM_T46  1
    X_T46U10  SU_T46U10  1  SU_T47U10  -1
    X_T46U11  COST  10.3128  DEM_T46  1
    X_T46U11  SU_T46U11  1  SU_T47U11  -1
    X_T46U12  COST  17.8214  DEM_T46  1
    X_T46U12  SU_T46U12  1  SU_T47U12  -1
    X_T46U13  COST  38.7948  DEM_T46  1
    X_T46U13  SU_T46U13  1  SU_T47U13  -1
    X_T46U14  COST  36.8744  DEM_T46  1
    X_T46U14  SU_T46U14  1  SU_T47U14  -1
    X_T46U15  COST  13.757  DEM_T46  1
    X_T46U15  SU_T46U15  1  SU_T47U15  -1
    X_T46U16  COST  13.4187  DEM_T46  1
    X_T46U16  SU_T46U16  1  SU_T47U16  -1
    X_T46U17  COST  37.6089  DEM_T46  1
    X_T46U17  SU_T46U17  1  SU_T47U17  -1
    X_T46U18  COST  28.495  DEM_T46  1
    X_T46U18  SU_T46U18  1  SU_T47U18  -1
    X_T46U19  COST  11.3121  DEM_T46  1
    X_T46U19  SU_T46U19  1  SU_T47U19  -1
    X_T46U20  COST  27.9559  DEM_T46  1
    X_T46U20  SU_T46U20  1  SU_T47U20  -1
    X_T47U1  COST  21.2798  DEM_T47  1
    X_T47U1  SU_T47U1  1  SU_T48U1  -1
    X_T47U2  COST  21.6596  DEM_T47  1
    X_T47U2  SU_T47U2  1  SU_T48U2  -1
    X_T47U3  COST  18.2137  DEM_T47  1
    X_T47U3  SU_T47U3  1  SU_T48U3  -1
    X_T47U4  COST  30.2795  DEM_T47  1
    X_T47U4  SU_T47U4  1  SU_T48U4  -1
    X_T47U5  COST  10.3814  DEM_T47  1
    X_T47U5  SU_T47U5  1  SU_T48U5  -1
    X_T47U6  COST  30.1436  DEM_T47  1
    X_T47U6  SU_T47U6  1  SU_T48U6  -1
    X_T47U7  COST  36.3781  DEM_T47  1
    X_T47U7  SU_T47U7  1  SU_T48U7  -1
    X_T47U8  COST  26.3205  DEM_T47  1
    X_T47U8  SU_T47U8  1  SU_T48U8  -1
    X_T47U9  COST  16.6319  DEM_T47  1
    X_T47U9  SU_T47U9  1  SU_T48U9  -1
    X_T47U10  COST  32.4458  DEM_T47  1
    X_T47U10  SU_T47U10  1  SU_T48U10  -1
    X_T47U11  COST  15.4178  DEM_T47  1
    X_T47U11  SU_T47U11  1  SU_T48U11  -1
    X_T47U12  COST  19.6018  DEM_T47  1
    X_T47U12  SU_T47U12  1  SU_T48U12  -1
    X_T47U13  COST  18.0799  DEM_T47  1
    X_T47U13  SU_T47U13  1  SU_T48U13  -1
    X_T47U14  COST  31.8384  DEM_T47  1
    X_T47U14  SU_T47U14  1  SU_T48U14  -1
    X_T47U15  COST  30.5589  DEM_T47  1
    X_T47U15  SU_T47U15  1  SU_T48U15  -1
    X_T47U16  COST  38.9539  DEM_T47  1
    X_T47U16  SU_T47U16  1  SU_T48U16  -1
    X_T47U17  COST  14.5203  DEM_T47  1
    X_T47U17  SU_T47U17  1  SU_T48U17  -1
    X_T47U18  COST  22.4025  DEM_T47  1
    X_T47U18  SU_T47U18  1  SU_T48U18  -1
    X_T47U19  COST  32.3027  DEM_T47  1
    X_T47U19  SU_T47U19  1  SU_T48U19  -1
    X_T47U20  COST  13.1779  DEM_T47  1
    X_T47U20  SU_T47U20  1  SU_T48U20  -1
    X_T48U1  COST  12.8127  DEM_T48  1
    X_T48U1  SU_T48U1  1  SU_T49U1  -1
    X_T48U2  COST  36.3142  DEM_T48  1
    X_T48U2  SU_T48U2  1  SU_T49U2  -1
    X_T48U3  COST  14.8254  DEM_T48  1
    X_T48U3  SU_T48U3  1  SU_T49U3  -1
    X_T48U4  COST  34.3526  DEM_T48  1
    X_T48U4  SU_T48U4  1  SU_T49U4  -1
    X_T48U5  COST  36.4435  DEM_T48  1
    X_T48U5  SU_T48U5  1  SU_T49U5  -1
    X_T48U6  COST  15.8186  DEM_T48  1
    X_T48U6  SU_T48U6  1  SU_T49U6  -1
    X_T48U7  COST  29.7268  DEM_T48  1
    X_T48U7  SU_T48U7  1  SU_T49U7  -1
    X_T48U8  COST  32.2704  DEM_T48  1
    X_T48U8  SU_T48U8  1  SU_T49U8  -1
    X_T48U9  COST  28.4493  DEM_T48  1
    X_T48U9  SU_T48U9  1  SU_T49U9  -1
    X_T48U10  COST  21.2578  DEM_T48  1
    X_T48U10  SU_T48U10  1  SU_T49U10  -1
    X_T48U11  COST  25.7248  DEM_T48  1
    X_T48U11  SU_T48U11  1  SU_T49U11  -1
    X_T48U12  COST  35.1989  DEM_T48  1
    X_T48U12  SU_T48U12  1  SU_T49U12  -1
    X_T48U13  COST  10.3309  DEM_T48  1
    X_T48U13  SU_T48U13  1  SU_T49U13  -1
    X_T48U14  COST  32.7603  DEM_T48  1
    X_T48U14  SU_T48U14  1  SU_T49U14  -1
    X_T48U15  COST  32.6879  DEM_T48  1
    X_T48U15  SU_T48U15  1  SU_T49U15  -1
    X_T48U16  COST  24.1096  DEM_T48  1
    X_T48U16  SU_T48U16  1  SU_T49U16  -1
    X_T48U17  COST  13.7414  DEM_T48  1
    X_T48U17  SU_T48U17  1  SU_T49U17  -1
    X_T48U18  COST  29.301  DEM_T48  1
    X_T48U18  SU_T48U18  1  SU_T49U18  -1
    X_T48U19  COST  16.5163  DEM_T48  1
    X_T48U19  SU_T48U19  1  SU_T49U19  -1
    X_T48U20  COST  29.8913  DEM_T48  1
    X_T48U20  SU_T48U20  1  SU_T49U20  -1
    X_T49U1  COST  15.3512  DEM_T49  1
    X_T49U1  SU_T49U1  1  SU_T50U1  -1
    X_T49U2  COST  15.0066  DEM_T49  1
    X_T49U2  SU_T49U2  1  SU_T50U2  -1
    X_T49U3  COST  21.6302  DEM_T49  1
    X_T49U3  SU_T49U3  1  SU_T50U3  -1
    X_T49U4  COST  36.2279  DEM_T49  1
    X_T49U4  SU_T49U4  1  SU_T50U4  -1
    X_T49U5  COST  31.7021  DEM_T49  1
    X_T49U5  SU_T49U5  1  SU_T50U5  -1
    X_T49U6  COST  16.7632  DEM_T49  1
    X_T49U6  SU_T49U6  1  SU_T50U6  -1
    X_T49U7  COST  11.5841  DEM_T49  1
    X_T49U7  SU_T49U7  1  SU_T50U7  -1
    X_T49U8  COST  27.9811  DEM_T49  1
    X_T49U8  SU_T49U8  1  SU_T50U8  -1
    X_T49U9  COST  10.688  DEM_T49  1
    X_T49U9  SU_T49U9  1  SU_T50U9  -1
    X_T49U10  COST  29.0947  DEM_T49  1
    X_T49U10  SU_T49U10  1  SU_T50U10  -1
    X_T49U11  COST  30.8625  DEM_T49  1
    X_T49U11  SU_T49U11  1  SU_T50U11  -1
    X_T49U12  COST  39.4591  DEM_T49  1
    X_T49U12  SU_T49U12  1  SU_T50U12  -1
    X_T49U13  COST  34.7539  DEM_T49  1
    X_T49U13  SU_T49U13  1  SU_T50U13  -1
    X_T49U14  COST  21.2039  DEM_T49  1
    X_T49U14  SU_T49U14  1  SU_T50U14  -1
    X_T49U15  COST  32.0652  DEM_T49  1
    X_T49U15  SU_T49U15  1  SU_T50U15  -1
    X_T49U16  COST  21.1427  DEM_T49  1
    X_T49U16  SU_T49U16  1  SU_T50U16  -1
    X_T49U17  COST  34.041  DEM_T49  1
    X_T49U17  SU_T49U17  1  SU_T50U17  -1
    X_T49U18  COST  32.0085  DEM_T49  1
    X_T49U18  SU_T49U18  1  SU_T50U18  -1
    X_T49U19  COST  15.2044  DEM_T49  1
    X_T49U19  SU_T49U19  1  SU_T50U19  -1
    X_T49U20  COST  24.885  DEM_T49  1
    X_T49U20  SU_T49U20  1  SU_T50U20  -1
    X_T50U1  COST  30.5773  DEM_T50  1
    X_T50U1  SU_T50U1  1  SU_T51U1  -1
    X_T50U2  COST  32.4166  DEM_T50  1
    X_T50U2  SU_T50U2  1  SU_T51U2  -1
    X_T50U3  COST  38.5094  DEM_T50  1
    X_T50U3  SU_T50U3  1  SU_T51U3  -1
    X_T50U4  COST  26.9665  DEM_T50  1
    X_T50U4  SU_T50U4  1  SU_T51U4  -1
    X_T50U5  COST  14.9588  DEM_T50  1
    X_T50U5  SU_T50U5  1  SU_T51U5  -1
    X_T50U6  COST  27.5743  DEM_T50  1
    X_T50U6  SU_T50U6  1  SU_T51U6  -1
    X_T50U7  COST  30.9301  DEM_T50  1
    X_T50U7  SU_T50U7  1  SU_T51U7  -1
    X_T50U8  COST  33.4775  DEM_T50  1
    X_T50U8  SU_T50U8  1  SU_T51U8  -1
    X_T50U9  COST  35.5818  DEM_T50  1
    X_T50U9  SU_T50U9  1  SU_T51U9  -1
    X_T50U10  COST  21.3074  DEM_T50  1
    X_T50U10  SU_T50U10  1  SU_T51U10  -1
    X_T50U11  COST  24.4272  DEM_T50  1
    X_T50U11  SU_T50U11  1  SU_T51U11  -1
    X_T50U12  COST  38.1206  DEM_T50  1
    X_T50U12  SU_T50U12  1  SU_T51U12  -1
    X_T50U13  COST  28.9351  DEM_T50  1
    X_T50U13  SU_T50U13  1  SU_T51U13  -1
    X_T50U14  COST  37.1174  DEM_T50  1
    X_T50U14  SU_T50U14  1  SU_T51U14  -1
    X_T50U15  COST  33.4064  DEM_T50  1
    X_T50U15  SU_T50U15  1  SU_T51U15  -1
    X_T50U16  COST  11.7184  DEM_T50  1
    X_T50U16  SU_T50U16  1  SU_T51U16  -1
    X_T50U17  COST  13.9405  DEM_T50  1
    X_T50U17  SU_T50U17  1  SU_T51U17  -1
    X_T50U18  COST  37.6787  DEM_T50  1
    X_T50U18  SU_T50U18  1  SU_T51U18  -1
    X_T50U19  COST  10.4021  DEM_T50  1
    X_T50U19  SU_T50U19  1  SU_T51U19  -1
    X_T50U20  COST  11.3378  DEM_T50  1
    X_T50U20  SU_T50U20  1  SU_T51U20  -1
    X_T51U1  COST  18.2716  DEM_T51  1
    X_T51U1  SU_T51U1  1  SU_T52U1  -1
    X_T51U2  COST  33.6138  DEM_T51  1
    X_T51U2  SU_T51U2  1  SU_T52U2  -1
    X_T51U3  COST  21.1362  DEM_T51  1
    X_T51U3  SU_T51U3  1  SU_T52U3  -1
    X_T51U4  COST  35.3437  DEM_T51  1
    X_T51U4  SU_T51U4  1  SU_T52U4  -1
    X_T51U5  COST  14.6915  DEM_T51  1
    X_T51U5  SU_T51U5  1  SU_T52U5  -1
    X_T51U6  COST  11.395  DEM_T51  1
    X_T51U6  SU_T51U6  1  SU_T52U6  -1
    X_T51U7  COST  26.8598  DEM_T51  1
    X_T51U7  SU_T51U7  1  SU_T52U7  -1
    X_T51U8  COST  19.4557  DEM_T51  1
    X_T51U8  SU_T51U8  1  SU_T52U8  -1
    X_T51U9  COST  12.5927  DEM_T51  1
    X_T51U9  SU_T51U9  1  SU_T52U9  -1
    X_T51U10  COST  31.9735  DEM_T51  1
    X_T51U10  SU_T51U10  1  SU_T52U10  -1
    X_T51U11  COST  13.8396  DEM_T51  1
    X_T51U11  SU_T51U11  1  SU_T52U11  -1
    X_T51U12  COST  21.8034  DEM_T51  1
    X_T51U12  SU_T51U12  1  SU_T52U12  -1
    X_T51U13  COST  33.6314  DEM_T51  1
    X_T51U13  SU_T51U13  1  SU_T52U13  -1
    X_T51U14  COST  24.8344  DEM_T51  1
    X_T51U14  SU_T51U14  1  SU_T52U14  -1
    X_T51U15  COST  14.349  DEM_T51  1
    X_T51U15  SU_T51U15  1  SU_T52U15  -1
    X_T51U16  COST  15.7357  DEM_T51  1
    X_T51U16  SU_T51U16  1  SU_T52U16  -1
    X_T51U17  COST  19.261  DEM_T51  1
    X_T51U17  SU_T51U17  1  SU_T52U17  -1
    X_T51U18  COST  39.0207  DEM_T51  1
    X_T51U18  SU_T51U18  1  SU_T52U18  -1
    X_T51U19  COST  10.6611  DEM_T51  1
    X_T51U19  SU_T51U19  1  SU_T52U19  -1
    X_T51U20  COST  22.5397  DEM_T51  1
    X_T51U20  SU_T51U20  1  SU_T52U20  -1
    X_T52U1  COST  30.5126  DEM_T52  1
    X_T52U1  SU_T52U1  1  SU_T53U1  -1
    X_T52U2  COST  39.4155  DEM_T52  1
    X_T52U2  SU_T52U2  1  SU_T53U2  -1
    X_T52U3  COST  22.1193  DEM_T52  1
    X_T52U3  SU_T52U3  1  SU_T53U3  -1
    X_T52U4  COST  33.751  DEM_T52  1
    X_T52U4  SU_T52U4  1  SU_T53U4  -1
    X_T52U5  COST  28.387  DEM_T52  1
    X_T52U5  SU_T52U5  1  SU_T53U5  -1
    X_T52U6  COST  35.4076  DEM_T52  1
    X_T52U6  SU_T52U6  1  SU_T53U6  -1
    X_T52U7  COST  14.2288  DEM_T52  1
    X_T52U7  SU_T52U7  1  SU_T53U7  -1
    X_T52U8  COST  16.4827  DEM_T52  1
    X_T52U8  SU_T52U8  1  SU_T53U8  -1
    X_T52U9  COST  35.8596  DEM_T52  1
    X_T52U9  SU_T52U9  1  SU_T53U9  -1
    X_T52U10  COST  32.4785  DEM_T52  1
    X_T52U10  SU_T52U10  1  SU_T53U10  -1
    X_T52U11  COST  33.6091  DEM_T52  1
    X_T52U11  SU_T52U11  1  SU_T53U11  -1
    X_T52U12  COST  20.6792  DEM_T52  1
    X_T52U12  SU_T52U12  1  SU_T53U12  -1
    X_T52U13  COST  33.8197  DEM_T52  1
    X_T52U13  SU_T52U13  1  SU_T53U13  -1
    X_T52U14  COST  20.1933  DEM_T52  1
    X_T52U14  SU_T52U14  1  SU_T53U14  -1
    X_T52U15  COST  26.3454  DEM_T52  1
    X_T52U15  SU_T52U15  1  SU_T53U15  -1
    X_T52U16  COST  32.6232  DEM_T52  1
    X_T52U16  SU_T52U16  1  SU_T53U16  -1
    X_T52U17  COST  13.7876  DEM_T52  1
    X_T52U17  SU_T52U17  1  SU_T53U17  -1
    X_T52U18  COST  14.8486  DEM_T52  1
    X_T52U18  SU_T52U18  1  SU_T53U18  -1
    X_T52U19  COST  38.3991  DEM_T52  1
    X_T52U19  SU_T52U19  1  SU_T53U19  -1
    X_T52U20  COST  32.5219  DEM_T52  1
    X_T52U20  SU_T52U20  1  SU_T53U20  -1
    X_T53U1  COST  26.5754  DEM_T53  1
    X_T53U1  SU_T53U1  1  SU_T54U1  -1
    X_T53U2  COST  20.3099  DEM_T53  1
    X_T53U2  SU_T53U2  1  SU_T54U2  -1
    X_T53U3  COST  21.7219  DEM_T53  1
    X_T53U3  SU_T53U3  1  SU_T54U3  -1
    X_T53U4  COST  21.158  DEM_T53  1
    X_T53U4  SU_T53U4  1  SU_T54U4  -1
    X_T53U5  COST  21.9214  DEM_T53  1
    X_T53U5  SU_T53U5  1  SU_T54U5  -1
    X_T53U6  COST  23.2322  DEM_T53  1
    X_T53U6  SU_T53U6  1  SU_T54U6  -1
    X_T53U7  COST  15.6017  DEM_T53  1
    X_T53U7  SU_T53U7  1  SU_T54U7  -1
    X_T53U8  COST  20.7001  DEM_T53  1
    X_T53U8  SU_T53U8  1  SU_T54U8  -1
    X_T53U9  COST  18.2933  DEM_T53  1
    X_T53U9  SU_T53U9  1  SU_T54U9  -1
    X_T53U10  COST  29.2802  DEM_T53  1
    X_T53U10  SU_T53U10  1  SU_T54U10  -1
    X_T53U11  COST  36.9087  DEM_T53  1
    X_T53U11  SU_T53U11  1  SU_T54U11  -1
    X_T53U12  COST  23.4281  DEM_T53  1
    X_T53U12  SU_T53U12  1  SU_T54U12  -1
    X_T53U13  COST  14.981  DEM_T53  1
    X_T53U13  SU_T53U13  1  SU_T54U13  -1
    X_T53U14  COST  20.893  DEM_T53  1
    X_T53U14  SU_T53U14  1  SU_T54U14  -1
    X_T53U15  COST  15.0656  DEM_T53  1
    X_T53U15  SU_T53U15  1  SU_T54U15  -1
    X_T53U16  COST  27.9434  DEM_T53  1
    X_T53U16  SU_T53U16  1  SU_T54U16  -1
    X_T53U17  COST  20.9108  DEM_T53  1
    X_T53U17  SU_T53U17  1  SU_T54U17  -1
    X_T53U18  COST  34.6113  DEM_T53  1
    X_T53U18  SU_T53U18  1  SU_T54U18  -1
    X_T53U19  COST  33.9578  DEM_T53  1
    X_T53U19  SU_T53U19  1  SU_T54U19  -1
    X_T53U20  COST  35.7062  DEM_T53  1
    X_T53U20  SU_T53U20  1  SU_T54U20  -1
    X_T54U1  COST  32.1919  DEM_T54  1
    X_T54U1  SU_T54U1  1  SU_T55U1  -1
    X_T54U2  COST  39.6525  DEM_T54  1
    X_T54U2  SU_T54U2  1  SU_T55U2  -1
    X_T54U3  COST  13.673  DEM_T54  1
    X_T54U3  SU_T54U3  1  SU_T55U3  -1
    X_T54U4  COST  19.6903  DEM_T54  1
    X_T54U4  SU_T54U4  1  SU_T55U4  -1
    X_T54U5  COST  39.3935  DEM_T54  1
    X_T54U5  SU_T54U5  1  SU_T55U5  -1
    X_T54U6  COST  13.8948  DEM_T54  1
    X_T54U6  SU_T54U6  1  SU_T55U6  -1
    X_T54U7  COST  12.7909  DEM_T54  1
    X_T54U7  SU_T54U7  1  SU_T55U7  -1
    X_T54U8  COST  34.6888  DEM_T54  1
    X_T54U8  SU_T54U8  1  SU_T55U8  -1
    X_T54U9  COST  21.3708  DEM_T54  1
    X_T54U9  SU_T54U9  1  SU_T55U9  -1
    X_T54U10  COST  20.1052  DEM_T54  1
    X_T54U10  SU_T54U10  1  SU_T55U10  -1
    X_T54U11  COST  37.5462  DEM_T54  1
    X_T54U11  SU_T54U11  1  SU_T55U11  -1
    X_T54U12  COST  32.7875  DEM_T54  1
    X_T54U12  SU_T54U12  1  SU_T55U12  -1
    X_T54U13  COST  37.0389  DEM_T54  1
    X_T54U13  SU_T54U13  1  SU_T55U13  -1
    X_T54U14  COST  19.4218  DEM_T54  1
    X_T54U14  SU_T54U14  1  SU_T55U14  -1
    X_T54U15  COST  34.5777  DEM_T54  1
    X_T54U15  SU_T54U15  1  SU_T55U15  -1
    X_T54U16  COST  25.763  DEM_T54  1
    X_T54U16  SU_T54U16  1  SU_T55U16  -1
    X_T54U17  COST  13.3883  DEM_T54  1
    X_T54U17  SU_T54U17  1  SU_T55U17  -1
    X_T54U18  COST  31.5723  DEM_T54  1
    X_T54U18  SU_T54U18  1  SU_T55U18  -1
    X_T54U19  COST  37.1608  DEM_T54  1
    X_T54U19  SU_T54U19  1  SU_T55U19  -1
    X_T54U20  COST  15.7378  DEM_T54  1
    X_T54U20  SU_T54U20  1  SU_T55U20  -1
    X_T55U1  COST  23.0652  DEM_T55  1
    X_T55U1  SU_T55U1  1  SU_T56U1  -1
    X_T55U2  COST  32.1421  DEM_T55  1
    X_T55U2  SU_T55U2  1  SU_T56U2  -1
    X_T55U3  COST  35.3121  DEM_T55  1
    X_T55U3  SU_T55U3  1  SU_T56U3  -1
    X_T55U4  COST  10.9335  DEM_T55  1
    X_T55U4  SU_T55U4  1  SU_T56U4  -1
    X_T55U5  COST  13.1903  DEM_T55  1
    X_T55U5  SU_T55U5  1  SU_T56U5  -1
    X_T55U6  COST  10.1145  DEM_T55  1
    X_T55U6  SU_T55U6  1  SU_T56U6  -1
    X_T55U7  COST  15.014  DEM_T55  1
    X_T55U7  SU_T55U7  1  SU_T56U7  -1
    X_T55U8  COST  39.7523  DEM_T55  1
    X_T55U8  SU_T55U8  1  SU_T56U8  -1
    X_T55U9  COST  12.3123  DEM_T55  1
    X_T55U9  SU_T55U9  1  SU_T56U9  -1
    X_T55U10  COST  35.9916  DEM_T55  1
    X_T55U10  SU_T55U10  1  SU_T56U10  -1
    X_T55U11  COST  20.8113  DEM_T55  1
    X_T55U11  SU_T55U11  1  SU_T56U11  -1
    X_T55U12  COST  32.8947  DEM_T55  1
    X_T55U12  SU_T55U12  1  SU_T56U12  -1
    X_T55U13  COST  32.7775  DEM_T55  1
    X_T55U13  SU_T55U13  1  SU_T56U13  -1
    X_T55U14  COST  16.9829  DEM_T55  1
    X_T55U14  SU_T55U14  1  SU_T56U14  -1
    X_T55U15  COST  11.7728  DEM_T55  1
    X_T55U15  SU_T55U15  1  SU_T56U15  -1
    X_T55U16  COST  29.5231  DEM_T55  1
    X_T55U16  SU_T55U16  1  SU_T56U16  -1
    X_T55U17  COST  10.0057  DEM_T55  1
    X_T55U17  SU_T55U17  1  SU_T56U17  -1
    X_T55U18  COST  21.6928  DEM_T55  1
    X_T55U18  SU_T55U18  1  SU_T56U18  -1
    X_T55U19  COST  16.8019  DEM_T55  1
    X_T55U19  SU_T55U19  1  SU_T56U19  -1
    X_T55U20  COST  13.8655  DEM_T55  1
    X_T55U20  SU_T55U20  1  SU_T56U20  -1
    X_T56U1  COST  34.0706  DEM_T56  1
    X_T56U1  SU_T56U1  1  SU_T57U1  -1
    X_T56U2  COST  10.54  DEM_T56  1
    X_T56U2  SU_T56U2  1  SU_T57U2  -1
    X_T56U3  COST  10.8153  DEM_T56  1
    X_T56U3  SU_T56U3  1  SU_T57U3  -1
    X_T56U4  COST  13.8236  DEM_T56  1
    X_T56U4  SU_T56U4  1  SU_T57U4  -1
    X_T56U5  COST  39.1833  DEM_T56  1
    X_T56U5  SU_T56U5  1  SU_T57U5  -1
    X_T56U6  COST  30.9795  DEM_T56  1
    X_T56U6  SU_T56U6  1  SU_T57U6  -1
    X_T56U7  COST  39.454  DEM_T56  1
    X_T56U7  SU_T56U7  1  SU_T57U7  -1
    X_T56U8  COST  26.7755  DEM_T56  1
    X_T56U8  SU_T56U8  1  SU_T57U8  -1
    X_T56U9  COST  25.9803  DEM_T56  1
    X_T56U9  SU_T56U9  1  SU_T57U9  -1
    X_T56U10  COST  23.4953  DEM_T56  1
    X_T56U10  SU_T56U10  1  SU_T57U10  -1
    X_T56U11  COST  13.6074  DEM_T56  1
    X_T56U11  SU_T56U11  1  SU_T57U11  -1
    X_T56U12  COST  17.8995  DEM_T56  1
    X_T56U12  SU_T56U12  1  SU_T57U12  -1
    X_T56U13  COST  27.0151  DEM_T56  1
    X_T56U13  SU_T56U13  1  SU_T57U13  -1
    X_T56U14  COST  34.736  DEM_T56  1
    X_T56U14  SU_T56U14  1  SU_T57U14  -1
    X_T56U15  COST  16.7905  DEM_T56  1
    X_T56U15  SU_T56U15  1  SU_T57U15  -1
    X_T56U16  COST  27.9642  DEM_T56  1
    X_T56U16  SU_T56U16  1  SU_T57U16  -1
    X_T56U17  COST  36.3172  DEM_T56  1
    X_T56U17  SU_T56U17  1  SU_T57U17  -1
    X_T56U18  COST  19.9122  DEM_T56  1
    X_T56U18  SU_T56U18  1  SU_T57U18  -1
    X_T56U19  COST  39.6709  DEM_T56  1
    X_T56U19  SU_T56U19  1  SU_T57U19  -1
    X_T56U20  COST  25.9395  DEM_T56  1
    X_T56U20  SU_T56U20  1  SU_T57U20  -1
    X_T57U1  COST  18.5587  DEM_T57  1
    X_T57U1  SU_T57U1  1  SU_T58U1  -1
    X_T57U2  COST  18.0333  DEM_T57  1
    X_T57U2  SU_T57U2  1  SU_T58U2  -1
    X_T57U3  COST  27.2005  DEM_T57  1
    X_T57U3  SU_T57U3  1  SU_T58U3  -1
    X_T57U4  COST  17.5692  DEM_T57  1
    X_T57U4  SU_T57U4  1  SU_T58U4  -1
    X_T57U5  COST  24.6512  DEM_T57  1
    X_T57U5  SU_T57U5  1  SU_T58U5  -1
    X_T57U6  COST  25.7572  DEM_T57  1
    X_T57U6  SU_T57U6  1  SU_T58U6  -1
    X_T57U7  COST  36.0565  DEM_T57  1
    X_T57U7  SU_T57U7  1  SU_T58U7  -1
    X_T57U8  COST  38.6747  DEM_T57  1
    X_T57U8  SU_T57U8  1  SU_T58U8  -1
    X_T57U9  COST  30.8335  DEM_T57  1
    X_T57U9  SU_T57U9  1  SU_T58U9  -1
    X_T57U10  COST  37.3203  DEM_T57  1
    X_T57U10  SU_T57U10  1  SU_T58U10  -1
    X_T57U11  COST  14.1257  DEM_T57  1
    X_T57U11  SU_T57U11  1  SU_T58U11  -1
    X_T57U12  COST  14.9447  DEM_T57  1
    X_T57U12  SU_T57U12  1  SU_T58U12  -1
    X_T57U13  COST  38.4432  DEM_T57  1
    X_T57U13  SU_T57U13  1  SU_T58U13  -1
    X_T57U14  COST  33.6641  DEM_T57  1
    X_T57U14  SU_T57U14  1  SU_T58U14  -1
    X_T57U15  COST  30.2928  DEM_T57  1
    X_T57U15  SU_T57U15  1  SU_T58U15  -1
    X_T57U16  COST  17.0255  DEM_T57  1
    X_T57U16  SU_T57U16  1  SU_T58U16  -1
    X_T57U17  COST  39.123  DEM_T57  1
    X_T57U17  SU_T57U17  1  SU_T58U17  -1
    X_T57U18  COST  18.1471  DEM_T57  1
    X_T57U18  SU_T57U18  1  SU_T58U18  -1
    X_T57U19  COST  39.5152  DEM_T57  1
    X_T57U19  SU_T57U19  1  SU_T58U19  -1
    X_T57U20  COST  22.2092  DEM_T57  1
    X_T57U20  SU_T57U20  1  SU_T58U20  -1
    X_T58U1  COST  10.0876  DEM_T58  1
    X_T58U1  SU_T58U1  1  SU_T59U1  -1
    X_T58U2  COST  28.1222  DEM_T58  1
    X_T58U2  SU_T58U2  1  SU_T59U2  -1
    X_T58U3  COST  17.1657  DEM_T58  1
    X_T58U3  SU_T58U3  1  SU_T59U3  -1
    X_T58U4  COST  23.514  DEM_T58  1
    X_T58U4  SU_T58U4  1  SU_T59U4  -1
    X_T58U5  COST  28.6756  DEM_T58  1
    X_T58U5  SU_T58U5  1  SU_T59U5  -1
    X_T58U6  COST  23.424  DEM_T58  1
    X_T58U6  SU_T58U6  1  SU_T59U6  -1
    X_T58U7  COST  27.726  DEM_T58  1
    X_T58U7  SU_T58U7  1  SU_T59U7  -1
    X_T58U8  COST  35.6241  DEM_T58  1
    X_T58U8  SU_T58U8  1  SU_T59U8  -1
    X_T58U9  COST  34.9995  DEM_T58  1
    X_T58U9  SU_T58U9  1  SU_T59U9  -1
    X_T58U10  COST  18.5472  DEM_T58  1
    X_T58U10  SU_T58U10  1  SU_T59U10  -1
    X_T58U11  COST  23.1562  DEM_T58  1
    X_T58U11  SU_T58U11  1  SU_T59U11  -1
    X_T58U12  COST  21.9039  DEM_T58  1
    X_T58U12  SU_T58U12  1  SU_T59U12  -1
    X_T58U13  COST  18.3347  DEM_T58  1
    X_T58U13  SU_T58U13  1  SU_T59U13  -1
    X_T58U14  COST  18.5369  DEM_T58  1
    X_T58U14  SU_T58U14  1  SU_T59U14  -1
    X_T58U15  COST  25.948  DEM_T58  1
    X_T58U15  SU_T58U15  1  SU_T59U15  -1
    X_T58U16  COST  27.2434  DEM_T58  1
    X_T58U16  SU_T58U16  1  SU_T59U16  -1
    X_T58U17  COST  30.2626  DEM_T58  1
    X_T58U17  SU_T58U17  1  SU_T59U17  -1
    X_T58U18  COST  23.5179  DEM_T58  1
    X_T58U18  SU_T58U18  1  SU_T59U18  -1
    X_T58U19  COST  14.9561  DEM_T58  1
    X_T58U19  SU_T58U19  1  SU_T59U19  -1
    X_T58U20  COST  31.8958  DEM_T58  1
    X_T58U20  SU_T58U20  1  SU_T59U20  -1
    X_T59U1  COST  30.1283  DEM_T59  1
    X_T59U1  SU_T59U1  1  SU_T60U1  -1
    X_T59U2  COST  30.2382  DEM_T59  1
    X_T59U2  SU_T59U2  1  SU_T60U2  -1
    X_T59U3  COST  31.5529  DEM_T59  1
    X_T59U3  SU_T59U3  1  SU_T60U3  -1
    X_T59U4  COST  31.6418  DEM_T59  1
    X_T59U4  SU_T59U4  1  SU_T60U4  -1
    X_T59U5  COST  10.0631  DEM_T59  1
    X_T59U5  SU_T59U5  1  SU_T60U5  -1
    X_T59U6  COST  34.8876  DEM_T59  1
    X_T59U6  SU_T59U6  1  SU_T60U6  -1
    X_T59U7  COST  36.1479  DEM_T59  1
    X_T59U7  SU_T59U7  1  SU_T60U7  -1
    X_T59U8  COST  29.9588  DEM_T59  1
    X_T59U8  SU_T59U8  1  SU_T60U8  -1
    X_T59U9  COST  29.8799  DEM_T59  1
    X_T59U9  SU_T59U9  1  SU_T60U9  -1
    X_T59U10  COST  27.8896  DEM_T59  1
    X_T59U10  SU_T59U10  1  SU_T60U10  -1
    X_T59U11  COST  37.0096  DEM_T59  1
    X_T59U11  SU_T59U11  1  SU_T60U11  -1
    X_T59U12  COST  19.6324  DEM_T59  1
    X_T59U12  SU_T59U12  1  SU_T60U12  -1
    X_T59U13  COST  22.3803  DEM_T59  1
    X_T59U13  SU_T59U13  1  SU_T60U13  -1
    X_T59U14  COST  29.3935  DEM_T59  1
    X_T59U14  SU_T59U14  1  SU_T60U14  -1
    X_T59U15  COST  27.9608  DEM_T59  1
    X_T59U15  SU_T59U15  1  SU_T60U15  -1
    X_T59U16  COST  14.1661  DEM_T59  1
    X_T59U16  SU_T59U16  1  SU_T60U16  -1
    X_T59U17  COST  14.6296  DEM_T59  1
    X_T59U17  SU_T59U17  1  SU_T60U17  -1
    X_T59U18  COST  29.1363  DEM_T59  1
    X_T59U18  SU_T59U18  1  SU_T60U18  -1
    X_T59U19  COST  25.8997  DEM_T59  1
    X_T59U19  SU_T59U19  1  SU_T60U19  -1
    X_T59U20  COST  39.7379  DEM_T59  1
    X_T59U20  SU_T59U20  1  SU_T60U20  -1
    X_T60U1  COST  30.8465  DEM_T60  1
    X_T60U1  SU_T60U1  1  SU_T61U1  -1
    X_T60U2  COST  23.4656  DEM_T60  1
    X_T60U2  SU_T60U2  1  SU_T61U2  -1
    X_T60U3  COST  21.9811  DEM_T60  1
    X_T60U3  SU_T60U3  1  SU_T61U3  -1
    X_T60U4  COST  34.2407  DEM_T60  1
    X_T60U4  SU_T60U4  1  SU_T61U4  -1
    X_T60U5  COST  23.9982  DEM_T60  1
    X_T60U5  SU_T60U5  1  SU_T61U5  -1
    X_T60U6  COST  12.0215  DEM_T60  1
    X_T60U6  SU_T60U6  1  SU_T61U6  -1
    X_T60U7  COST  35.5552  DEM_T60  1
    X_T60U7  SU_T60U7  1  SU_T61U7  -1
    X_T60U8  COST  12.3284  DEM_T60  1
    X_T60U8  SU_T60U8  1  SU_T61U8  -1
    X_T60U9  COST  35.8523  DEM_T60  1
    X_T60U9  SU_T60U9  1  SU_T61U9  -1
    X_T60U10  COST  16.7884  DEM_T60  1
    X_T60U10  SU_T60U10  1  SU_T61U10  -1
    X_T60U11  COST  23.5037  DEM_T60  1
    X_T60U11  SU_T60U11  1  SU_T61U11  -1
    X_T60U12  COST  32.7805  DEM_T60  1
    X_T60U12  SU_T60U12  1  SU_T61U12  -1
    X_T60U13  COST  36.6896  DEM_T60  1
    X_T60U13  SU_T60U13  1  SU_T61U13  -1
    X_T60U14  COST  21.1016  DEM_T60  1
    X_T60U14  SU_T60U14  1  SU_T61U14  -1
    X_T60U15  COST  21.7892  DEM_T60  1
    X_T60U15  SU_T60U15  1  SU_T61U15  -1
    X_T60U16  COST  25.3504  DEM_T60  1
    X_T60U16  SU_T60U16  1  SU_T61U16  -1
    X_T60U17  COST  29.3722  DEM_T60  1
    X_T60U17  SU_T60U17  1  SU_T61U17  -1
    X_T60U18  COST  32.8572  DEM_T60  1
    X_T60U18  SU_T60U18  1  SU_T61U18  -1
    X_T60U19  COST  20.1931  DEM_T60  1
    X_T60U19  SU_T60U19  1  SU_T61U19  -1
    X_T60U20  COST  21.3673  DEM_T60  1
    X_T60U20  SU_T60U20  1  SU_T61U20  -1
    X_T61U1  COST  21.5762  DEM_T61  1
    X_T61U1  SU_T61U1  1  SU_T62U1  -1
    X_T61U2  COST  27.8797  DEM_T61  1
    X_T61U2  SU_T61U2  1  SU_T62U2  -1
    X_T61U3  COST  35.4142  DEM_T61  1
    X_T61U3  SU_T61U3  1  SU_T62U3  -1
    X_T61U4  COST  35.2517  DEM_T61  1
    X_T61U4  SU_T61U4  1  SU_T62U4  -1
    X_T61U5  COST  26.7907  DEM_T61  1
    X_T61U5  SU_T61U5  1  SU_T62U5  -1
    X_T61U6  COST  15.0208  DEM_T61  1
    X_T61U6  SU_T61U6  1  SU_T62U6  -1
    X_T61U7  COST  16.8546  DEM_T61  1
    X_T61U7  SU_T61U7  1  SU_T62U7  -1
    X_T61U8  COST  25.9574  DEM_T61  1
    X_T61U8  SU_T61U8  1  SU_T62U8  -1
    X_T61U9  COST  12.9791  DEM_T61  1
    X_T61U9  SU_T61U9  1  SU_T62U9  -1
    X_T61U10  COST  37.7691  DEM_T61  1
    X_T61U10  SU_T61U10  1  SU_T62U10  -1
    X_T61U11  COST  21.863  DEM_T61  1
    X_T61U11  SU_T61U11  1  SU_T62U11  -1
    X_T61U12  COST  14.4119  DEM_T61  1
    X_T61U12  SU_T61U12  1  SU_T62U12  -1
    X_T61U13  COST  13.9014  DEM_T61  1
    X_T61U13  SU_T61U13  1  SU_T62U13  -1
    X_T61U14  COST  21.1119  DEM_T61  1
    X_T61U14  SU_T61U14  1  SU_T62U14  -1
    X_T61U15  COST  24.2202  DEM_T61  1
    X_T61U15  SU_T61U15  1  SU_T62U15  -1
    X_T61U16  COST  39.8457  DEM_T61  1
    X_T61U16  SU_T61U16  1  SU_T62U16  -1
    X_T61U17  COST  12.6461  DEM_T61  1
    X_T61U17  SU_T61U17  1  SU_T62U17  -1
    X_T61U18  COST  14.5475  DEM_T61  1
    X_T61U18  SU_T61U18  1  SU_T62U18  -1
    X_T61U19  COST  39.1223  DEM_T61  1
    X_T61U19  SU_T61U19  1  SU_T62U19  -1
    X_T61U20  COST  39.4033  DEM_T61  1
    X_T61U20  SU_T61U20  1  SU_T62U20  -1
    X_T62U1  COST  25.9677  DEM_T62  1
    X_T62U1  SU_T62U1  1  SU_T63U1  -1
    X_T62U2  COST  17.4072  DEM_T62  1
    X_T62U2  SU_T62U2  1  SU_T63U2  -1
    X_T62U3  COST  20.6856  DEM_T62  1
    X_T62U3  SU_T62U3  1  SU_T63U3  -1
    X_T62U4  COST  31.2704  DEM_T62  1
    X_T62U4  SU_T62U4  1  SU_T63U4  -1
    X_T62U5  COST  25.2234  DEM_T62  1
    X_T62U5  SU_T62U5  1  SU_T63U5  -1
    X_T62U6  COST  17.0511  DEM_T62  1
    X_T62U6  SU_T62U6  1  SU_T63U6  -1
    X_T62U7  COST  26.3448  DEM_T62  1
    X_T62U7  SU_T62U7  1  SU_T63U7  -1
    X_T62U8  COST  27.4895  DEM_T62  1
    X_T62U8  SU_T62U8  1  SU_T63U8  -1
    X_T62U9  COST  14.5156  DEM_T62  1
    X_T62U9  SU_T62U9  1  SU_T63U9  -1
    X_T62U10  COST  16.2193  DEM_T62  1
    X_T62U10  SU_T62U10  1  SU_T63U10  -1
    X_T62U11  COST  32.0373  DEM_T62  1
    X_T62U11  SU_T62U11  1  SU_T63U11  -1
    X_T62U12  COST  19.7747  DEM_T62  1
    X_T62U12  SU_T62U12  1  SU_T63U12  -1
    X_T62U13  COST  23.8434  DEM_T62  1
    X_T62U13  SU_T62U13  1  SU_T63U13  -1
    X_T62U14  COST  14.4395  DEM_T62  1
    X_T62U14  SU_T62U14  1  SU_T63U14  -1
    X_T62U15  COST  31.3265  DEM_T62  1
    X_T62U15  SU_T62U15  1  SU_T63U15  -1
    X_T62U16  COST  13.9712  DEM_T62  1
    X_T62U16  SU_T62U16  1  SU_T63U16  -1
    X_T62U17  COST  27.9736  DEM_T62  1
    X_T62U17  SU_T62U17  1  SU_T63U17  -1
    X_T62U18  COST  23.754  DEM_T62  1
    X_T62U18  SU_T62U18  1  SU_T63U18  -1
    X_T62U19  COST  32.3758  DEM_T62  1
    X_T62U19  SU_T62U19  1  SU_T63U19  -1
    X_T62U20  COST  11.7322  DEM_T62  1
    X_T62U20  SU_T62U20  1  SU_T63U20  -1
    X_T63U1  COST  24.0035  DEM_T63  1
    X_T63U1  SU_T63U1  1  SU_T64U1  -1
    X_T63U2  COST  39.0882  DEM_T63  1
    X_T63U2  SU_T63U2  1  SU_T64U2  -1
    X_T63U3  COST  25.3871  DEM_T63  1
    X_T63U3  SU_T63U3  1  SU_T64U3  -1
    X_T63U4  COST  32.6386  DEM_T63  1
    X_T63U4  SU_T63U4  1  SU_T64U4  -1
    X_T63U5  COST  19.0734  DEM_T63  1
    X_T63U5  SU_T63U5  1  SU_T64U5  -1
    X_T63U6  COST  25.6733  DEM_T63  1
    X_T63U6  SU_T63U6  1  SU_T64U6  -1
    X_T63U7  COST  23.2367  DEM_T63  1
    X_T63U7  SU_T63U7  1  SU_T64U7  -1
    X_T63U8  COST  37.562  DEM_T63  1
    X_T63U8  SU_T63U8  1  SU_T64U8  -1
    X_T63U9  COST  31.7715  DEM_T63  1
    X_T63U9  SU_T63U9  1  SU_T64U9  -1
    X_T63U10  COST  23.6794  DEM_T63  1
    X_T63U10  SU_T63U10  1  SU_T64U10  -1
    X_T63U11  COST  28.0635  DEM_T63  1
    X_T63U11  SU_T63U11  1  SU_T64U11  -1
    X_T63U12  COST  34.1977  DEM_T63  1
    X_T63U12  SU_T63U12  1  SU_T64U12  -1
    X_T63U13  COST  39.8837  DEM_T63  1
    X_T63U13  SU_T63U13  1  SU_T64U13  -1
    X_T63U14  COST  10.095  DEM_T63  1
    X_T63U14  SU_T63U14  1  SU_T64U14  -1
    X_T63U15  COST  18.953  DEM_T63  1
    X_T63U15  SU_T63U15  1  SU_T64U15  -1
    X_T63U16  COST  19.357  DEM_T63  1
    X_T63U16  SU_T63U16  1  SU_T64U16  -1
    X_T63U17  COST  10.9237  DEM_T63  1
    X_T63U17  SU_T63U17  1  SU_T64U17  -1
    X_T63U18  COST  16.6224  DEM_T63  1
    X_T63U18  SU_T63U18  1  SU_T64U18  -1
    X_T63U19  COST  32.8779  DEM_T63  1
    X_T63U19  SU_T63U19  1  SU_T64U19  -1
    X_T63U20  COST  10.9165  DEM_T63  1
    X_T63U20  SU_T63U20  1  SU_T64U20  -1
    X_T64U1  COST  25.8168  DEM_T64  1
    X_T64U1  SU_T64U1  1  SU_T65U1  -1
    X_T64U2  COST  29.3341  DEM_T64  1
    X_T64U2  SU_T64U2  1  SU_T65U2  -1
    X_T64U3  COST  20.0022  DEM_T64  1
    X_T64U3  SU_T64U3  1  SU_T65U3  -1
    X_T64U4  COST  25.8573  DEM_T64  1
    X_T64U4  SU_T64U4  1  SU_T65U4  -1
    X_T64U5  COST  39.7164  DEM_T64  1
    X_T64U5  SU_T64U5  1  SU_T65U5  -1
    X_T64U6  COST  39.8395  DEM_T64  1
    X_T64U6  SU_T64U6  1  SU_T65U6  -1
    X_T64U7  COST  10.0695  DEM_T64  1
    X_T64U7  SU_T64U7  1  SU_T65U7  -1
    X_T64U8  COST  20.2535  DEM_T64  1
    X_T64U8  SU_T64U8  1  SU_T65U8  -1
    X_T64U9  COST  12.0709  DEM_T64  1
    X_T64U9  SU_T64U9  1  SU_T65U9  -1
    X_T64U10  COST  38.1127  DEM_T64  1
    X_T64U10  SU_T64U10  1  SU_T65U10  -1
    X_T64U11  COST  34.2755  DEM_T64  1
    X_T64U11  SU_T64U11  1  SU_T65U11  -1
    X_T64U12  COST  31.001  DEM_T64  1
    X_T64U12  SU_T64U12  1  SU_T65U12  -1
    X_T64U13  COST  21.973  DEM_T64  1
    X_T64U13  SU_T64U13  1  SU_T65U13  -1
    X_T64U14  COST  18.41  DEM_T64  1
    X_T64U14  SU_T64U14  1  SU_T65U14  -1
    X_T64U15  COST  10.735  DEM_T64  1
    X_T64U15  SU_T64U15  1  SU_T65U15  -1
    X_T64U16  COST  26.4739  DEM_T64  1
    X_T64U16  SU_T64U16  1  SU_T65U16  -1
    X_T64U17  COST  27.3112  DEM_T64  1
    X_T64U17  SU_T64U17  1  SU_T65U17  -1
    X_T64U18  COST  10.1827  DEM_T64  1
    X_T64U18  SU_T64U18  1  SU_T65U18  -1
    X_T64U19  COST  36.0683  DEM_T64  1
    X_T64U19  SU_T64U19  1  SU_T65U19  -1
    X_T64U20  COST  13.3879  DEM_T64  1
    X_T64U20  SU_T64U20  1  SU_T65U20  -1
    X_T65U1  COST  17.2669  DEM_T65  1
    X_T65U1  SU_T65U1  1  SU_T66U1  -1
    X_T65U2  COST  14.3559  DEM_T65  1
    X_T65U2  SU_T65U2  1  SU_T66U2  -1
    X_T65U3  COST  30.0056  DEM_T65  1
    X_T65U3  SU_T65U3  1  SU_T66U3  -1
    X_T65U4  COST  35.902  DEM_T65  1
    X_T65U4  SU_T65U4  1  SU_T66U4  -1
    X_T65U5  COST  18.7755  DEM_T65  1
    X_T65U5  SU_T65U5  1  SU_T66U5  -1
    X_T65U6  COST  17.985  DEM_T65  1
    X_T65U6  SU_T65U6  1  SU_T66U6  -1
    X_T65U7  COST  27.4977  DEM_T65  1
    X_T65U7  SU_T65U7  1  SU_T66U7  -1
    X_T65U8  COST  26.4694  DEM_T65  1
    X_T65U8  SU_T65U8  1  SU_T66U8  -1
    X_T65U9  COST  11.0101  DEM_T65  1
    X_T65U9  SU_T65U9  1  SU_T66U9  -1
    X_T65U10  COST  22.4836  DEM_T65  1
    X_T65U10  SU_T65U10  1  SU_T66U10  -1
    X_T65U11  COST  15.6353  DEM_T65  1
    X_T65U11  SU_T65U11  1  SU_T66U11  -1
    X_T65U12  COST  36.008  DEM_T65  1
    X_T65U12  SU_T65U12  1  SU_T66U12  -1
    X_T65U13  COST  34.643  DEM_T65  1
    X_T65U13  SU_T65U13  1  SU_T66U13  -1
    X_T65U14  COST  29.1127  DEM_T65  1
    X_T65U14  SU_T65U14  1  SU_T66U14  -1
    X_T65U15  COST  23.8952  DEM_T65  1
    X_T65U15  SU_T65U15  1  SU_T66U15  -1
    X_T65U16  COST  19.0958  DEM_T65  1
    X_T65U16  SU_T65U16  1  SU_T66U16  -1
    X_T65U17  COST  26.8987  DEM_T65  1
    X_T65U17  SU_T65U17  1  SU_T66U17  -1
    X_T65U18  COST  37.5038  DEM_T65  1
    X_T65U18  SU_T65U18  1  SU_T66U18  -1
    X_T65U19  COST  22.0434  DEM_T65  1
    X_T65U19  SU_T65U19  1  SU_T66U19  -1
    X_T65U20  COST  36.4598  DEM_T65  1
    X_T65U20  SU_T65U20  1  SU_T66U20  -1
    X_T66U1  COST  31.6516  DEM_T66  1
    X_T66U1  SU_T66U1  1  SU_T67U1  -1
    X_T66U2  COST  22.0734  DEM_T66  1
    X_T66U2  SU_T66U2  1  SU_T67U2  -1
    X_T66U3  COST  15.6712  DEM_T66  1
    X_T66U3  SU_T66U3  1  SU_T67U3  -1
    X_T66U4  COST  31.4512  DEM_T66  1
    X_T66U4  SU_T66U4  1  SU_T67U4  -1
    X_T66U5  COST  36.8718  DEM_T66  1
    X_T66U5  SU_T66U5  1  SU_T67U5  -1
    X_T66U6  COST  24.009  DEM_T66  1
    X_T66U6  SU_T66U6  1  SU_T67U6  -1
    X_T66U7  COST  38.2135  DEM_T66  1
    X_T66U7  SU_T66U7  1  SU_T67U7  -1
    X_T66U8  COST  37.9266  DEM_T66  1
    X_T66U8  SU_T66U8  1  SU_T67U8  -1
    X_T66U9  COST  13.8979  DEM_T66  1
    X_T66U9  SU_T66U9  1  SU_T67U9  -1
    X_T66U10  COST  35.9964  DEM_T66  1
    X_T66U10  SU_T66U10  1  SU_T67U10  -1
    X_T66U11  COST  37.216  DEM_T66  1
    X_T66U11  SU_T66U11  1  SU_T67U11  -1
    X_T66U12  COST  22.6715  DEM_T66  1
    X_T66U12  SU_T66U12  1  SU_T67U12  -1
    X_T66U13  COST  38.0896  DEM_T66  1
    X_T66U13  SU_T66U13  1  SU_T67U13  -1
    X_T66U14  COST  13.4807  DEM_T66  1
    X_T66U14  SU_T66U14  1  SU_T67U14  -1
    X_T66U15  COST  26.9389  DEM_T66  1
    X_T66U15  SU_T66U15  1  SU_T67U15  -1
    X_T66U16  COST  35.3275  DEM_T66  1
    X_T66U16  SU_T66U16  1  SU_T67U16  -1
    X_T66U17  COST  14.1735  DEM_T66  1
    X_T66U17  SU_T66U17  1  SU_T67U17  -1
    X_T66U18  COST  36.2653  DEM_T66  1
    X_T66U18  SU_T66U18  1  SU_T67U18  -1
    X_T66U19  COST  18.3532  DEM_T66  1
    X_T66U19  SU_T66U19  1  SU_T67U19  -1
    X_T66U20  COST  30.2832  DEM_T66  1
    X_T66U20  SU_T66U20  1  SU_T67U20  -1
    X_T67U1  COST  18.069  DEM_T67  1
    X_T67U1  SU_T67U1  1  SU_T68U1  -1
    X_T67U2  COST  29.0302  DEM_T67  1
    X_T67U2  SU_T67U2  1  SU_T68U2  -1
    X_T67U3  COST  13.1442  DEM_T67  1
    X_T67U3  SU_T67U3  1  SU_T68U3  -1
    X_T67U4  COST  21.5536  DEM_T67  1
    X_T67U4  SU_T67U4  1  SU_T68U4  -1
    X_T67U5  COST  24.279  DEM_T67  1
    X_T67U5  SU_T67U5  1  SU_T68U5  -1
    X_T67U6  COST  29.0327  DEM_T67  1
    X_T67U6  SU_T67U6  1  SU_T68U6  -1
    X_T67U7  COST  10.0864  DEM_T67  1
    X_T67U7  SU_T67U7  1  SU_T68U7  -1
    X_T67U8  COST  15.5807  DEM_T67  1
    X_T67U8  SU_T67U8  1  SU_T68U8  -1
    X_T67U9  COST  22.4739  DEM_T67  1
    X_T67U9  SU_T67U9  1  SU_T68U9  -1
    X_T67U10  COST  21.1348  DEM_T67  1
    X_T67U10  SU_T67U10  1  SU_T68U10  -1
    X_T67U11  COST  31.9149  DEM_T67  1
    X_T67U11  SU_T67U11  1  SU_T68U11  -1
    X_T67U12  COST  33.8872  DEM_T67  1
    X_T67U12  SU_T67U12  1  SU_T68U12  -1
    X_T67U13  COST  11.0782  DEM_T67  1
    X_T67U13  SU_T67U13  1  SU_T68U13  -1
    X_T67U14  COST  37.9242  DEM_T67  1
    X_T67U14  SU_T67U14  1  SU_T68U14  -1
    X_T67U15  COST  32.1129  DEM_T67  1
    X_T67U15  SU_T67U15  1  SU_T68U15  -1
    X_T67U16  COST  11.566  DEM_T67  1
    X_T67U16  SU_T67U16  1  SU_T68U16  -1
    X_T67U17  COST  24.0446  DEM_T67  1
    X_T67U17  SU_T67U17  1  SU_T68U17  -1
    X_T67U18  COST  12.5602  DEM_T67  1
    X_T67U18  SU_T67U18  1  SU_T68U18  -1
    X_T67U19  COST  30.006  DEM_T67  1
    X_T67U19  SU_T67U19  1  SU_T68U19  -1
    X_T67U20  COST  33.4605  DEM_T67  1
    X_T67U20  SU_T67U20  1  SU_T68U20  -1
    X_T68U1  COST  12.996  DEM_T68  1
    X_T68U1  SU_T68U1  1  SU_T69U1  -1
    X_T68U2  COST  17.2567  DEM_T68  1
    X_T68U2  SU_T68U2  1  SU_T69U2  -1
    X_T68U3  COST  35.148  DEM_T68  1
    X_T68U3  SU_T68U3  1  SU_T69U3  -1
    X_T68U4  COST  38.4654  DEM_T68  1
    X_T68U4  SU_T68U4  1  SU_T69U4  -1
    X_T68U5  COST  32.086  DEM_T68  1
    X_T68U5  SU_T68U5  1  SU_T69U5  -1
    X_T68U6  COST  37.182  DEM_T68  1
    X_T68U6  SU_T68U6  1  SU_T69U6  -1
    X_T68U7  COST  31.7457  DEM_T68  1
    X_T68U7  SU_T68U7  1  SU_T69U7  -1
    X_T68U8  COST  11.2497  DEM_T68  1
    X_T68U8  SU_T68U8  1  SU_T69U8  -1
    X_T68U9  COST  32.8693  DEM_T68  1
    X_T68U9  SU_T68U9  1  SU_T69U9  -1
    X_T68U10  COST  18.0176  DEM_T68  1
    X_T68U10  SU_T68U10  1  SU_T69U10  -1
    X_T68U11  COST  13.9455  DEM_T68  1
    X_T68U11  SU_T68U11  1  SU_T69U11  -1
    X_T68U12  COST  27.2607  DEM_T68  1
    X_T68U12  SU_T68U12  1  SU_T69U12  -1
    X_T68U13  COST  21.4774  DEM_T68  1
    X_T68U13  SU_T68U13  1  SU_T69U13  -1
    X_T68U14  COST  15.4522  DEM_T68  1
    X_T68U14  SU_T68U14  1  SU_T69U14  -1
    X_T68U15  COST  19.963  DEM_T68  1
    X_T68U15  SU_T68U15  1  SU_T69U15  -1
    X_T68U16  COST  32.1708  DEM_T68  1
    X_T68U16  SU_T68U16  1  SU_T69U16  -1
    X_T68U17  COST  29.2558  DEM_T68  1
    X_T68U17  SU_T68U17  1  SU_T69U17  -1
    X_T68U18  COST  27.0428  DEM_T68  1
    X_T68U18  SU_T68U18  1  SU_T69U18  -1
    X_T68U19  COST  26.4515  DEM_T68  1
    X_T68U19  SU_T68U19  1  SU_T69U19  -1
    X_T68U20  COST  30.2674  DEM_T68  1
    X_T68U20  SU_T68U20  1  SU_T69U20  -1
    X_T69U1  COST  34.8929  DEM_T69  1
    X_T69U1  SU_T69U1  1  SU_T70U1  -1
    X_T69U2  COST  18.7343  DEM_T69  1
    X_T69U2  SU_T69U2  1  SU_T70U2  -1
    X_T69U3  COST  14.5698  DEM_T69  1
    X_T69U3  SU_T69U3  1  SU_T70U3  -1
    X_T69U4  COST  31.3041  DEM_T69  1
    X_T69U4  SU_T69U4  1  SU_T70U4  -1
    X_T69U5  COST  28.0988  DEM_T69  1
    X_T69U5  SU_T69U5  1  SU_T70U5  -1
    X_T69U6  COST  11.7915  DEM_T69  1
    X_T69U6  SU_T69U6  1  SU_T70U6  -1
    X_T69U7  COST  27.4663  DEM_T69  1
    X_T69U7  SU_T69U7  1  SU_T70U7  -1
    X_T69U8  COST  17.1748  DEM_T69  1
    X_T69U8  SU_T69U8  1  SU_T70U8  -1
    X_T69U9  COST  29.5287  DEM_T69  1
    X_T69U9  SU_T69U9  1  SU_T70U9  -1
    X_T69U10  COST  26.8388  DEM_T69  1
    X_T69U10  SU_T69U10  1  SU_T70U10  -1
    X_T69U11  COST  16.1494  DEM_T69  1
    X_T69U11  SU_T69U11  1  SU_T70U11  -1
    X_T69U12  COST  28.592  DEM_T69  1
    X_T69U12  SU_T69U12  1  SU_T70U12  -1
    X_T69U13  COST  35.4158  DEM_T69  1
    X_T69U13  SU_T69U13  1  SU_T70U13  -1
    X_T69U14  COST  18.2871  DEM_T69  1
    X_T69U14  SU_T69U14  1  SU_T70U14  -1
    X_T69U15  COST  25.818  DEM_T69  1
    X_T69U15  SU_T69U15  1  SU_T70U15  -1
    X_T69U16  COST  14.9164  DEM_T69  1
    X_T69U16  SU_T69U16  1  SU_T70U16  -1
    X_T69U17  COST  34.2958  DEM_T69  1
    X_T69U17  SU_T69U17  1  SU_T70U17  -1
    X_T69U18  COST  20.1202  DEM_T69  1
    X_T69U18  SU_T69U18  1  SU_T70U18  -1
    X_T69U19  COST  26.1644  DEM_T69  1
    X_T69U19  SU_T69U19  1  SU_T70U19  -1
    X_T69U20  COST  30.7  DEM_T69  1
    X_T69U20  SU_T69U20  1  SU_T70U20  -1
    X_T70U1  COST  37.9182  DEM_T70  1
    X_T70U1  SU_T70U1  1  SU_T71U1  -1
    X_T70U2  COST  16.9075  DEM_T70  1
    X_T70U2  SU_T70U2  1  SU_T71U2  -1
    X_T70U3  COST  22.4693  DEM_T70  1
    X_T70U3  SU_T70U3  1  SU_T71U3  -1
    X_T70U4  COST  32.8326  DEM_T70  1
    X_T70U4  SU_T70U4  1  SU_T71U4  -1
    X_T70U5  COST  38.4721  DEM_T70  1
    X_T70U5  SU_T70U5  1  SU_T71U5  -1
    X_T70U6  COST  28.6273  DEM_T70  1
    X_T70U6  SU_T70U6  1  SU_T71U6  -1
    X_T70U7  COST  32.8256  DEM_T70  1
    X_T70U7  SU_T70U7  1  SU_T71U7  -1
    X_T70U8  COST  15.4092  DEM_T70  1
    X_T70U8  SU_T70U8  1  SU_T71U8  -1
    X_T70U9  COST  26.8262  DEM_T70  1
    X_T70U9  SU_T70U9  1  SU_T71U9  -1
    X_T70U10  COST  24.44  DEM_T70  1
    X_T70U10  SU_T70U10  1  SU_T71U10  -1
    X_T70U11  COST  30.2305  DEM_T70  1
    X_T70U11  SU_T70U11  1  SU_T71U11  -1
    X_T70U12  COST  39.8494  DEM_T70  1
    X_T70U12  SU_T70U12  1  SU_T71U12  -1
    X_T70U13  COST  21.7557  DEM_T70  1
    X_T70U13  SU_T70U13  1  SU_T71U13  -1
    X_T70U14  COST  13.2668  DEM_T70  1
    X_T70U14  SU_T70U14  1  SU_T71U14  -1
    X_T70U15  COST  24.9471  DEM_T70  1
    X_T70U15  SU_T70U15  1  SU_T71U15  -1
    X_T70U16  COST  38.5906  DEM_T70  1
    X_T70U16  SU_T70U16  1  SU_T71U16  -1
    X_T70U17  COST  16.5735  DEM_T70  1
    X_T70U17  SU_T70U17  1  SU_T71U17  -1
    X_T70U18  COST  37.5816  DEM_T70  1
    X_T70U18  SU_T70U18  1  SU_T71U18  -1
    X_T70U19  COST  16.4187  DEM_T70  1
    X_T70U19  SU_T70U19  1  SU_T71U19  -1
    X_T70U20  COST  10.4257  DEM_T70  1
    X_T70U20  SU_T70U20  1  SU_T71U20  -1
    X_T71U1  COST  31.9637  DEM_T71  1
    X_T71U1  SU_T71U1  1  SU_T72U1  -1
    X_T71U2  COST  30.9493  DEM_T71  1
    X_T71U2  SU_T71U2  1  SU_T72U2  -1
    X_T71U3  COST  38.5869  DEM_T71  1
    X_T71U3  SU_T71U3  1  SU_T72U3  -1
    X_T71U4  COST  21.7838  DEM_T71  1
    X_T71U4  SU_T71U4  1  SU_T72U4  -1
    X_T71U5  COST  33.1927  DEM_T71  1
    X_T71U5  SU_T71U5  1  SU_T72U5  -1
    X_T71U6  COST  16.9612  DEM_T71  1
    X_T71U6  SU_T71U6  1  SU_T72U6  -1
    X_T71U7  COST  33.4405  DEM_T71  1
    X_T71U7  SU_T71U7  1  SU_T72U7  -1
    X_T71U8  COST  32.9074  DEM_T71  1
    X_T71U8  SU_T71U8  1  SU_T72U8  -1
    X_T71U9  COST  28.0919  DEM_T71  1
    X_T71U9  SU_T71U9  1  SU_T72U9  -1
    X_T71U10  COST  33.5326  DEM_T71  1
    X_T71U10  SU_T71U10  1  SU_T72U10  -1
    X_T71U11  COST  26.5597  DEM_T71  1
    X_T71U11  SU_T71U11  1  SU_T72U11  -1
    X_T71U12  COST  11.3817  DEM_T71  1
    X_T71U12  SU_T71U12  1  SU_T72U12  -1
    X_T71U13  COST  15.3366  DEM_T71  1
    X_T71U13  SU_T71U13  1  SU_T72U13  -1
    X_T71U14  COST  34.2483  DEM_T71  1
    X_T71U14  SU_T71U14  1  SU_T72U14  -1
    X_T71U15  COST  17.3742  DEM_T71  1
    X_T71U15  SU_T71U15  1  SU_T72U15  -1
    X_T71U16  COST  36.8393  DEM_T71  1
    X_T71U16  SU_T71U16  1  SU_T72U16  -1
    X_T71U17  COST  37.0415  DEM_T71  1
    X_T71U17  SU_T71U17  1  SU_T72U17  -1
    X_T71U18  COST  39.7026  DEM_T71  1
    X_T71U18  SU_T71U18  1  SU_T72U18  -1
    X_T71U19  COST  24.8403  DEM_T71  1
    X_T71U19  SU_T71U19  1  SU_T72U19  -1
    X_T71U20  COST  24.4465  DEM_T71  1
    X_T71U20  SU_T71U20  1  SU_T72U20  -1
    X_T72U1  COST  12.7217  DEM_T72  1
    X_T72U1  SU_T72U1  1  SU_T73U1  -1
    X_T72U2  COST  11.7311  DEM_T72  1
    X_T72U2  SU_T72U2  1  SU_T73U2  -1
    X_T72U3  COST  18.2664  DEM_T72  1
    X_T72U3  SU_T72U3  1  SU_T73U3  -1
    X_T72U4  COST  39.7733  DEM_T72  1
    X_T72U4  SU_T72U4  1  SU_T73U4  -1
    X_T72U5  COST  27.2152  DEM_T72  1
    X_T72U5  SU_T72U5  1  SU_T73U5  -1
    X_T72U6  COST  35.4181  DEM_T72  1
    X_T72U6  SU_T72U6  1  SU_T73U6  -1
    X_T72U7  COST  36.3207  DEM_T72  1
    X_T72U7  SU_T72U7  1  SU_T73U7  -1
    X_T72U8  COST  10.8256  DEM_T72  1
    X_T72U8  SU_T72U8  1  SU_T73U8  -1
    X_T72U9  COST  32.5532  DEM_T72  1
    X_T72U9  SU_T72U9  1  SU_T73U9  -1
    X_T72U10  COST  38.6896  DEM_T72  1
    X_T72U10  SU_T72U10  1  SU_T73U10  -1
    X_T72U11  COST  30.3865  DEM_T72  1
    X_T72U11  SU_T72U11  1  SU_T73U11  -1
    X_T72U12  COST  22.9414  DEM_T72  1
    X_T72U12  SU_T72U12  1  SU_T73U12  -1
    X_T72U13  COST  26.8997  DEM_T72  1
    X_T72U13  SU_T72U13  1  SU_T73U13  -1
    X_T72U14  COST  19.7902  DEM_T72  1
    X_T72U14  SU_T72U14  1  SU_T73U14  -1
    X_T72U15  COST  14.3144  DEM_T72  1
    X_T72U15  SU_T72U15  1  SU_T73U15  -1
    X_T72U16  COST  37.1127  DEM_T72  1
    X_T72U16  SU_T72U16  1  SU_T73U16  -1
    X_T72U17  COST  22.0283  DEM_T72  1
    X_T72U17  SU_T72U17  1  SU_T73U17  -1
    X_T72U18  COST  34.6948  DEM_T72  1
    X_T72U18  SU_T72U18  1  SU_T73U18  -1
    X_T72U19  COST  26.3352  DEM_T72  1
    X_T72U19  SU_T72U19  1  SU_T73U19  -1
    X_T72U20  COST  17.6593  DEM_T72  1
    X_T72U20  SU_T72U20  1  SU_T73U20  -1
    X_T73U1  COST  27.8141  DEM_T73  1
    X_T73U1  SU_T73U1  1  SU_T74U1  -1
    X_T73U2  COST  29.0813  DEM_T73  1
    X_T73U2  SU_T73U2  1  SU_T74U2  -1
    X_T73U3  COST  18.8573  DEM_T73  1
    X_T73U3  SU_T73U3  1  SU_T74U3  -1
    X_T73U4  COST  23.8001  DEM_T73  1
    X_T73U4  SU_T73U4  1  SU_T74U4  -1
    X_T73U5  COST  34.8024  DEM_T73  1
    X_T73U5  SU_T73U5  1  SU_T74U5  -1
    X_T73U6  COST  31.8025  DEM_T73  1
    X_T73U6  SU_T73U6  1  SU_T74U6  -1
    X_T73U7  COST  20.5781  DEM_T73  1
    X_T73U7  SU_T73U7  1  SU_T74U7  -1
    X_T73U8  COST  25.4698  DEM_T73  1
    X_T73U8  SU_T73U8  1  SU_T74U8  -1
    X_T73U9  COST  11.3621  DEM_T73  1
    X_T73U9  SU_T73U9  1  SU_T74U9  -1
    X_T73U10  COST  37.9303  DEM_T73  1
    X_T73U10  SU_T73U10  1  SU_T74U10  -1
    X_T73U11  COST  26.401  DEM_T73  1
    X_T73U11  SU_T73U11  1  SU_T74U11  -1
    X_T73U12  COST  27.7129  DEM_T73  1
    X_T73U12  SU_T73U12  1  SU_T74U12  -1
    X_T73U13  COST  20.8653  DEM_T73  1
    X_T73U13  SU_T73U13  1  SU_T74U13  -1
    X_T73U14  COST  16.0168  DEM_T73  1
    X_T73U14  SU_T73U14  1  SU_T74U14  -1
    X_T73U15  COST  10.3027  DEM_T73  1
    X_T73U15  SU_T73U15  1  SU_T74U15  -1
    X_T73U16  COST  36.482  DEM_T73  1
    X_T73U16  SU_T73U16  1  SU_T74U16  -1
    X_T73U17  COST  15.7336  DEM_T73  1
    X_T73U17  SU_T73U17  1  SU_T74U17  -1
    X_T73U18  COST  31.9517  DEM_T73  1
    X_T73U18  SU_T73U18  1  SU_T74U18  -1
    X_T73U19  COST  22.4783  DEM_T73  1
    X_T73U19  SU_T73U19  1  SU_T74U19  -1
    X_T73U20  COST  28.2889  DEM_T73  1
    X_T73U20  SU_T73U20  1  SU_T74U20  -1
    X_T74U1  COST  34.5408  DEM_T74  1
    X_T74U1  SU_T74U1  1  SU_T75U1  -1
    X_T74U2  COST  18.1432  DEM_T74  1
    X_T74U2  SU_T74U2  1  SU_T75U2  -1
    X_T74U3  COST  20.1089  DEM_T74  1
    X_T74U3  SU_T74U3  1  SU_T75U3  -1
    X_T74U4  COST  22.1725  DEM_T74  1
    X_T74U4  SU_T74U4  1  SU_T75U4  -1
    X_T74U5  COST  32.8745  DEM_T74  1
    X_T74U5  SU_T74U5  1  SU_T75U5  -1
    X_T74U6  COST  14.488  DEM_T74  1
    X_T74U6  SU_T74U6  1  SU_T75U6  -1
    X_T74U7  COST  22.4341  DEM_T74  1
    X_T74U7  SU_T74U7  1  SU_T75U7  -1
    X_T74U8  COST  10.6201  DEM_T74  1
    X_T74U8  SU_T74U8  1  SU_T75U8  -1
    X_T74U9  COST  25.5279  DEM_T74  1
    X_T74U9  SU_T74U9  1  SU_T75U9  -1
    X_T74U10  COST  28.853  DEM_T74  1
    X_T74U10  SU_T74U10  1  SU_T75U10  -1
    X_T74U11  COST  20.8513  DEM_T74  1
    X_T74U11  SU_T74U11  1  SU_T75U11  -1
    X_T74U12  COST  28.9648  DEM_T74  1
    X_T74U12  SU_T74U12  1  SU_T75U12  -1
    X_T74U13  COST  26.8028  DEM_T74  1
    X_T74U13  SU_T74U13  1  SU_T75U13  -1
    X_T74U14  COST  31.2547  DEM_T74  1
    X_T74U14  SU_T74U14  1  SU_T75U14  -1
    X_T74U15  COST  39.1726  DEM_T74  1
    X_T74U15  SU_T74U15  1  SU_T75U15  -1
    X_T74U16  COST  14.7707  DEM_T74  1
    X_T74U16  SU_T74U16  1  SU_T75U16  -1
    X_T74U17  COST  12.947  DEM_T74  1
    X_T74U17  SU_T74U17  1  SU_T75U17  -1
    X_T74U18  COST  13.6609  DEM_T74  1
    X_T74U18  SU_T74U18  1  SU_T75U18  -1
    X_T74U19  COST  35.5141  DEM_T74  1
    X_T74U19  SU_T74U19  1  SU_T75U19  -1
    X_T74U20  COST  10.9257  DEM_T74  1
    X_T74U20  SU_T74U20  1  SU_T75U20  -1
    X_T75U1  COST  14.2651  DEM_T75  1
    X_T75U1  SU_T75U1  1  SU_T76U1  -1
    X_T75U2  COST  29.9544  DEM_T75  1
    X_T75U2  SU_T75U2  1  SU_T76U2  -1
    X_T75U3  COST  13.5662  DEM_T75  1
    X_T75U3  SU_T75U3  1  SU_T76U3  -1
    X_T75U4  COST  30.1317  DEM_T75  1
    X_T75U4  SU_T75U4  1  SU_T76U4  -1
    X_T75U5  COST  26.4793  DEM_T75  1
    X_T75U5  SU_T75U5  1  SU_T76U5  -1
    X_T75U6  COST  24.475  DEM_T75  1
    X_T75U6  SU_T75U6  1  SU_T76U6  -1
    X_T75U7  COST  21.6171  DEM_T75  1
    X_T75U7  SU_T75U7  1  SU_T76U7  -1
    X_T75U8  COST  10.4819  DEM_T75  1
    X_T75U8  SU_T75U8  1  SU_T76U8  -1
    X_T75U9  COST  13.7315  DEM_T75  1
    X_T75U9  SU_T75U9  1  SU_T76U9  -1
    X_T75U10  COST  28.4774  DEM_T75  1
    X_T75U10  SU_T75U10  1  SU_T76U10  -1
    X_T75U11  COST  12.9254  DEM_T75  1
    X_T75U11  SU_T75U11  1  SU_T76U11  -1
    X_T75U12  COST  25.0326  DEM_T75  1
    X_T75U12  SU_T75U12  1  SU_T76U12  -1
    X_T75U13  COST  26.0287  DEM_T75  1
    X_T75U13  SU_T75U13  1  SU_T76U13  -1
    X_T75U14  COST  22.8879  DEM_T75  1
    X_T75U14  SU_T75U14  1  SU_T76U14  -1
    X_T75U15  COST  24.4679  DEM_T75  1
    X_T75U15  SU_T75U15  1  SU_T76U15  -1
    X_T75U16  COST  38.8454  DEM_T75  1
    X_T75U16  SU_T75U16  1  SU_T76U16  -1
    X_T75U17  COST  38.574  DEM_T75  1
    X_T75U17  SU_T75U17  1  SU_T76U17  -1
    X_T75U18  COST  36.3802  DEM_T75  1
    X_T75U18  SU_T75U18  1  SU_T76U18  -1
    X_T75U19  COST  30.3146  DEM_T75  1
    X_T75U19  SU_T75U19  1  SU_T76U19  -1
    X_T75U20  COST  19.4965  DEM_T75  1
    X_T75U20  SU_T75U20  1  SU_T76U20  -1
    X_T76U1  COST  25.0455  DEM_T76  1
    X_T76U1  SU_T76U1  1  SU_T77U1  -1
    X_T76U2  COST  19.3859  DEM_T76  1
    X_T76U2  SU_T76U2  1  SU_T77U2  -1
    X_T76U3  COST  35.5204  DEM_T76  1
    X_T76U3  SU_T76U3  1  SU_T77U3  -1
    X_T76U4  COST  28.8398  DEM_T76  1
    X_T76U4  SU_T76U4  1  SU_T77U4  -1
    X_T76U5  COST  14.8845  DEM_T76  1
    X_T76U5  SU_T76U5  1  SU_T77U5  -1
    X_T76U6  COST  10.5939  DEM_T76  1
    X_T76U6  SU_T76U6  1  SU_T77U6  -1
    X_T76U7  COST  15.7428  DEM_T76  1
    X_T76U7  SU_T76U7  1  SU_T77U7  -1
    X_T76U8  COST  38.0498  DEM_T76  1
    X_T76U8  SU_T76U8  1  SU_T77U8  -1
    X_T76U9  COST  36.3395  DEM_T76  1
    X_T76U9  SU_T76U9  1  SU_T77U9  -1
    X_T76U10  COST  17.4139  DEM_T76  1
    X_T76U10  SU_T76U10  1  SU_T77U10  -1
    X_T76U11  COST  12.5176  DEM_T76  1
    X_T76U11  SU_T76U11  1  SU_T77U11  -1
    X_T76U12  COST  30.3262  DEM_T76  1
    X_T76U12  SU_T76U12  1  SU_T77U12  -1
    X_T76U13  COST  16.162  DEM_T76  1
    X_T76U13  SU_T76U13  1  SU_T77U13  -1
    X_T76U14  COST  39.4615  DEM_T76  1
    X_T76U14  SU_T76U14  1  SU_T77U14  -1
    X_T76U15  COST  32.0046  DEM_T76  1
    X_T76U15  SU_T76U15  1  SU_T77U15  -1
    X_T76U16  COST  33.4299  DEM_T76  1
    X_T76U16  SU_T76U16  1  SU_T77U16  -1
    X_T76U17  COST  28.0331  DEM_T76  1
    X_T76U17  SU_T76U17  1  SU_T77U17  -1
    X_T76U18  COST  19.7576  DEM_T76  1
    X_T76U18  SU_T76U18  1  SU_T77U18  -1
    X_T76U19  COST  37.4419  DEM_T76  1
    X_T76U19  SU_T76U19  1  SU_T77U19  -1
    X_T76U20  COST  23.5035  DEM_T76  1
    X_T76U20  SU_T76U20  1  SU_T77U20  -1
    X_T77U1  COST  13.0936  DEM_T77  1
    X_T77U1  SU_T77U1  1  SU_T78U1  -1
    X_T77U2  COST  39.3687  DEM_T77  1
    X_T77U2  SU_T77U2  1  SU_T78U2  -1
    X_T77U3  COST  15.6945  DEM_T77  1
    X_T77U3  SU_T77U3  1  SU_T78U3  -1
    X_T77U4  COST  16.1332  DEM_T77  1
    X_T77U4  SU_T77U4  1  SU_T78U4  -1
    X_T77U5  COST  12.2213  DEM_T77  1
    X_T77U5  SU_T77U5  1  SU_T78U5  -1
    X_T77U6  COST  25.5037  DEM_T77  1
    X_T77U6  SU_T77U6  1  SU_T78U6  -1
    X_T77U7  COST  28.921  DEM_T77  1
    X_T77U7  SU_T77U7  1  SU_T78U7  -1
    X_T77U8  COST  30.6934  DEM_T77  1
    X_T77U8  SU_T77U8  1  SU_T78U8  -1
    X_T77U9  COST  27.8608  DEM_T77  1
    X_T77U9  SU_T77U9  1  SU_T78U9  -1
    X_T77U10  COST  37.7657  DEM_T77  1
    X_T77U10  SU_T77U10  1  SU_T78U10  -1
    X_T77U11  COST  22.9112  DEM_T77  1
    X_T77U11  SU_T77U11  1  SU_T78U11  -1
    X_T77U12  COST  23.7407  DEM_T77  1
    X_T77U12  SU_T77U12  1  SU_T78U12  -1
    X_T77U13  COST  26.6014  DEM_T77  1
    X_T77U13  SU_T77U13  1  SU_T78U13  -1
    X_T77U14  COST  31.1138  DEM_T77  1
    X_T77U14  SU_T77U14  1  SU_T78U14  -1
    X_T77U15  COST  26.9098  DEM_T77  1
    X_T77U15  SU_T77U15  1  SU_T78U15  -1
    X_T77U16  COST  30.1617  DEM_T77  1
    X_T77U16  SU_T77U16  1  SU_T78U16  -1
    X_T77U17  COST  25.7727  DEM_T77  1
    X_T77U17  SU_T77U17  1  SU_T78U17  -1
    X_T77U18  COST  10.0606  DEM_T77  1
    X_T77U18  SU_T77U18  1  SU_T78U18  -1
    X_T77U19  COST  13.512  DEM_T77  1
    X_T77U19  SU_T77U19  1  SU_T78U19  -1
    X_T77U20  COST  28.3677  DEM_T77  1
    X_T77U20  SU_T77U20  1  SU_T78U20  -1
    X_T78U1  COST  38.1717  DEM_T78  1
    X_T78U1  SU_T78U1  1  SU_T79U1  -1
    X_T78U2  COST  33.169  DEM_T78  1
    X_T78U2  SU_T78U2  1  SU_T79U2  -1
    X_T78U3  COST  21.2066  DEM_T78  1
    X_T78U3  SU_T78U3  1  SU_T79U3  -1
    X_T78U4  COST  28.8246  DEM_T78  1
    X_T78U4  SU_T78U4  1  SU_T79U4  -1
    X_T78U5  COST  38.088  DEM_T78  1
    X_T78U5  SU_T78U5  1  SU_T79U5  -1
    X_T78U6  COST  38.1895  DEM_T78  1
    X_T78U6  SU_T78U6  1  SU_T79U6  -1
    X_T78U7  COST  31.7718  DEM_T78  1
    X_T78U7  SU_T78U7  1  SU_T79U7  -1
    X_T78U8  COST  32.1822  DEM_T78  1
    X_T78U8  SU_T78U8  1  SU_T79U8  -1
    X_T78U9  COST  29.9498  DEM_T78  1
    X_T78U9  SU_T78U9  1  SU_T79U9  -1
    X_T78U10  COST  32.2847  DEM_T78  1
    X_T78U10  SU_T78U10  1  SU_T79U10  -1
    X_T78U11  COST  36.7017  DEM_T78  1
    X_T78U11  SU_T78U11  1  SU_T79U11  -1
    X_T78U12  COST  34.2157  DEM_T78  1
    X_T78U12  SU_T78U12  1  SU_T79U12  -1
    X_T78U13  COST  34.5176  DEM_T78  1
    X_T78U13  SU_T78U13  1  SU_T79U13  -1
    X_T78U14  COST  23.1515  DEM_T78  1
    X_T78U14  SU_T78U14  1  SU_T79U14  -1
    X_T78U15  COST  16.8752  DEM_T78  1
    X_T78U15  SU_T78U15  1  SU_T79U15  -1
    X_T78U16  COST  30.1203  DEM_T78  1
    X_T78U16  SU_T78U16  1  SU_T79U16  -1
    X_T78U17  COST  16.1207  DEM_T78  1
    X_T78U17  SU_T78U17  1  SU_T79U17  -1
    X_T78U18  COST  34.5511  DEM_T78  1
    X_T78U18  SU_T78U18  1  SU_T79U18  -1
    X_T78U19  COST  37.3456  DEM_T78  1
    X_T78U19  SU_T78U19  1  SU_T79U19  -1
    X_T78U20  COST  20.6791  DEM_T78  1
    X_T78U20  SU_T78U20  1  SU_T79U20  -1
    X_T79U1  COST  12.3144  DEM_T79  1
    X_T79U1  SU_T79U1  1  SU_T80U1  -1
    X_T79U2  COST  20.6458  DEM_T79  1
    X_T79U2  SU_T79U2  1  SU_T80U2  -1
    X_T79U3  COST  16.4603  DEM_T79  1
    X_T79U3  SU_T79U3  1  SU_T80U3  -1
    X_T79U4  COST  27.8441  DEM_T79  1
    X_T79U4  SU_T79U4  1  SU_T80U4  -1
    X_T79U5  COST  19.991  DEM_T79  1
    X_T79U5  SU_T79U5  1  SU_T80U5  -1
    X_T79U6  COST  21.4985  DEM_T79  1
    X_T79U6  SU_T79U6  1  SU_T80U6  -1
    X_T79U7  COST  18.4991  DEM_T79  1
    X_T79U7  SU_T79U7  1  SU_T80U7  -1
    X_T79U8  COST  21.9234  DEM_T79  1
    X_T79U8  SU_T79U8  1  SU_T80U8  -1
    X_T79U9  COST  17.6007  DEM_T79  1
    X_T79U9  SU_T79U9  1  SU_T80U9  -1
    X_T79U10  COST  18.7449  DEM_T79  1
    X_T79U10  SU_T79U10  1  SU_T80U10  -1
    X_T79U11  COST  22.8249  DEM_T79  1
    X_T79U11  SU_T79U11  1  SU_T80U11  -1
    X_T79U12  COST  33.9916  DEM_T79  1
    X_T79U12  SU_T79U12  1  SU_T80U12  -1
    X_T79U13  COST  35.9558  DEM_T79  1
    X_T79U13  SU_T79U13  1  SU_T80U13  -1
    X_T79U14  COST  35.7947  DEM_T79  1
    X_T79U14  SU_T79U14  1  SU_T80U14  -1
    X_T79U15  COST  33.6212  DEM_T79  1
    X_T79U15  SU_T79U15  1  SU_T80U15  -1
    X_T79U16  COST  36.2117  DEM_T79  1
    X_T79U16  SU_T79U16  1  SU_T80U16  -1
    X_T79U17  COST  35.0093  DEM_T79  1
    X_T79U17  SU_T79U17  1  SU_T80U17  -1
    X_T79U18  COST  26.0508  DEM_T79  1
    X_T79U18  SU_T79U18  1  SU_T80U18  -1
    X_T79U19  COST  33.5196  DEM_T79  1
    X_T79U19  SU_T79U19  1  SU_T80U19  -1
    X_T79U20  COST  25.0024  DEM_T79  1
    X_T79U20  SU_T79U20  1  SU_T80U20  -1
    X_T80U1  COST  27.9654  DEM_T80  1
    X_T80U1  SU_T80U1  1  SU_T81U1  -1
    X_T80U2  COST  27.707  DEM_T80  1
    X_T80U2  SU_T80U2  1  SU_T81U2  -1
    X_T80U3  COST  24.0858  DEM_T80  1
    X_T80U3  SU_T80U3  1  SU_T81U3  -1
    X_T80U4  COST  16.3009  DEM_T80  1
    X_T80U4  SU_T80U4  1  SU_T81U4  -1
    X_T80U5  COST  31.3888  DEM_T80  1
    X_T80U5  SU_T80U5  1  SU_T81U5  -1
    X_T80U6  COST  22.2633  DEM_T80  1
    X_T80U6  SU_T80U6  1  SU_T81U6  -1
    X_T80U7  COST  13.3564  DEM_T80  1
    X_T80U7  SU_T80U7  1  SU_T81U7  -1
    X_T80U8  COST  33.5957  DEM_T80  1
    X_T80U8  SU_T80U8  1  SU_T81U8  -1
    X_T80U9  COST  32.4033  DEM_T80  1
    X_T80U9  SU_T80U9  1  SU_T81U9  -1
    X_T80U10  COST  34.7946  DEM_T80  1
    X_T80U10  SU_T80U10  1  SU_T81U10  -1
    X_T80U11  COST  34.1753  DEM_T80  1
    X_T80U11  SU_T80U11  1  SU_T81U11  -1
    X_T80U12  COST  37.7368  DEM_T80  1
    X_T80U12  SU_T80U12  1  SU_T81U12  -1
    X_T80U13  COST  26.6014  DEM_T80  1
    X_T80U13  SU_T80U13  1  SU_T81U13  -1
    X_T80U14  COST  32.2759  DEM_T80  1
    X_T80U14  SU_T80U14  1  SU_T81U14  -1
    X_T80U15  COST  36.1791  DEM_T80  1
    X_T80U15  SU_T80U15  1  SU_T81U15  -1
    X_T80U16  COST  16.4818  DEM_T80  1
    X_T80U16  SU_T80U16  1  SU_T81U16  -1
    X_T80U17  COST  33.5907  DEM_T80  1
    X_T80U17  SU_T80U17  1  SU_T81U17  -1
    X_T80U18  COST  21.2056  DEM_T80  1
    X_T80U18  SU_T80U18  1  SU_T81U18  -1
    X_T80U19  COST  16.9535  DEM_T80  1
    X_T80U19  SU_T80U19  1  SU_T81U19  -1
    X_T80U20  COST  37.1068  DEM_T80  1
    X_T80U20  SU_T80U20  1  SU_T81U20  -1
    X_T81U1  COST  34.8661  DEM_T81  1
    X_T81U1  SU_T81U1  1  SU_T82U1  -1
    X_T81U2  COST  25.648  DEM_T81  1
    X_T81U2  SU_T81U2  1  SU_T82U2  -1
    X_T81U3  COST  36.5313  DEM_T81  1
    X_T81U3  SU_T81U3  1  SU_T82U3  -1
    X_T81U4  COST  23.8553  DEM_T81  1
    X_T81U4  SU_T81U4  1  SU_T82U4  -1
    X_T81U5  COST  10.3975  DEM_T81  1
    X_T81U5  SU_T81U5  1  SU_T82U5  -1
    X_T81U6  COST  23.7757  DEM_T81  1
    X_T81U6  SU_T81U6  1  SU_T82U6  -1
    X_T81U7  COST  31.6579  DEM_T81  1
    X_T81U7  SU_T81U7  1  SU_T82U7  -1
    X_T81U8  COST  24.6813  DEM_T81  1
    X_T81U8  SU_T81U8  1  SU_T82U8  -1
    X_T81U9  COST  32.2188  DEM_T81  1
    X_T81U9  SU_T81U9  1  SU_T82U9  -1
    X_T81U10  COST  25.9567  DEM_T81  1
    X_T81U10  SU_T81U10  1  SU_T82U10  -1
    X_T81U11  COST  18.9036  DEM_T81  1
    X_T81U11  SU_T81U11  1  SU_T82U11  -1
    X_T81U12  COST  20.3569  DEM_T81  1
    X_T81U12  SU_T81U12  1  SU_T82U12  -1
    X_T81U13  COST  31.9724  DEM_T81  1
    X_T81U13  SU_T81U13  1  SU_T82U13  -1
    X_T81U14  COST  13.6449  DEM_T81  1
    X_T81U14  SU_T81U14  1  SU_T82U14  -1
    X_T81U15  COST  27.4643  DEM_T81  1
    X_T81U15  SU_T81U15  1  SU_T82U15  -1
    X_T81U16  COST  16.3568  DEM_T81  1
    X_T81U16  SU_T81U16  1  SU_T82U16  -1
    X_T81U17  COST  15.0079  DEM_T81  1
    X_T81U17  SU_T81U17  1  SU_T82U17  -1
    X_T81U18  COST  18.028  DEM_T81  1
    X_T81U18  SU_T81U18  1  SU_T82U18  -1
    X_T81U19  COST  32.4817  DEM_T81  1
    X_T81U19  SU_T81U19  1  SU_T82U19  -1
    X_T81U20  COST  39.5874  DEM_T81  1
    X_T81U20  SU_T81U20  1  SU_T82U20  -1
    X_T82U1  COST  32.616  DEM_T82  1
    X_T82U1  SU_T82U1  1  SU_T83U1  -1
    X_T82U2  COST  30.3694  DEM_T82  1
    X_T82U2  SU_T82U2  1  SU_T83U2  -1
    X_T82U3  COST  32.6078  DEM_T82  1
    X_T82U3  SU_T82U3  1  SU_T83U3  -1
    X_T82U4  COST  19.8266  DEM_T82  1
    X_T82U4  SU_T82U4  1  SU_T83U4  -1
    X_T82U5  COST  27.2623  DEM_T82  1
    X_T82U5  SU_T82U5  1  SU_T83U5  -1
    X_T82U6  COST  38.3534  DEM_T82  1
    X_T82U6  SU_T82U6  1  SU_T83U6  -1
    X_T82U7  COST  24.8711  DEM_T82  1
    X_T82U7  SU_T82U7  1  SU_T83U7  -1
    X_T82U8  COST  23.1729  DEM_T82  1
    X_T82U8  SU_T82U8  1  SU_T83U8  -1
    X_T82U9  COST  25.3685  DEM_T82  1
    X_T82U9  SU_T82U9  1  SU_T83U9  -1
    X_T82U10  COST  32.944  DEM_T82  1
    X_T82U10  SU_T82U10  1  SU_T83U10  -1
    X_T82U11  COST  33.1896  DEM_T82  1
    X_T82U11  SU_T82U11  1  SU_T83U11  -1
    X_T82U12  COST  33.2947  DEM_T82  1
    X_T82U12  SU_T82U12  1  SU_T83U12  -1
    X_T82U13  COST  35.7193  DEM_T82  1
    X_T82U13  SU_T82U13  1  SU_T83U13  -1
    X_T82U14  COST  22.2436  DEM_T82  1
    X_T82U14  SU_T82U14  1  SU_T83U14  -1
    X_T82U15  COST  16.657  DEM_T82  1
    X_T82U15  SU_T82U15  1  SU_T83U15  -1
    X_T82U16  COST  36.4469  DEM_T82  1
    X_T82U16  SU_T82U16  1  SU_T83U16  -1
    X_T82U17  COST  30.9183  DEM_T82  1
    X_T82U17  SU_T82U17  1  SU_T83U17  -1
    X_T82U18  COST  23.9517  DEM_T82  1
    X_T82U18  SU_T82U18  1  SU_T83U18  -1
    X_T82U19  COST  16.1031  DEM_T82  1
    X_T82U19  SU_T82U19  1  SU_T83U19  -1
    X_T82U20  COST  18.5653  DEM_T82  1
    X_T82U20  SU_T82U20  1  SU_T83U20  -1
    X_T83U1  COST  25.3169  DEM_T83  1
    X_T83U1  SU_T83U1  1  SU_T84U1  -1
    X_T83U2  COST  22.1371  DEM_T83  1
    X_T83U2  SU_T83U2  1  SU_T84U2  -1
    X_T83U3  COST  10.401  DEM_T83  1
    X_T83U3  SU_T83U3  1  SU_T84U3  -1
    X_T83U4  COST  29.4332  DEM_T83  1
    X_T83U4  SU_T83U4  1  SU_T84U4  -1
    X_T83U5  COST  18.4265  DEM_T83  1
    X_T83U5  SU_T83U5  1  SU_T84U5  -1
    X_T83U6  COST  11.2596  DEM_T83  1
    X_T83U6  SU_T83U6  1  SU_T84U6  -1
    X_T83U7  COST  15.4517  DEM_T83  1
    X_T83U7  SU_T83U7  1  SU_T84U7  -1
    X_T83U8  COST  35.4378  DEM_T83  1
    X_T83U8  SU_T83U8  1  SU_T84U8  -1
    X_T83U9  COST  39.4512  DEM_T83  1
    X_T83U9  SU_T83U9  1  SU_T84U9  -1
    X_T83U10  COST  25.401  DEM_T83  1
    X_T83U10  SU_T83U10  1  SU_T84U10  -1
    X_T83U11  COST  16.9465  DEM_T83  1
    X_T83U11  SU_T83U11  1  SU_T84U11  -1
    X_T83U12  COST  11.2851  DEM_T83  1
    X_T83U12  SU_T83U12  1  SU_T84U12  -1
    X_T83U13  COST  12.1001  DEM_T83  1
    X_T83U13  SU_T83U13  1  SU_T84U13  -1
    X_T83U14  COST  28.2523  DEM_T83  1
    X_T83U14  SU_T83U14  1  SU_T84U14  -1
    X_T83U15  COST  21.2344  DEM_T83  1
    X_T83U15  SU_T83U15  1  SU_T84U15  -1
    X_T83U16  COST  11.3596  DEM_T83  1
    X_T83U16  SU_T83U16  1  SU_T84U16  -1
    X_T83U17  COST  37.8787  DEM_T83  1
    X_T83U17  SU_T83U17  1  SU_T84U17  -1
    X_T83U18  COST  34.941  DEM_T83  1
    X_T83U18  SU_T83U18  1  SU_T84U18  -1
    X_T83U19  COST  21.1972  DEM_T83  1
    X_T83U19  SU_T83U19  1  SU_T84U19  -1
    X_T83U20  COST  12.8611  DEM_T83  1
    X_T83U20  SU_T83U20  1  SU_T84U20  -1
    X_T84U1  COST  11.4597  DEM_T84  1
    X_T84U1  SU_T84U1  1  SU_T85U1  -1
    X_T84U2  COST  22.7821  DEM_T84  1
    X_T84U2  SU_T84U2  1  SU_T85U2  -1
    X_T84U3  COST  25.6322  DEM_T84  1
    X_T84U3  SU_T84U3  1  SU_T85U3  -1
    X_T84U4  COST  30.3242  DEM_T84  1
    X_T84U4  SU_T84U4  1  SU_T85U4  -1
    X_T84U5  COST  10.4388  DEM_T84  1
    X_T84U5  SU_T84U5  1  SU_T85U5  -1
    X_T84U6  COST  31.3971  DEM_T84  1
    X_T84U6  SU_T84U6  1  SU_T85U6  -1
    X_T84U7  COST  29.8745  DEM_T84  1
    X_T84U7  SU_T84U7  1  SU_T85U7  -1
    X_T84U8  COST  21.7227  DEM_T84  1
    X_T84U8  SU_T84U8  1  SU_T85U8  -1
    X_T84U9  COST  17.7469  DEM_T84  1
    X_T84U9  SU_T84U9  1  SU_T85U9  -1
    X_T84U10  COST  22.9949  DEM_T84  1
    X_T84U10  SU_T84U10  1  SU_T85U10  -1
    X_T84U11  COST  35.5775  DEM_T84  1
    X_T84U11  SU_T84U11  1  SU_T85U11  -1
    X_T84U12  COST  32.748  DEM_T84  1
    X_T84U12  SU_T84U12  1  SU_T85U12  -1
    X_T84U13  COST  22.4491  DEM_T84  1
    X_T84U13  SU_T84U13  1  SU_T85U13  -1
    X_T84U14  COST  21.5864  DEM_T84  1
    X_T84U14  SU_T84U14  1  SU_T85U14  -1
    X_T84U15  COST  15.5612  DEM_T84  1
    X_T84U15  SU_T84U15  1  SU_T85U15  -1
    X_T84U16  COST  35.8454  DEM_T84  1
    X_T84U16  SU_T84U16  1  SU_T85U16  -1
    X_T84U17  COST  31.7303  DEM_T84  1
    X_T84U17  SU_T84U17  1  SU_T85U17  -1
    X_T84U18  COST  26.7378  DEM_T84  1
    X_T84U18  SU_T84U18  1  SU_T85U18  -1
    X_T84U19  COST  14.0095  DEM_T84  1
    X_T84U19  SU_T84U19  1  SU_T85U19  -1
    X_T84U20  COST  23.5233  DEM_T84  1
    X_T84U20  SU_T84U20  1  SU_T85U20  -1
    X_T85U1  COST  22.9326  DEM_T85  1
    X_T85U1  SU_T85U1  1  SU_T86U1  -1
    X_T85U2  COST  25.9975  DEM_T85  1
    X_T85U2  SU_T85U2  1  SU_T86U2  -1
    X_T85U3  COST  32.447  DEM_T85  1
    X_T85U3  SU_T85U3  1  SU_T86U3  -1
    X_T85U4  COST  25.8617  DEM_T85  1
    X_T85U4  SU_T85U4  1  SU_T86U4  -1
    X_T85U5  COST  23.8934  DEM_T85  1
    X_T85U5  SU_T85U5  1  SU_T86U5  -1
    X_T85U6  COST  29.6413  DEM_T85  1
    X_T85U6  SU_T85U6  1  SU_T86U6  -1
    X_T85U7  COST  11.8942  DEM_T85  1
    X_T85U7  SU_T85U7  1  SU_T86U7  -1
    X_T85U8  COST  34.6494  DEM_T85  1
    X_T85U8  SU_T85U8  1  SU_T86U8  -1
    X_T85U9  COST  39.4992  DEM_T85  1
    X_T85U9  SU_T85U9  1  SU_T86U9  -1
    X_T85U10  COST  33.2099  DEM_T85  1
    X_T85U10  SU_T85U10  1  SU_T86U10  -1
    X_T85U11  COST  14.5182  DEM_T85  1
    X_T85U11  SU_T85U11  1  SU_T86U11  -1
    X_T85U12  COST  23.9197  DEM_T85  1
    X_T85U12  SU_T85U12  1  SU_T86U12  -1
    X_T85U13  COST  22.4572  DEM_T85  1
    X_T85U13  SU_T85U13  1  SU_T86U13  -1
    X_T85U14  COST  34.7298  DEM_T85  1
    X_T85U14  SU_T85U14  1  SU_T86U14  -1
    X_T85U15  COST  35.7436  DEM_T85  1
    X_T85U15  SU_T85U15  1  SU_T86U15  -1
    X_T85U16  COST  22.8695  DEM_T85  1
    X_T85U16  SU_T85U16  1  SU_T86U16  -1
    X_T85U17  COST  25.426  DEM_T85  1
    X_T85U17  SU_T85U17  1  SU_T86U17  -1
    X_T85U18  COST  23.0926  DEM_T85  1
    X_T85U18  SU_T85U18  1  SU_T86U18  -1
    X_T85U19  COST  12.8298  DEM_T85  1
    X_T85U19  SU_T85U19  1  SU_T86U19  -1
    X_T85U20  COST  34.3814  DEM_T85  1
    X_T85U20  SU_T85U20  1  SU_T86U20  -1
    X_T86U1  COST  39.0179  DEM_T86  1
    X_T86U1  SU_T86U1  1  SU_T87U1  -1
    X_T86U2  COST  37.0928  DEM_T86  1
    X_T86U2  SU_T86U2  1  SU_T87U2  -1
    X_T86U3  COST  34.0404  DEM_T86  1
    X_T86U3  SU_T86U3  1  SU_T87U3  -1
    X_T86U4  COST  10.1716  DEM_T86  1
    X_T86U4  SU_T86U4  1  SU_T87U4  -1
    X_T86U5  COST  27.1349  DEM_T86  1
    X_T86U5  SU_T86U5  1  SU_T87U5  -1
    X_T86U6  COST  19.5431  DEM_T86  1
    X_T86U6  SU_T86U6  1  SU_T87U6  -1
    X_T86U7  COST  36.7513  DEM_T86  1
    X_T86U7  SU_T86U7  1  SU_T87U7  -1
    X_T86U8  COST  22.1804  DEM_T86  1
    X_T86U8  SU_T86U8  1  SU_T87U8  -1
    X_T86U9  COST  12.4067  DEM_T86  1
    X_T86U9  SU_T86U9  1  SU_T87U9  -1
    X_T86U10  COST  10.4723  DEM_T86  1
    X_T86U10  SU_T86U10  1  SU_T87U10  -1
    X_T86U11  COST  37.4981  DEM_T86  1
    X_T86U11  SU_T86U11  1  SU_T87U11  -1
    X_T86U12  COST  19.2687  DEM_T86  1
    X_T86U12  SU_T86U12  1  SU_T87U12  -1
    X_T86U13  COST  25.3491  DEM_T86  1
    X_T86U13  SU_T86U13  1  SU_T87U13  -1
    X_T86U14  COST  38.1524  DEM_T86  1
    X_T86U14  SU_T86U14  1  SU_T87U14  -1
    X_T86U15  COST  22.07  DEM_T86  1
    X_T86U15  SU_T86U15  1  SU_T87U15  -1
    X_T86U16  COST  12.0798  DEM_T86  1
    X_T86U16  SU_T86U16  1  SU_T87U16  -1
    X_T86U17  COST  31.9901  DEM_T86  1
    X_T86U17  SU_T86U17  1  SU_T87U17  -1
    X_T86U18  COST  14.1531  DEM_T86  1
    X_T86U18  SU_T86U18  1  SU_T87U18  -1
    X_T86U19  COST  27.0845  DEM_T86  1
    X_T86U19  SU_T86U19  1  SU_T87U19  -1
    X_T86U20  COST  21.3738  DEM_T86  1
    X_T86U20  SU_T86U20  1  SU_T87U20  -1
    X_T87U1  COST  28.5558  DEM_T87  1
    X_T87U1  SU_T87U1  1  SU_T88U1  -1
    X_T87U2  COST  24.0786  DEM_T87  1
    X_T87U2  SU_T87U2  1  SU_T88U2  -1
    X_T87U3  COST  24.8244  DEM_T87  1
    X_T87U3  SU_T87U3  1  SU_T88U3  -1
    X_T87U4  COST  23.835  DEM_T87  1
    X_T87U4  SU_T87U4  1  SU_T88U4  -1
    X_T87U5  COST  25.1201  DEM_T87  1
    X_T87U5  SU_T87U5  1  SU_T88U5  -1
    X_T87U6  COST  34.985  DEM_T87  1
    X_T87U6  SU_T87U6  1  SU_T88U6  -1
    X_T87U7  COST  35.9092  DEM_T87  1
    X_T87U7  SU_T87U7  1  SU_T88U7  -1
    X_T87U8  COST  37.7514  DEM_T87  1
    X_T87U8  SU_T87U8  1  SU_T88U8  -1
    X_T87U9  COST  11.6317  DEM_T87  1
    X_T87U9  SU_T87U9  1  SU_T88U9  -1
    X_T87U10  COST  39.2274  DEM_T87  1
    X_T87U10  SU_T87U10  1  SU_T88U10  -1
    X_T87U11  COST  26.6406  DEM_T87  1
    X_T87U11  SU_T87U11  1  SU_T88U11  -1
    X_T87U12  COST  34.3078  DEM_T87  1
    X_T87U12  SU_T87U12  1  SU_T88U12  -1
    X_T87U13  COST  16.125  DEM_T87  1
    X_T87U13  SU_T87U13  1  SU_T88U13  -1
    X_T87U14  COST  27.3918  DEM_T87  1
    X_T87U14  SU_T87U14  1  SU_T88U14  -1
    X_T87U15  COST  38.4623  DEM_T87  1
    X_T87U15  SU_T87U15  1  SU_T88U15  -1
    X_T87U16  COST  30.5619  DEM_T87  1
    X_T87U16  SU_T87U16  1  SU_T88U16  -1
    X_T87U17  COST  15.143  DEM_T87  1
    X_T87U17  SU_T87U17  1  SU_T88U17  -1
    X_T87U18  COST  23.6462  DEM_T87  1
    X_T87U18  SU_T87U18  1  SU_T88U18  -1
    X_T87U19  COST  37.3064  DEM_T87  1
    X_T87U19  SU_T87U19  1  SU_T88U19  -1
    X_T87U20  COST  38.6061  DEM_T87  1
    X_T87U20  SU_T87U20  1  SU_T88U20  -1
    X_T88U1  COST  27.535  DEM_T88  1
    X_T88U1  SU_T88U1  1  SU_T89U1  -1
    X_T88U2  COST  29.2773  DEM_T88  1
    X_T88U2  SU_T88U2  1  SU_T89U2  -1
    X_T88U3  COST  32.2169  DEM_T88  1
    X_T88U3  SU_T88U3  1  SU_T89U3  -1
    X_T88U4  COST  27.8225  DEM_T88  1
    X_T88U4  SU_T88U4  1  SU_T89U4  -1
    X_T88U5  COST  11.9958  DEM_T88  1
    X_T88U5  SU_T88U5  1  SU_T89U5  -1
    X_T88U6  COST  37.4702  DEM_T88  1
    X_T88U6  SU_T88U6  1  SU_T89U6  -1
    X_T88U7  COST  17.3886  DEM_T88  1
    X_T88U7  SU_T88U7  1  SU_T89U7  -1
    X_T88U8  COST  27.9033  DEM_T88  1
    X_T88U8  SU_T88U8  1  SU_T89U8  -1
    X_T88U9  COST  39.2856  DEM_T88  1
    X_T88U9  SU_T88U9  1  SU_T89U9  -1
    X_T88U10  COST  21.2632  DEM_T88  1
    X_T88U10  SU_T88U10  1  SU_T89U10  -1
    X_T88U11  COST  36.5375  DEM_T88  1
    X_T88U11  SU_T88U11  1  SU_T89U11  -1
    X_T88U12  COST  16.0166  DEM_T88  1
    X_T88U12  SU_T88U12  1  SU_T89U12  -1
    X_T88U13  COST  30.7364  DEM_T88  1
    X_T88U13  SU_T88U13  1  SU_T89U13  -1
    X_T88U14  COST  28.5697  DEM_T88  1
    X_T88U14  SU_T88U14  1  SU_T89U14  -1
    X_T88U15  COST  33.2773  DEM_T88  1
    X_T88U15  SU_T88U15  1  SU_T89U15  -1
    X_T88U16  COST  20.4252  DEM_T88  1
    X_T88U16  SU_T88U16  1  SU_T89U16  -1
    X_T88U17  COST  21.8788  DEM_T88  1
    X_T88U17  SU_T88U17  1  SU_T89U17  -1
    X_T88U18  COST  36.7568  DEM_T88  1
    X_T88U18  SU_T88U18  1  SU_T89U18  -1
    X_T88U19  COST  26.5563  DEM_T88  1
    X_T88U19  SU_T88U19  1  SU_T89U19  -1
    X_T88U20  COST  22.4865  DEM_T88  1
    X_T88U20  SU_T88U20  1  SU_T89U20  -1
    X_T89U1  COST  24.2485  DEM_T89  1
    X_T89U1  SU_T89U1  1  SU_T90U1  -1
    X_T89U2  COST  38.2715  DEM_T89  1
    X_T89U2  SU_T89U2  1  SU_T90U2  -1
    X_T89U3  COST  23.1537  DEM_T89  1
    X_T89U3  SU_T89U3  1  SU_T90U3  -1
    X_T89U4  COST  39.5591  DEM_T89  1
    X_T89U4  SU_T89U4  1  SU_T90U4  -1
    X_T89U5  COST  13.4329  DEM_T89  1
    X_T89U5  SU_T89U5  1  SU_T90U5  -1
    X_T89U6  COST  14.6671  DEM_T89  1
    X_T89U6  SU_T89U6  1  SU_T90U6  -1
    X_T89U7  COST  28.9174  DEM_T89  1
    X_T89U7  SU_T89U7  1  SU_T90U7  -1
    X_T89U8  COST  10.6156  DEM_T89  1
    X_T89U8  SU_T89U8  1  SU_T90U8  -1
    X_T89U9  COST  20.9679  DEM_T89  1
    X_T89U9  SU_T89U9  1  SU_T90U9  -1
    X_T89U10  COST  19.0744  DEM_T89  1
    X_T89U10  SU_T89U10  1  SU_T90U10  -1
    X_T89U11  COST  15.1035  DEM_T89  1
    X_T89U11  SU_T89U11  1  SU_T90U11  -1
    X_T89U12  COST  33.3041  DEM_T89  1
    X_T89U12  SU_T89U12  1  SU_T90U12  -1
    X_T89U13  COST  39.6019  DEM_T89  1
    X_T89U13  SU_T89U13  1  SU_T90U13  -1
    X_T89U14  COST  12.9575  DEM_T89  1
    X_T89U14  SU_T89U14  1  SU_T90U14  -1
    X_T89U15  COST  31.2003  DEM_T89  1
    X_T89U15  SU_T89U15  1  SU_T90U15  -1
    X_T89U16  COST  14.6794  DEM_T89  1
    X_T89U16  SU_T89U16  1  SU_T90U16  -1
    X_T89U17  COST  33.4167  DEM_T89  1
    X_T89U17  SU_T89U17  1  SU_T90U17  -1
    X_T89U18  COST  19.3507  DEM_T89  1
    X_T89U18  SU_T89U18  1  SU_T90U18  -1
    X_T89U19  COST  15.2273  DEM_T89  1
    X_T89U19  SU_T89U19  1  SU_T90U19  -1
    X_T89U20  COST  23.2524  DEM_T89  1
    X_T89U20  SU_T89U20  1  SU_T90U20  -1
    X_T90U1  COST  21.8712  DEM_T90  1
    X_T90U1  SU_T90U1  1  SU_T91U1  -1
    X_T90U2  COST  18.4576  DEM_T90  1
    X_T90U2  SU_T90U2  1  SU_T91U2  -1
    X_T90U3  COST  15.7218  DEM_T90  1
    X_T90U3  SU_T90U3  1  SU_T91U3  -1
    X_T90U4  COST  26.4171  DEM_T90  1
    X_T90U4  SU_T90U4  1  SU_T91U4  -1
    X_T90U5  COST  29.9261  DEM_T90  1
    X_T90U5  SU_T90U5  1  SU_T91U5  -1
    X_T90U6  COST  11.3488  DEM_T90  1
    X_T90U6  SU_T90U6  1  SU_T91U6  -1
    X_T90U7  COST  26.8767  DEM_T90  1
    X_T90U7  SU_T90U7  1  SU_T91U7  -1
    X_T90U8  COST  38.2126  DEM_T90  1
    X_T90U8  SU_T90U8  1  SU_T91U8  -1
    X_T90U9  COST  25.6828  DEM_T90  1
    X_T90U9  SU_T90U9  1  SU_T91U9  -1
    X_T90U10  COST  29.6817  DEM_T90  1
    X_T90U10  SU_T90U10  1  SU_T91U10  -1
    X_T90U11  COST  30.6112  DEM_T90  1
    X_T90U11  SU_T90U11  1  SU_T91U11  -1
    X_T90U12  COST  13.5104  DEM_T90  1
    X_T90U12  SU_T90U12  1  SU_T91U12  -1
    X_T90U13  COST  13.697  DEM_T90  1
    X_T90U13  SU_T90U13  1  SU_T91U13  -1
    X_T90U14  COST  22.4844  DEM_T90  1
    X_T90U14  SU_T90U14  1  SU_T91U14  -1
    X_T90U15  COST  37.0989  DEM_T90  1
    X_T90U15  SU_T90U15  1  SU_T91U15  -1
    X_T90U16  COST  34.5357  DEM_T90  1
    X_T90U16  SU_T90U16  1  SU_T91U16  -1
    X_T90U17  COST  32.0872  DEM_T90  1
    X_T90U17  SU_T90U17  1  SU_T91U17  -1
    X_T90U18  COST  36.0882  DEM_T90  1
    X_T90U18  SU_T90U18  1  SU_T91U18  -1
    X_T90U19  COST  39.1071  DEM_T90  1
    X_T90U19  SU_T90U19  1  SU_T91U19  -1
    X_T90U20  COST  32.2481  DEM_T90  1
    X_T90U20  SU_T90U20  1  SU_T91U20  -1
    X_T91U1  COST  13.9496  DEM_T91  1
    X_T91U1  SU_T91U1  1  SU_T92U1  -1
    X_T91U2  COST  14.9591  DEM_T91  1
    X_T91U2  SU_T91U2  1  SU_T92U2  -1
    X_T91U3  COST  24.723  DEM_T91  1
    X_T91U3  SU_T91U3  1  SU_T92U3  -1
    X_T91U4  COST  37.0957  DEM_T91  1
    X_T91U4  SU_T91U4  1  SU_T92U4  -1
    X_T91U5  COST  27.2984  DEM_T91  1
    X_T91U5  SU_T91U5  1  SU_T92U5  -1
    X_T91U6  COST  21.1351  DEM_T91  1
    X_T91U6  SU_T91U6  1  SU_T92U6  -1
    X_T91U7  COST  17.584  DEM_T91  1
    X_T91U7  SU_T91U7  1  SU_T92U7  -1
    X_T91U8  COST  36.8196  DEM_T91  1
    X_T91U8  SU_T91U8  1  SU_T92U8  -1
    X_T91U9  COST  31.8839  DEM_T91  1
    X_T91U9  SU_T91U9  1  SU_T92U9  -1
    X_T91U10  COST  20.1295  DEM_T91  1
    X_T91U10  SU_T91U10  1  SU_T92U10  -1
    X_T91U11  COST  10.7571  DEM_T91  1
    X_T91U11  SU_T91U11  1  SU_T92U11  -1
    X_T91U12  COST  25.6022  DEM_T91  1
    X_T91U12  SU_T91U12  1  SU_T92U12  -1
    X_T91U13  COST  27.668  DEM_T91  1
    X_T91U13  SU_T91U13  1  SU_T92U13  -1
    X_T91U14  COST  28.7043  DEM_T91  1
    X_T91U14  SU_T91U14  1  SU_T92U14  -1
    X_T91U15  COST  11.6054  DEM_T91  1
    X_T91U15  SU_T91U15  1  SU_T92U15  -1
    X_T91U16  COST  16.9617  DEM_T91  1
    X_T91U16  SU_T91U16  1  SU_T92U16  -1
    X_T91U17  COST  26.6301  DEM_T91  1
    X_T91U17  SU_T91U17  1  SU_T92U17  -1
    X_T91U18  COST  18.8185  DEM_T91  1
    X_T91U18  SU_T91U18  1  SU_T92U18  -1
    X_T91U19  COST  38.4551  DEM_T91  1
    X_T91U19  SU_T91U19  1  SU_T92U19  -1
    X_T91U20  COST  28.2982  DEM_T91  1
    X_T91U20  SU_T91U20  1  SU_T92U20  -1
    X_T92U1  COST  33.5744  DEM_T92  1
    X_T92U1  SU_T92U1  1  SU_T93U1  -1
    X_T92U2  COST  10.1931  DEM_T92  1
    X_T92U2  SU_T92U2  1  SU_T93U2  -1
    X_T92U3  COST  31.0747  DEM_T92  1
    X_T92U3  SU_T92U3  1  SU_T93U3  -1
    X_T92U4  COST  32.8127  DEM_T92  1
    X_T92U4  SU_T92U4  1  SU_T93U4  -1
    X_T92U5  COST  31.1225  DEM_T92  1
    X_T92U5  SU_T92U5  1  SU_T93U5  -1
    X_T92U6  COST  21.2742  DEM_T92  1
    X_T92U6  SU_T92U6  1  SU_T93U6  -1
    X_T92U7  COST  24.2706  DEM_T92  1
    X_T92U7  SU_T92U7  1  SU_T93U7  -1
    X_T92U8  COST  32.8868  DEM_T92  1
    X_T92U8  SU_T92U8  1  SU_T93U8  -1
    X_T92U9  COST  29.398  DEM_T92  1
    X_T92U9  SU_T92U9  1  SU_T93U9  -1
    X_T92U10  COST  30.101  DEM_T92  1
    X_T92U10  SU_T92U10  1  SU_T93U10  -1
    X_T92U11  COST  33.2066  DEM_T92  1
    X_T92U11  SU_T92U11  1  SU_T93U11  -1
    X_T92U12  COST  28.7897  DEM_T92  1
    X_T92U12  SU_T92U12  1  SU_T93U12  -1
    X_T92U13  COST  35.5895  DEM_T92  1
    X_T92U13  SU_T92U13  1  SU_T93U13  -1
    X_T92U14  COST  39.8919  DEM_T92  1
    X_T92U14  SU_T92U14  1  SU_T93U14  -1
    X_T92U15  COST  32.612  DEM_T92  1
    X_T92U15  SU_T92U15  1  SU_T93U15  -1
    X_T92U16  COST  20.0802  DEM_T92  1
    X_T92U16  SU_T92U16  1  SU_T93U16  -1
    X_T92U17  COST  33.2014  DEM_T92  1
    X_T92U17  SU_T92U17  1  SU_T93U17  -1
    X_T92U18  COST  15.6742  DEM_T92  1
    X_T92U18  SU_T92U18  1  SU_T93U18  -1
    X_T92U19  COST  30.8687  DEM_T92  1
    X_T92U19  SU_T92U19  1  SU_T93U19  -1
    X_T92U20  COST  15.9952  DEM_T92  1
    X_T92U20  SU_T92U20  1  SU_T93U20  -1
    X_T93U1  COST  27.0539  DEM_T93  1
    X_T93U1  SU_T93U1  1  SU_T94U1  -1
    X_T93U2  COST  16.3234  DEM_T93  1
    X_T93U2  SU_T93U2  1  SU_T94U2  -1
    X_T93U3  COST  35.6948  DEM_T93  1
    X_T93U3  SU_T93U3  1  SU_T94U3  -1
    X_T93U4  COST  37.8207  DEM_T93  1
    X_T93U4  SU_T93U4  1  SU_T94U4  -1
    X_T93U5  COST  19.5415  DEM_T93  1
    X_T93U5  SU_T93U5  1  SU_T94U5  -1
    X_T93U6  COST  22.9334  DEM_T93  1
    X_T93U6  SU_T93U6  1  SU_T94U6  -1
    X_T93U7  COST  18.484  DEM_T93  1
    X_T93U7  SU_T93U7  1  SU_T94U7  -1
    X_T93U8  COST  18.7755  DEM_T93  1
    X_T93U8  SU_T93U8  1  SU_T94U8  -1
    X_T93U9  COST  18.8133  DEM_T93  1
    X_T93U9  SU_T93U9  1  SU_T94U9  -1
    X_T93U10  COST  29.1128  DEM_T93  1
    X_T93U10  SU_T93U10  1  SU_T94U10  -1
    X_T93U11  COST  29.6015  DEM_T93  1
    X_T93U11  SU_T93U11  1  SU_T94U11  -1
    X_T93U12  COST  18.8696  DEM_T93  1
    X_T93U12  SU_T93U12  1  SU_T94U12  -1
    X_T93U13  COST  27.9888  DEM_T93  1
    X_T93U13  SU_T93U13  1  SU_T94U13  -1
    X_T93U14  COST  20.5124  DEM_T93  1
    X_T93U14  SU_T93U14  1  SU_T94U14  -1
    X_T93U15  COST  20.1931  DEM_T93  1
    X_T93U15  SU_T93U15  1  SU_T94U15  -1
    X_T93U16  COST  30.3434  DEM_T93  1
    X_T93U16  SU_T93U16  1  SU_T94U16  -1
    X_T93U17  COST  20.4066  DEM_T93  1
    X_T93U17  SU_T93U17  1  SU_T94U17  -1
    X_T93U18  COST  33.8344  DEM_T93  1
    X_T93U18  SU_T93U18  1  SU_T94U18  -1
    X_T93U19  COST  14.2677  DEM_T93  1
    X_T93U19  SU_T93U19  1  SU_T94U19  -1
    X_T93U20  COST  35.486  DEM_T93  1
    X_T93U20  SU_T93U20  1  SU_T94U20  -1
    X_T94U1  COST  39.7509  DEM_T94  1
    X_T94U1  SU_T94U1  1  SU_T95U1  -1
    X_T94U2  COST  39.5454  DEM_T94  1
    X_T94U2  SU_T94U2  1  SU_T95U2  -1
    X_T94U3  COST  23.5844  DEM_T94  1
    X_T94U3  SU_T94U3  1  SU_T95U3  -1
    X_T94U4  COST  14.9465  DEM_T94  1
    X_T94U4  SU_T94U4  1  SU_T95U4  -1
    X_T94U5  COST  31.304  DEM_T94  1
    X_T94U5  SU_T94U5  1  SU_T95U5  -1
    X_T94U6  COST  20.2428  DEM_T94  1
    X_T94U6  SU_T94U6  1  SU_T95U6  -1
    X_T94U7  COST  37.397  DEM_T94  1
    X_T94U7  SU_T94U7  1  SU_T95U7  -1
    X_T94U8  COST  10.1508  DEM_T94  1
    X_T94U8  SU_T94U8  1  SU_T95U8  -1
    X_T94U9  COST  37.143  DEM_T94  1
    X_T94U9  SU_T94U9  1  SU_T95U9  -1
    X_T94U10  COST  18.1912  DEM_T94  1
    X_T94U10  SU_T94U10  1  SU_T95U10  -1
    X_T94U11  COST  18.828  DEM_T94  1
    X_T94U11  SU_T94U11  1  SU_T95U11  -1
    X_T94U12  COST  38.246  DEM_T94  1
    X_T94U12  SU_T94U12  1  SU_T95U12  -1
    X_T94U13  COST  23.8717  DEM_T94  1
    X_T94U13  SU_T94U13  1  SU_T95U13  -1
    X_T94U14  COST  17.4837  DEM_T94  1
    X_T94U14  SU_T94U14  1  SU_T95U14  -1
    X_T94U15  COST  35.684  DEM_T94  1
    X_T94U15  SU_T94U15  1  SU_T95U15  -1
    X_T94U16  COST  32.7239  DEM_T94  1
    X_T94U16  SU_T94U16  1  SU_T95U16  -1
    X_T94U17  COST  18.9657  DEM_T94  1
    X_T94U17  SU_T94U17  1  SU_T95U17  -1
    X_T94U18  COST  23.2017  DEM_T94  1
    X_T94U18  SU_T94U18  1  SU_T95U18  -1
    X_T94U19  COST  38.2066  DEM_T94  1
    X_T94U19  SU_T94U19  1  SU_T95U19  -1
    X_T94U20  COST  35.8941  DEM_T94  1
    X_T94U20  SU_T94U20  1  SU_T95U20  -1
    X_T95U1  COST  15.2003  DEM_T95  1
    X_T95U1  SU_T95U1  1  SU_T96U1  -1
    X_T95U2  COST  13.5077  DEM_T95  1
    X_T95U2  SU_T95U2  1  SU_T96U2  -1
    X_T95U3  COST  38.497  DEM_T95  1
    X_T95U3  SU_T95U3  1  SU_T96U3  -1
    X_T95U4  COST  32.0165  DEM_T95  1
    X_T95U4  SU_T95U4  1  SU_T96U4  -1
    X_T95U5  COST  27.5082  DEM_T95  1
    X_T95U5  SU_T95U5  1  SU_T96U5  -1
    X_T95U6  COST  20.6539  DEM_T95  1
    X_T95U6  SU_T95U6  1  SU_T96U6  -1
    X_T95U7  COST  16.5373  DEM_T95  1
    X_T95U7  SU_T95U7  1  SU_T96U7  -1
    X_T95U8  COST  27.4425  DEM_T95  1
    X_T95U8  SU_T95U8  1  SU_T96U8  -1
    X_T95U9  COST  36.1906  DEM_T95  1
    X_T95U9  SU_T95U9  1  SU_T96U9  -1
    X_T95U10  COST  30.9907  DEM_T95  1
    X_T95U10  SU_T95U10  1  SU_T96U10  -1
    X_T95U11  COST  26.8174  DEM_T95  1
    X_T95U11  SU_T95U11  1  SU_T96U11  -1
    X_T95U12  COST  12.482  DEM_T95  1
    X_T95U12  SU_T95U12  1  SU_T96U12  -1
    X_T95U13  COST  33.3997  DEM_T95  1
    X_T95U13  SU_T95U13  1  SU_T96U13  -1
    X_T95U14  COST  12.2698  DEM_T95  1
    X_T95U14  SU_T95U14  1  SU_T96U14  -1
    X_T95U15  COST  12.765  DEM_T95  1
    X_T95U15  SU_T95U15  1  SU_T96U15  -1
    X_T95U16  COST  16.7883  DEM_T95  1
    X_T95U16  SU_T95U16  1  SU_T96U16  -1
    X_T95U17  COST  33.505  DEM_T95  1
    X_T95U17  SU_T95U17  1  SU_T96U17  -1
    X_T95U18  COST  28.5083  DEM_T95  1
    X_T95U18  SU_T95U18  1  SU_T96U18  -1
    X_T95U19  COST  16.6919  DEM_T95  1
    X_T95U19  SU_T95U19  1  SU_T96U19  -1
    X_T95U20  COST  33.6848  DEM_T95  1
    X_T95U20  SU_T95U20  1  SU_T96U20  -1
    X_T96U1  COST  26.8377  DEM_T96  1
    X_T96U1  SU_T96U1  1
    X_T96U2  COST  22.7064  DEM_T96  1
    X_T96U2  SU_T96U2  1
    X_T96U3  COST  10.9534  DEM_T96  1
    X_T96U3  SU_T96U3  1
    X_T96U4  COST  17.2021  DEM_T96  1
    X_T96U4  SU_T96U4  1
    X_T96U5  COST  13.471  DEM_T96  1
    X_T96U5  SU_T96U5  1
    X_T96U6  COST  25.7076  DEM_T96  1
    X_T96U6  SU_T96U6  1
    X_T96U7  COST  39.683  DEM_T96  1
    X_T96U7  SU_T96U7  1
    X_T96U8  COST  14.1366  DEM_T96  1
    X_T96U8  SU_T96U8  1
    X_T96U9  COST  36.9323  DEM_T96  1
    X_T96U9  SU_T96U9  1
    X_T96U10  COST  12.2932  DEM_T96  1
    X_T96U10  SU_T96U10  1
    X_T96U11  COST  33.8179  DEM_T96  1
    X_T96U11  SU_T96U11  1
    X_T96U12  COST  11.5536  DEM_T96  1
    X_T96U12  SU_T96U12  1
    X_T96U13  COST  14.6811  DEM_T96  1
    X_T96U13  SU_T96U13  1
    X_T96U14  COST  20.75  DEM_T96  1
    X_T96U14  SU_T96U14  1
    X_T96U15  COST  26.9706  DEM_T96  1
    X_T96U15  SU_T96U15  1
    X_T96U16  COST  14.188  DEM_T96  1
    X_T96U16  SU_T96U16  1
    X_T96U17  COST  32.8565  DEM_T96  1
    X_T96U17  SU_T96U17  1
    X_T96U18  COST  18.2727  DEM_T96  1
    X_T96U18  SU_T96U18  1
    X_T96U19  COST  10.5027  DEM_T96  1
    X_T96U19  SU_T96U19  1
    X_T96U20  COST  12.297  DEM_T96  1
    X_T96U20  SU_T96U20  1
    S_T1U1  COST  77.5152  SU_T1U1  -1
    S_T1U2  COST  139.528  SU_T1U2  -1
    S_T1U3  COST  64.9962  SU_T1U3  -1
    S_T1U4  COST  100.056  SU_T1U4  -1
    S_T1U5  COST  147.633  SU_T1U5  -1
    S_T1U6  COST  158.3  SU_T1U6  -1
    S_T1U7  COST  50.1168  SU_T1U7  -1
    S_T1U8  COST  142.622  SU_T1U8  -1
    S_T1U9  COST  51.0599  SU_T1U9  -1
    S_T1U10  COST  128.716  SU_T1U10  -1
    S_T1U11  COST  56.9999  SU_T1U11  -1
    S_T1U12  COST  84.9157  SU_T1U12  -1
    S_T1U13  COST  142.758  SU_T1U13  -1
    S_T1U14  COST  197.485  SU_T1U14  -1
    S_T1U15  COST  178.991  SU_T1U15  -1
    S_T1U16  COST  117.575  SU_T1U16  -1
    S_T1U17  COST  191.33  SU_T1U17  -1
    S_T1U18  COST  107.812  SU_T1U18  -1
    S_T1U19  COST  84.6341  SU_T1U19  -1
    S_T1U20  COST  152.49  SU_T1U20  -1
    S_T2U1  COST  174.979  SU_T2U1  -1
    S_T2U2  COST  108.659  SU_T2U2  -1
    S_T2U3  COST  163.304  SU_T2U3  -1
    S_T2U4  COST  81.1912  SU_T2U4  -1
    S_T2U5  COST  54.697  SU_T2U5  -1
    S_T2U6  COST  117.463  SU_T2U6  -1
    S_T2U7  COST  188.999  SU_T2U7  -1
    S_T2U8  COST  98.9811  SU_T2U8  -1
    S_T2U9  COST  128.125  SU_T2U9  -1
    S_T2U10  COST  176.68  SU_T2U10  -1
    S_T2U11  COST  130.954  SU_T2U11  -1
    S_T2U12  COST  194.788  SU_T2U12  -1
    S_T2U13  COST  91.3999  SU_T2U13  -1
    S_T2U14  COST  74.79  SU_T2U14  -1
    S_T2U15  COST  113.51  SU_T2U15  -1
    S_T2U16  COST  94.0232  SU_T2U16  -1
    S_T2U17  COST  79.8264  SU_T2U17  -1
    S_T2U18  COST  168.526  SU_T2U18  -1
    S_T2U19  COST  188.945  SU_T2U19  -1
    S_T2U20  COST  187.244  SU_T2U20  -1
    S_T3U1  COST  117.418  SU_T3U1  -1
    S_T3U2  COST  105.623  SU_T3U2  -1
    S_T3U3  COST  149.888  SU_T3U3  -1
    S_T3U4  COST  91.2083  SU_T3U4  -1
    S_T3U5  COST  107.439  SU_T3U5  -1
    S_T3U6  COST  177.337  SU_T3U6  -1
    S_T3U7  COST  85.3977  SU_T3U7  -1
    S_T3U8  COST  56.065  SU_T3U8  -1
    S_T3U9  COST  66.6336  SU_T3U9  -1
    S_T3U10  COST  80.2579  SU_T3U10  -1
    S_T3U11  COST  121.306  SU_T3U11  -1
    S_T3U12  COST  154.327  SU_T3U12  -1
    S_T3U13  COST  140.663  SU_T3U13  -1
    S_T3U14  COST  80.4592  SU_T3U14  -1
    S_T3U15  COST  139.83  SU_T3U15  -1
    S_T3U16  COST  182.07  SU_T3U16  -1
    S_T3U17  COST  94.3451  SU_T3U17  -1
    S_T3U18  COST  118.48  SU_T3U18  -1
    S_T3U19  COST  112.476  SU_T3U19  -1
    S_T3U20  COST  98.6518  SU_T3U20  -1
    S_T4U1  COST  103.445  SU_T4U1  -1
    S_T4U2  COST  90.8198  SU_T4U2  -1
    S_T4U3  COST  50.0781  SU_T4U3  -1
    S_T4U4  COST  95.7172  SU_T4U4  -1
    S_T4U5  COST  130.113  SU_T4U5  -1
    S_T4U6  COST  153.865  SU_T4U6  -1
    S_T4U7  COST  86.6188  SU_T4U7  -1
    S_T4U8  COST  82.8146  SU_T4U8  -1
    S_T4U9  COST  110.575  SU_T4U9  -1
    S_T4U10  COST  88.0873  SU_T4U10  -1
    S_T4U11  COST  154.446  SU_T4U11  -1
    S_T4U12  COST  72.213  SU_T4U12  -1
    S_T4U13  COST  90.0172  SU_T4U13  -1
    S_T4U14  COST  111.656  SU_T4U14  -1
    S_T4U15  COST  101.761  SU_T4U15  -1
    S_T4U16  COST  152.106  SU_T4U16  -1
    S_T4U17  COST  117.167  SU_T4U17  -1
    S_T4U18  COST  138.905  SU_T4U18  -1
    S_T4U19  COST  105.448  SU_T4U19  -1
    S_T4U20  COST  170.471  SU_T4U20  -1
    S_T5U1  COST  197.513  SU_T5U1  -1
    S_T5U2  COST  172.465  SU_T5U2  -1
    S_T5U3  COST  72.6076  SU_T5U3  -1
    S_T5U4  COST  154.372  SU_T5U4  -1
    S_T5U5  COST  98.8938  SU_T5U5  -1
    S_T5U6  COST  156.672  SU_T5U6  -1
    S_T5U7  COST  102.3  SU_T5U7  -1
    S_T5U8  COST  191.078  SU_T5U8  -1
    S_T5U9  COST  127.663  SU_T5U9  -1
    S_T5U10  COST  151.354  SU_T5U10  -1
    S_T5U11  COST  81.3607  SU_T5U11  -1
    S_T5U12  COST  154.368  SU_T5U12  -1
    S_T5U13  COST  76.2432  SU_T5U13  -1
    S_T5U14  COST  127.495  SU_T5U14  -1
    S_T5U15  COST  199.438  SU_T5U15  -1
    S_T5U16  COST  133.744  SU_T5U16  -1
    S_T5U17  COST  78.3061  SU_T5U17  -1
    S_T5U18  COST  155.054  SU_T5U18  -1
    S_T5U19  COST  178.449  SU_T5U19  -1
    S_T5U20  COST  183.166  SU_T5U20  -1
    S_T6U1  COST  190.345  SU_T6U1  -1
    S_T6U2  COST  150.348  SU_T6U2  -1
    S_T6U3  COST  105.842  SU_T6U3  -1
    S_T6U4  COST  196.05  SU_T6U4  -1
    S_T6U5  COST  95.8046  SU_T6U5  -1
    S_T6U6  COST  117.264  SU_T6U6  -1
    S_T6U7  COST  76.3888  SU_T6U7  -1
    S_T6U8  COST  124.084  SU_T6U8  -1
    S_T6U9  COST  104.97  SU_T6U9  -1
    S_T6U10  COST  158.141  SU_T6U10  -1
    S_T6U11  COST  131.381  SU_T6U11  -1
    S_T6U12  COST  145.45  SU_T6U12  -1
    S_T6U13  COST  138.481  SU_T6U13  -1
    S_T6U14  COST  123.011  SU_T6U14  -1
    S_T6U15  COST  115.159  SU_T6U15  -1
    S_T6U16  COST  146.766  SU_T6U16  -1
    S_T6U17  COST  179.625  SU_T6U17  -1
    S_T6U18  COST  124.879  SU_T6U18  -1
    S_T6U19  COST  165.283  SU_T6U19  -1
    S_T6U20  COST  199.183  SU_T6U20  -1
    S_T7U1  COST  91.9341  SU_T7U1  -1
    S_T7U2  COST  162.158  SU_T7U2  -1
    S_T7U3  COST  99.6125  SU_T7U3  -1
    S_T7U4  COST  135.844  SU_T7U4  -1
    S_T7U5  COST  61.3019  SU_T7U5  -1
    S_T7U6  COST  78.6367  SU_T7U6  -1
    S_T7U7  COST  122.792  SU_T7U7  -1
    S_T7U8  COST  109.204  SU_T7U8  -1
    S_T7U9  COST  189.503  SU_T7U9  -1
    S_T7U10  COST  81.3378  SU_T7U10  -1
    S_T7U11  COST  103.797  SU_T7U11  -1
    S_T7U12  COST  94.2936  SU_T7U12  -1
    S_T7U13  COST  177.3  SU_T7U13  -1
    S_T7U14  COST  156.337  SU_T7U14  -1
    S_T7U15  COST  94.4765  SU_T7U15  -1
    S_T7U16  COST  88.431  SU_T7U16  -1
    S_T7U17  COST  62.2391  SU_T7U17  -1
    S_T7U18  COST  144.184  SU_T7U18  -1
    S_T7U19  COST  60.6411  SU_T7U19  -1
    S_T7U20  COST  57.6153  SU_T7U20  -1
    S_T8U1  COST  54.1425  SU_T8U1  -1
    S_T8U2  COST  115.771  SU_T8U2  -1
    S_T8U3  COST  99.2229  SU_T8U3  -1
    S_T8U4  COST  197.276  SU_T8U4  -1
    S_T8U5  COST  179.061  SU_T8U5  -1
    S_T8U6  COST  55.8252  SU_T8U6  -1
    S_T8U7  COST  130.562  SU_T8U7  -1
    S_T8U8  COST  174.18  SU_T8U8  -1
    S_T8U9  COST  194.788  SU_T8U9  -1
    S_T8U10  COST  176.303  SU_T8U10  -1
    S_T8U11  COST  111.703  SU_T8U11  -1
    S_T8U12  COST  70.753  SU_T8U12  -1
    S_T8U13  COST  195.431  SU_T8U13  -1
    S_T8U14  COST  56.1601  SU_T8U14  -1
    S_T8U15  COST  115.028  SU_T8U15  -1
    S_T8U16  COST  87.6291  SU_T8U16  -1
    S_T8U17  COST  62.1309  SU_T8U17  -1
    S_T8U18  COST  153.275  SU_T8U18  -1
    S_T8U19  COST  187.282  SU_T8U19  -1
    S_T8U20  COST  85.9681  SU_T8U20  -1
    S_T9U1  COST  77.4299  SU_T9U1  -1
    S_T9U2  COST  145.741  SU_T9U2  -1
    S_T9U3  COST  148.567  SU_T9U3  -1
    S_T9U4  COST  159.506  SU_T9U4  -1
    S_T9U5  COST  134.906  SU_T9U5  -1
    S_T9U6  COST  68.0247  SU_T9U6  -1
    S_T9U7  COST  63.7699  SU_T9U7  -1
    S_T9U8  COST  96.712  SU_T9U8  -1
    S_T9U9  COST  76.2995  SU_T9U9  -1
    S_T9U10  COST  164.505  SU_T9U10  -1
    S_T9U11  COST  101.946  SU_T9U11  -1
    S_T9U12  COST  147.466  SU_T9U12  -1
    S_T9U13  COST  192.372  SU_T9U13  -1
    S_T9U14  COST  89.134  SU_T9U14  -1
    S_T9U15  COST  190.015  SU_T9U15  -1
    S_T9U16  COST  130.907  SU_T9U16  -1
    S_T9U17  COST  142.378  SU_T9U17  -1
    S_T9U18  COST  191.638  SU_T9U18  -1
    S_T9U19  COST  145.461  SU_T9U19  -1
    S_T9U20  COST  151.575  SU_T9U20  -1
    S_T10U1  COST  69.2751  SU_T10U1  -1
    S_T10U2  COST  173.096  SU_T10U2  -1
    S_T10U3  COST  173.064  SU_T10U3  -1
    S_T10U4  COST  81.0027  SU_T10U4  -1
    S_T10U5  COST  82.1884  SU_T10U5  -1
    S_T10U6  COST  55.8445  SU_T10U6  -1
    S_T10U7  COST  100.483  SU_T10U7  -1
    S_T10U8  COST  107.809  SU_T10U8  -1
    S_T10U9  COST  101.094  SU_T10U9  -1
    S_T10U10  COST  124.406  SU_T10U10  -1
    S_T10U11  COST  102.25  SU_T10U11  -1
    S_T10U12  COST  55.8779  SU_T10U12  -1
    S_T10U13  COST  195.137  SU_T10U13  -1
    S_T10U14  COST  113.521  SU_T10U14  -1
    S_T10U15  COST  136.389  SU_T10U15  -1
    S_T10U16  COST  69.1535  SU_T10U16  -1
    S_T10U17  COST  137.082  SU_T10U17  -1
    S_T10U18  COST  134.28  SU_T10U18  -1
    S_T10U19  COST  151.977  SU_T10U19  -1
    S_T10U20  COST  85.7354  SU_T10U20  -1
    S_T11U1  COST  130.149  SU_T11U1  -1
    S_T11U2  COST  108.443  SU_T11U2  -1
    S_T11U3  COST  64.9977  SU_T11U3  -1
    S_T11U4  COST  193.781  SU_T11U4  -1
    S_T11U5  COST  103.236  SU_T11U5  -1
    S_T11U6  COST  151.515  SU_T11U6  -1
    S_T11U7  COST  123.954  SU_T11U7  -1
    S_T11U8  COST  63.7556  SU_T11U8  -1
    S_T11U9  COST  133.055  SU_T11U9  -1
    S_T11U10  COST  191.929  SU_T11U10  -1
    S_T11U11  COST  67.0197  SU_T11U11  -1
    S_T11U12  COST  196.137  SU_T11U12  -1
    S_T11U13  COST  58.3807  SU_T11U13  -1
    S_T11U14  COST  131.887  SU_T11U14  -1
    S_T11U15  COST  195.298  SU_T11U15  -1
    S_T11U16  COST  175.545  SU_T11U16  -1
    S_T11U17  COST  175.772  SU_T11U17  -1
    S_T11U18  COST  83.3865  SU_T11U18  -1
    S_T11U19  COST  183.785  SU_T11U19  -1
    S_T11U20  COST  126.999  SU_T11U20  -1
    S_T12U1  COST  137.196  SU_T12U1  -1
    S_T12U2  COST  182.054  SU_T12U2  -1
    S_T12U3  COST  186.154  SU_T12U3  -1
    S_T12U4  COST  102.533  SU_T12U4  -1
    S_T12U5  COST  122.25  SU_T12U5  -1
    S_T12U6  COST  155.763  SU_T12U6  -1
    S_T12U7  COST  99.5379  SU_T12U7  -1
    S_T12U8  COST  88.0523  SU_T12U8  -1
    S_T12U9  COST  135.721  SU_T12U9  -1
    S_T12U10  COST  165.079  SU_T12U10  -1
    S_T12U11  COST  161.632  SU_T12U11  -1
    S_T12U12  COST  85.626  SU_T12U12  -1
    S_T12U13  COST  121.657  SU_T12U13  -1
    S_T12U14  COST  129.256  SU_T12U14  -1
    S_T12U15  COST  170.316  SU_T12U15  -1
    S_T12U16  COST  133.401  SU_T12U16  -1
    S_T12U17  COST  56.5101  SU_T12U17  -1
    S_T12U18  COST  187.867  SU_T12U18  -1
    S_T12U19  COST  154.312  SU_T12U19  -1
    S_T12U20  COST  74.9323  SU_T12U20  -1
    S_T13U1  COST  94.1741  SU_T13U1  -1
    S_T13U2  COST  154.539  SU_T13U2  -1
    S_T13U3  COST  160.565  SU_T13U3  -1
    S_T13U4  COST  193.805  SU_T13U4  -1
    S_T13U5  COST  109.178  SU_T13U5  -1
    S_T13U6  COST  100.349  SU_T13U6  -1
    S_T13U7  COST  147.027  SU_T13U7  -1
    S_T13U8  COST  84.4092  SU_T13U8  -1
    S_T13U9  COST  104.052  SU_T13U9  -1
    S_T13U10  COST  117.986  SU_T13U10  -1
    S_T13U11  COST  91.9645  SU_T13U11  -1
    S_T13U12  COST  140.417  SU_T13U12  -1
    S_T13U13  COST  69.9778  SU_T13U13  -1
    S_T13U14  COST  191.08  SU_T13U14  -1
    S_T13U15  COST  137.174  SU_T13U15  -1
    S_T13U16  COST  62.4123  SU_T13U16  -1
    S_T13U17  COST  132.738  SU_T13U17  -1
    S_T13U18  COST  111.688  SU_T13U18  -1
    S_T13U19  COST  122.056  SU_T13U19  -1
    S_T13U20  COST  106.511  SU_T13U20  -1
    S_T14U1  COST  108.948  SU_T14U1  -1
    S_T14U2  COST  135.362  SU_T14U2  -1
    S_T14U3  COST  55.5233  SU_T14U3  -1
    S_T14U4  COST  52.0508  SU_T14U4  -1
    S_T14U5  COST  153.757  SU_T14U5  -1
    S_T14U6  COST  162.487  SU_T14U6  -1
    S_T14U7  COST  137.772  SU_T14U7  -1
    S_T14U8  COST  163.562  SU_T14U8  -1
    S_T14U9  COST  86.1627  SU_T14U9  -1
    S_T14U10  COST  87.7164  SU_T14U10  -1
    S_T14U11  COST  81.0841  SU_T14U11  -1
    S_T14U12  COST  163.55  SU_T14U12  -1
    S_T14U13  COST  90.3009  SU_T14U13  -1
    S_T14U14  COST  124.725  SU_T14U14  -1
    S_T14U15  COST  174.706  SU_T14U15  -1
    S_T14U16  COST  172.458  SU_T14U16  -1
    S_T14U17  COST  63.2612  SU_T14U17  -1
    S_T14U18  COST  138.493  SU_T14U18  -1
    S_T14U19  COST  113.08  SU_T14U19  -1
    S_T14U20  COST  145.904  SU_T14U20  -1
    S_T15U1  COST  185.473  SU_T15U1  -1
    S_T15U2  COST  197.069  SU_T15U2  -1
    S_T15U3  COST  145.497  SU_T15U3  -1
    S_T15U4  COST  63.6503  SU_T15U4  -1
    S_T15U5  COST  132.117  SU_T15U5  -1
    S_T15U6  COST  186.571  SU_T15U6  -1
    S_T15U7  COST  128.54  SU_T15U7  -1
    S_T15U8  COST  169.471  SU_T15U8  -1
    S_T15U9  COST  176.314  SU_T15U9  -1
    S_T15U10  COST  59.9354  SU_T15U10  -1
    S_T15U11  COST  143.121  SU_T15U11  -1
    S_T15U12  COST  81.3696  SU_T15U12  -1
    S_T15U13  COST  101.234  SU_T15U13  -1
    S_T15U14  COST  119.018  SU_T15U14  -1
    S_T15U15  COST  110.045  SU_T15U15  -1
    S_T15U16  COST  77.0101  SU_T15U16  -1
    S_T15U17  COST  111.749  SU_T15U17  -1
    S_T15U18  COST  127.285  SU_T15U18  -1
    S_T15U19  COST  140.29  SU_T15U19  -1
    S_T15U20  COST  173.269  SU_T15U20  -1
    S_T16U1  COST  102.143  SU_T16U1  -1
    S_T16U2  COST  132.307  SU_T16U2  -1
    S_T16U3  COST  103.399  SU_T16U3  -1
    S_T16U4  COST  69.3123  SU_T16U4  -1
    S_T16U5  COST  98.2374  SU_T16U5  -1
    S_T16U6  COST  122.172  SU_T16U6  -1
    S_T16U7  COST  126.749  SU_T16U7  -1
    S_T16U8  COST  106.593  SU_T16U8  -1
    S_T16U9  COST  180.245  SU_T16U9  -1
    S_T16U10  COST  139.592  SU_T16U10  -1
    S_T16U11  COST  130.489  SU_T16U11  -1
    S_T16U12  COST  85.4175  SU_T16U12  -1
    S_T16U13  COST  129.69  SU_T16U13  -1
    S_T16U14  COST  59.3512  SU_T16U14  -1
    S_T16U15  COST  69.9675  SU_T16U15  -1
    S_T16U16  COST  176.666  SU_T16U16  -1
    S_T16U17  COST  54.5708  SU_T16U17  -1
    S_T16U18  COST  103.122  SU_T16U18  -1
    S_T16U19  COST  65.7304  SU_T16U19  -1
    S_T16U20  COST  77.3426  SU_T16U20  -1
    S_T17U1  COST  176.106  SU_T17U1  -1
    S_T17U2  COST  130.3  SU_T17U2  -1
    S_T17U3  COST  101.439  SU_T17U3  -1
    S_T17U4  COST  103.266  SU_T17U4  -1
    S_T17U5  COST  121.937  SU_T17U5  -1
    S_T17U6  COST  160.523  SU_T17U6  -1
    S_T17U7  COST  137.98  SU_T17U7  -1
    S_T17U8  COST  106.816  SU_T17U8  -1
    S_T17U9  COST  184.947  SU_T17U9  -1
    S_T17U10  COST  86.653  SU_T17U10  -1
    S_T17U11  COST  99.5523  SU_T17U11  -1
    S_T17U12  COST  51.1302  SU_T17U12  -1
    S_T17U13  COST  104.804  SU_T17U13  -1
    S_T17U14  COST  177.623  SU_T17U14  -1
    S_T17U15  COST  170.88  SU_T17U15  -1
    S_T17U16  COST  176.347  SU_T17U16  -1
    S_T17U17  COST  52.7364  SU_T17U17  -1
    S_T17U18  COST  199.588  SU_T17U18  -1
    S_T17U19  COST  136.4  SU_T17U19  -1
    S_T17U20  COST  50.795  SU_T17U20  -1
    S_T18U1  COST  123.612  SU_T18U1  -1
    S_T18U2  COST  173.129  SU_T18U2  -1
    S_T18U3  COST  130.256  SU_T18U3  -1
    S_T18U4  COST  175.787  SU_T18U4  -1
    S_T18U5  COST  195.199  SU_T18U5  -1
    S_T18U6  COST  79.926  SU_T18U6  -1
    S_T18U7  COST  129.476  SU_T18U7  -1
    S_T18U8  COST  165.167  SU_T18U8  -1
    S_T18U9  COST  125.916  SU_T18U9  -1
    S_T18U10  COST  98.0963  SU_T18U10  -1
    S_T18U11  COST  105.385  SU_T18U11  -1
    S_T18U12  COST  132.29  SU_T18U12  -1
    S_T18U13  COST  80.2596  SU_T18U13  -1
    S_T18U14  COST  63.1802  SU_T18U14  -1
    S_T18U15  COST  50.4066  SU_T18U15  -1
    S_T18U16  COST  120.975  SU_T18U16  -1
    S_T18U17  COST  169.143  SU_T18U17  -1
    S_T18U18  COST  177.609  SU_T18U18  -1
    S_T18U19  COST  111.278  SU_T18U19  -1
    S_T18U20  COST  198.639  SU_T18U20  -1
    S_T19U1  COST  106.884  SU_T19U1  -1
    S_T19U2  COST  158.239  SU_T19U2  -1
    S_T19U3  COST  167.227  SU_T19U3  -1
    S_T19U4  COST  162.575  SU_T19U4  -1
    S_T19U5  COST  173.77  SU_T19U5  -1
    S_T19U6  COST  85.3538  SU_T19U6  -1
    S_T19U7  COST  186.18  SU_T19U7  -1
    S_T19U8  COST  138.246  SU_T19U8  -1
    S_T19U9  COST  117.792  SU_T19U9  -1
    S_T19U10  COST  184.95  SU_T19U10  -1
    S_T19U11  COST  130.967  SU_T19U11  -1
    S_T19U12  COST  136.623  SU_T19U12  -1
    S_T19U13  COST  108.722  SU_T19U13  -1
    S_T19U14  COST  59.9929  SU_T19U14  -1
    S_T19U15  COST  131.427  SU_T19U15  -1
    S_T19U16  COST  99.9224  SU_T19U16  -1
    S_T19U17  COST  154.058  SU_T19U17  -1
    S_T19U18  COST  181.794  SU_T19U18  -1
    S_T19U19  COST  161.219  SU_T19U19  -1
    S_T19U20  COST  199.654  SU_T19U20  -1
    S_T20U1  COST  156.047  SU_T20U1  -1
    S_T20U2  COST  71.4692  SU_T20U2  -1
    S_T20U3  COST  157.11  SU_T20U3  -1
    S_T20U4  COST  163.195  SU_T20U4  -1
    S_T20U5  COST  130.472  SU_T20U5  -1
    S_T20U6  COST  118.55  SU_T20U6  -1
    S_T20U7  COST  125.343  SU_T20U7  -1
    S_T20U8  COST  122.954  SU_T20U8  -1
    S_T20U9  COST  165.782  SU_T20U9  -1
    S_T20U10  COST  139.766  SU_T20U10  -1
    S_T20U11  COST  157.427  SU_T20U11  -1
    S_T20U12  COST  174.02  SU_T20U12  -1
    S_T20U13  COST  101.379  SU_T20U13  -1
    S_T20U14  COST  113.54  SU_T20U14  -1
    S_T20U15  COST  142.243  SU_T20U15  -1
    S_T20U16  COST  70.8674  SU_T20U16  -1
    S_T20U17  COST  88.4023  SU_T20U17  -1
    S_T20U18  COST  138.944  SU_T20U18  -1
    S_T20U19  COST  187.813  SU_T20U19  -1
    S_T20U20  COST  53.4534  SU_T20U20  -1
    S_T21U1  COST  165.687  SU_T21U1  -1
    S_T21U2  COST  60.3382  SU_T21U2  -1
    S_T21U3  COST  65.637  SU_T21U3  -1
    S_T21U4  COST  186.603  SU_T21U4  -1
    S_T21U5  COST  85.3859  SU_T21U5  -1
    S_T21U6  COST  77.9481  SU_T21U6  -1
    S_T21U7  COST  99.822  SU_T21U7  -1
    S_T21U8  COST  84.1093  SU_T21U8  -1
    S_T21U9  COST  106.896  SU_T21U9  -1
    S_T21U10  COST  80.837  SU_T21U10  -1
    S_T21U11  COST  140.558  SU_T21U11  -1
    S_T21U12  COST  112.176  SU_T21U12  -1
    S_T21U13  COST  188.444  SU_T21U13  -1
    S_T21U14  COST  122.126  SU_T21U14  -1
    S_T21U15  COST  138.06  SU_T21U15  -1
    S_T21U16  COST  186.912  SU_T21U16  -1
    S_T21U17  COST  136.645  SU_T21U17  -1
    S_T21U18  COST  55.0819  SU_T21U18  -1
    S_T21U19  COST  167.074  SU_T21U19  -1
    S_T21U20  COST  83.0146  SU_T21U20  -1
    S_T22U1  COST  127.276  SU_T22U1  -1
    S_T22U2  COST  118.848  SU_T22U2  -1
    S_T22U3  COST  179.095  SU_T22U3  -1
    S_T22U4  COST  77.6694  SU_T22U4  -1
    S_T22U5  COST  96.4905  SU_T22U5  -1
    S_T22U6  COST  114.018  SU_T22U6  -1
    S_T22U7  COST  102.408  SU_T22U7  -1
    S_T22U8  COST  143.746  SU_T22U8  -1
    S_T22U9  COST  175.485  SU_T22U9  -1
    S_T22U10  COST  94.1067  SU_T22U10  -1
    S_T22U11  COST  129.147  SU_T22U11  -1
    S_T22U12  COST  122.163  SU_T22U12  -1
    S_T22U13  COST  164.803  SU_T22U13  -1
    S_T22U14  COST  100.154  SU_T22U14  -1
    S_T22U15  COST  162.987  SU_T22U15  -1
    S_T22U16  COST  184.615  SU_T22U16  -1
    S_T22U17  COST  170.112  SU_T22U17  -1
    S_T22U18  COST  175.968  SU_T22U18  -1
    S_T22U19  COST  111.198  SU_T22U19  -1
    S_T22U20  COST  88.0833  SU_T22U20  -1
    S_T23U1  COST  125.826  SU_T23U1  -1
    S_T23U2  COST  100.891  SU_T23U2  -1
    S_T23U3  COST  183.119  SU_T23U3  -1
    S_T23U4  COST  158.122  SU_T23U4  -1
    S_T23U5  COST  198.309  SU_T23U5  -1
    S_T23U6  COST  171.028  SU_T23U6  -1
    S_T23U7  COST  191.661  SU_T23U7  -1
    S_T23U8  COST  110.959  SU_T23U8  -1
    S_T23U9  COST  63.0388  SU_T23U9  -1
    S_T23U10  COST  160.386  SU_T23U10  -1
    S_T23U11  COST  68.4165  SU_T23U11  -1
    S_T23U12  COST  146.439  SU_T23U12  -1
    S_T23U13  COST  186.594  SU_T23U13  -1
    S_T23U14  COST  100.38  SU_T23U14  -1
    S_T23U15  COST  104.459  SU_T23U15  -1
    S_T23U16  COST  174.598  SU_T23U16  -1
    S_T23U17  COST  166.075  SU_T23U17  -1
    S_T23U18  COST  179.16  SU_T23U18  -1
    S_T23U19  COST  196.182  SU_T23U19  -1
    S_T23U20  COST  67.1357  SU_T23U20  -1
    S_T24U1  COST  197.805  SU_T24U1  -1
    S_T24U2  COST  77.3161  SU_T24U2  -1
    S_T24U3  COST  126.869  SU_T24U3  -1
    S_T24U4  COST  154.827  SU_T24U4  -1
    S_T24U5  COST  82.7035  SU_T24U5  -1
    S_T24U6  COST  113.256  SU_T24U6  -1
    S_T24U7  COST  185.086  SU_T24U7  -1
    S_T24U8  COST  152.478  SU_T24U8  -1
    S_T24U9  COST  129.449  SU_T24U9  -1
    S_T24U10  COST  124.714  SU_T24U10  -1
    S_T24U11  COST  110.787  SU_T24U11  -1
    S_T24U12  COST  158.03  SU_T24U12  -1
    S_T24U13  COST  71.0028  SU_T24U13  -1
    S_T24U14  COST  89.9748  SU_T24U14  -1
    S_T24U15  COST  87.6096  SU_T24U15  -1
    S_T24U16  COST  124.141  SU_T24U16  -1
    S_T24U17  COST  175.716  SU_T24U17  -1
    S_T24U18  COST  165.637  SU_T24U18  -1
    S_T24U19  COST  103.081  SU_T24U19  -1
    S_T24U20  COST  77.6556  SU_T24U20  -1
    S_T25U1  COST  165.648  SU_T25U1  -1
    S_T25U2  COST  175.562  SU_T25U2  -1
    S_T25U3  COST  187.327  SU_T25U3  -1
    S_T25U4  COST  141.561  SU_T25U4  -1
    S_T25U5  COST  109.497  SU_T25U5  -1
    S_T25U6  COST  70.2502  SU_T25U6  -1
    S_T25U7  COST  90.4867  SU_T25U7  -1
    S_T25U8  COST  74.3021  SU_T25U8  -1
    S_T25U9  COST  176.961  SU_T25U9  -1
    S_T25U10  COST  73.2008  SU_T25U10  -1
    S_T25U11  COST  121.136  SU_T25U11  -1
    S_T25U12  COST  102.731  SU_T25U12  -1
    S_T25U13  COST  155.739  SU_T25U13  -1
    S_T25U14  COST  118.952  SU_T25U14  -1
    S_T25U15  COST  61.6648  SU_T25U15  -1
    S_T25U16  COST  195.155  SU_T25U16  -1
    S_T25U17  COST  65.4641  SU_T25U17  -1
    S_T25U18  COST  171.115  SU_T25U18  -1
    S_T25U19  COST  168.502  SU_T25U19  -1
    S_T25U20  COST  128.195  SU_T25U20  -1
    S_T26U1  COST  193.726  SU_T26U1  -1
    S_T26U2  COST  145.842  SU_T26U2  -1
    S_T26U3  COST  158.615  SU_T26U3  -1
    S_T26U4  COST  197.087  SU_T26U4  -1
    S_T26U5  COST  147  SU_T26U5  -1
    S_T26U6  COST  57.7394  SU_T26U6  -1
    S_T26U7  COST  56.6248  SU_T26U7  -1
    S_T26U8  COST  199.903  SU_T26U8  -1
    S_T26U9  COST  120.982  SU_T26U9  -1
    S_T26U10  COST  68.0784  SU_T26U10  -1
    S_T26U11  COST  78.8899  SU_T26U11  -1
    S_T26U12  COST  113.264  SU_T26U12  -1
    S_T26U13  COST  161.76  SU_T26U13  -1
    S_T26U14  COST  118.272  SU_T26U14  -1
    S_T26U15  COST  146.682  SU_T26U15  -1
    S_T26U16  COST  104.705  SU_T26U16  -1
    S_T26U17  COST  122.159  SU_T26U17  -1
    S_T26U18  COST  129.54  SU_T26U18  -1
    S_T26U19  COST  110.673  SU_T26U19  -1
    S_T26U20  COST  170.597  SU_T26U20  -1
    S_T27U1  COST  149.248  SU_T27U1  -1
    S_T27U2  COST  128.025  SU_T27U2  -1
    S_T27U3  COST  181.5  SU_T27U3  -1
    S_T27U4  COST  119.291  SU_T27U4  -1
    S_T27U5  COST  50.0356  SU_T27U5  -1
    S_T27U6  COST  107.595  SU_T27U6  -1
    S_T27U7  COST  60.5045  SU_T27U7  -1
    S_T27U8  COST  57.9026  SU_T27U8  -1
    S_T27U9  COST  55.6395  SU_T27U9  -1
    S_T27U10  COST  137.114  SU_T27U10  -1
    S_T27U11  COST  109.743  SU_T27U11  -1
    S_T27U12  COST  100.456  SU_T27U12  -1
    S_T27U13  COST  159.841  SU_T27U13  -1
    S_T27U14  COST  120.097  SU_T27U14  -1
    S_T27U15  COST  177.923  SU_T27U15  -1
    S_T27U16  COST  138.366  SU_T27U16  -1
    S_T27U17  COST  186.551  SU_T27U17  -1
    S_T27U18  COST  66.4201  SU_T27U18  -1
    S_T27U19  COST  68.6656  SU_T27U19  -1
    S_T27U20  COST  169.698  SU_T27U20  -1
    S_T28U1  COST  138.283  SU_T28U1  -1
    S_T28U2  COST  182.63  SU_T28U2  -1
    S_T28U3  COST  185.559  SU_T28U3  -1
    S_T28U4  COST  161.503  SU_T28U4  -1
    S_T28U5  COST  110.237  SU_T28U5  -1
    S_T28U6  COST  84.5854  SU_T28U6  -1
    S_T28U7  COST  68.0508  SU_T28U7  -1
    S_T28U8  COST  107.614  SU_T28U8  -1
    S_T28U9  COST  193.591  SU_T28U9  -1
    S_T28U10  COST  170.115  SU_T28U10  -1
    S_T28U11  COST  82.4486  SU_T28U11  -1
    S_T28U12  COST  139.591  SU_T28U12  -1
    S_T28U13  COST  89.035  SU_T28U13  -1
    S_T28U14  COST  123.678  SU_T28U14  -1
    S_T28U15  COST  184.615  SU_T28U15  -1
    S_T28U16  COST  143.441  SU_T28U16  -1
    S_T28U17  COST  55.2298  SU_T28U17  -1
    S_T28U18  COST  179.019  SU_T28U18  -1
    S_T28U19  COST  108.675  SU_T28U19  -1
    S_T28U20  COST  121.502  SU_T28U20  -1
    S_T29U1  COST  177.829  SU_T29U1  -1
    S_T29U2  COST  99.3577  SU_T29U2  -1
    S_T29U3  COST  160.282  SU_T29U3  -1
    S_T29U4  COST  87.8974  SU_T29U4  -1
    S_T29U5  COST  154.357  SU_T29U5  -1
    S_T29U6  COST  129.89  SU_T29U6  -1
    S_T29U7  COST  66.4203  SU_T29U7  -1
    S_T29U8  COST  198.721  SU_T29U8  -1
    S_T29U9  COST  182.436  SU_T29U9  -1
    S_T29U10  COST  185.977  SU_T29U10  -1
    S_T29U11  COST  149.317  SU_T29U11  -1
    S_T29U12  COST  179.674  SU_T29U12  -1
    S_T29U13  COST  128.189  SU_T29U13  -1
    S_T29U14  COST  86.7928  SU_T29U14  -1
    S_T29U15  COST  74.06  SU_T29U15  -1
    S_T29U16  COST  85.8035  SU_T29U16  -1
    S_T29U17  COST  65.8751  SU_T29U17  -1
    S_T29U18  COST  78.3832  SU_T29U18  -1
    S_T29U19  COST  194.197  SU_T29U19  -1
    S_T29U20  COST  181.861  SU_T29U20  -1
    S_T30U1  COST  172.992  SU_T30U1  -1
    S_T30U2  COST  186.305  SU_T30U2  -1
    S_T30U3  COST  133.427  SU_T30U3  -1
    S_T30U4  COST  88.8032  SU_T30U4  -1
    S_T30U5  COST  62.6147  SU_T30U5  -1
    S_T30U6  COST  133.977  SU_T30U6  -1
    S_T30U7  COST  106.504  SU_T30U7  -1
    S_T30U8  COST  172.802  SU_T30U8  -1
    S_T30U9  COST  92.5014  SU_T30U9  -1
    S_T30U10  COST  114.836  SU_T30U10  -1
    S_T30U11  COST  108.823  SU_T30U11  -1
    S_T30U12  COST  163.055  SU_T30U12  -1
    S_T30U13  COST  76.063  SU_T30U13  -1
    S_T30U14  COST  192.095  SU_T30U14  -1
    S_T30U15  COST  165.648  SU_T30U15  -1
    S_T30U16  COST  121.036  SU_T30U16  -1
    S_T30U17  COST  61.2042  SU_T30U17  -1
    S_T30U18  COST  198.522  SU_T30U18  -1
    S_T30U19  COST  116.894  SU_T30U19  -1
    S_T30U20  COST  139.159  SU_T30U20  -1
    S_T31U1  COST  59.8439  SU_T31U1  -1
    S_T31U2  COST  105.775  SU_T31U2  -1
    S_T31U3  COST  87.8763  SU_T31U3  -1
    S_T31U4  COST  73.8407  SU_T31U4  -1
    S_T31U5  COST  191.646  SU_T31U5  -1
    S_T31U6  COST  178.131  SU_T31U6  -1
    S_T31U7  COST  173.888  SU_T31U7  -1
    S_T31U8  COST  175.992  SU_T31U8  -1
    S_T31U9  COST  84.5081  SU_T31U9  -1
    S_T31U10  COST  180.208  SU_T31U10  -1
    S_T31U11  COST  54.6953  SU_T31U11  -1
    S_T31U12  COST  186.429  SU_T31U12  -1
    S_T31U13  COST  194.678  SU_T31U13  -1
    S_T31U14  COST  116.345  SU_T31U14  -1
    S_T31U15  COST  98.1114  SU_T31U15  -1
    S_T31U16  COST  161.876  SU_T31U16  -1
    S_T31U17  COST  180.218  SU_T31U17  -1
    S_T31U18  COST  134.413  SU_T31U18  -1
    S_T31U19  COST  131.485  SU_T31U19  -1
    S_T31U20  COST  80.5552  SU_T31U20  -1
    S_T32U1  COST  73.0487  SU_T32U1  -1
    S_T32U2  COST  129.553  SU_T32U2  -1
    S_T32U3  COST  169.52  SU_T32U3  -1
    S_T32U4  COST  186.775  SU_T32U4  -1
    S_T32U5  COST  77.8188  SU_T32U5  -1
    S_T32U6  COST  50.1848  SU_T32U6  -1
    S_T32U7  COST  141.096  SU_T32U7  -1
    S_T32U8  COST  133.762  SU_T32U8  -1
    S_T32U9  COST  74.1238  SU_T32U9  -1
    S_T32U10  COST  98.8888  SU_T32U10  -1
    S_T32U11  COST  114.987  SU_T32U11  -1
    S_T32U12  COST  72.4371  SU_T32U12  -1
    S_T32U13  COST  152.068  SU_T32U13  -1
    S_T32U14  COST  196.205  SU_T32U14  -1
    S_T32U15  COST  148.548  SU_T32U15  -1
    S_T32U16  COST  192.897  SU_T32U16  -1
    S_T32U17  COST  158.643  SU_T32U17  -1
    S_T32U18  COST  71.8883  SU_T32U18  -1
    S_T32U19  COST  135.636  SU_T32U19  -1
    S_T32U20  COST  122.353  SU_T32U20  -1
    S_T33U1  COST  101.902  SU_T33U1  -1
    S_T33U2  COST  191.186  SU_T33U2  -1
    S_T33U3  COST  130.136  SU_T33U3  -1
    S_T33U4  COST  62.3763  SU_T33U4  -1
    S_T33U5  COST  103.67  SU_T33U5  -1
    S_T33U6  COST  196.62  SU_T33U6  -1
    S_T33U7  COST  153.979  SU_T33U7  -1
    S_T33U8  COST  56.1775  SU_T33U8  -1
    S_T33U9  COST  192.732  SU_T33U9  -1
    S_T33U10  COST  184.433  SU_T33U10  -1
    S_T33U11  COST  142.491  SU_T33U11  -1
    S_T33U12  COST  94.8254  SU_T33U12  -1
    S_T33U13  COST  192.103  SU_T33U13  -1
    S_T33U14  COST  167.513  SU_T33U14  -1
    S_T33U15  COST  122.66  SU_T33U15  -1
    S_T33U16  COST  132.95  SU_T33U16  -1
    S_T33U17  COST  167.575  SU_T33U17  -1
    S_T33U18  COST  56.1131  SU_T33U18  -1
    S_T33U19  COST  115.791  SU_T33U19  -1
    S_T33U20  COST  138.992  SU_T33U20  -1
    S_T34U1  COST  121.892  SU_T34U1  -1
    S_T34U2  COST  99.3526  SU_T34U2  -1
    S_T34U3  COST  161.642  SU_T34U3  -1
    S_T34U4  COST  115.048  SU_T34U4  -1
    S_T34U5  COST  74.2509  SU_T34U5  -1
    S_T34U6  COST  147.989  SU_T34U6  -1
    S_T34U7  COST  131.372  SU_T34U7  -1
    S_T34U8  COST  62.229  SU_T34U8  -1
    S_T34U9  COST  83.0842  SU_T34U9  -1
    S_T34U10  COST  80.5367  SU_T34U10  -1
    S_T34U11  COST  76.129  SU_T34U11  -1
    S_T34U12  COST  112.386  SU_T34U12  -1
    S_T34U13  COST  144.315  SU_T34U13  -1
    S_T34U14  COST  165.159  SU_T34U14  -1
    S_T34U15  COST  131.495  SU_T34U15  -1
    S_T34U16  COST  138.209  SU_T34U16  -1
    S_T34U17  COST  109.327  SU_T34U17  -1
    S_T34U18  COST  139.659  SU_T34U18  -1
    S_T34U19  COST  148.251  SU_T34U19  -1
    S_T34U20  COST  92.5782  SU_T34U20  -1
    S_T35U1  COST  107.577  SU_T35U1  -1
    S_T35U2  COST  175.4  SU_T35U2  -1
    S_T35U3  COST  166.4  SU_T35U3  -1
    S_T35U4  COST  140.278  SU_T35U4  -1
    S_T35U5  COST  105.927  SU_T35U5  -1
    S_T35U6  COST  111.955  SU_T35U6  -1
    S_T35U7  COST  115.575  SU_T35U7  -1
    S_T35U8  COST  110.753  SU_T35U8  -1
    S_T35U9  COST  136.912  SU_T35U9  -1
    S_T35U10  COST  64.2892  SU_T35U10  -1
    S_T35U11  COST  96.8222  SU_T35U11  -1
    S_T35U12  COST  178.698  SU_T35U12  -1
    S_T35U13  COST  138.262  SU_T35U13  -1
    S_T35U14  COST  109.499  SU_T35U14  -1
    S_T35U15  COST  85.2011  SU_T35U15  -1
    S_T35U16  COST  116.304  SU_T35U16  -1
    S_T35U17  COST  117.317  SU_T35U17  -1
    S_T35U18  COST  71.8635  SU_T35U18  -1
    S_T35U19  COST  138.183  SU_T35U19  -1
    S_T35U20  COST  87.8792  SU_T35U20  -1
    S_T36U1  COST  106.904  SU_T36U1  -1
    S_T36U2  COST  103.51  SU_T36U2  -1
    S_T36U3  COST  167.269  SU_T36U3  -1
    S_T36U4  COST  116.955  SU_T36U4  -1
    S_T36U5  COST  133.721  SU_T36U5  -1
    S_T36U6  COST  55.1282  SU_T36U6  -1
    S_T36U7  COST  68.4456  SU_T36U7  -1
    S_T36U8  COST  57.7545  SU_T36U8  -1
    S_T36U9  COST  83.7052  SU_T36U9  -1
    S_T36U10  COST  63.2833  SU_T36U10  -1
    S_T36U11  COST  137.701  SU_T36U11  -1
    S_T36U12  COST  109.607  SU_T36U12  -1
    S_T36U13  COST  152.895  SU_T36U13  -1
    S_T36U14  COST  98.4696  SU_T36U14  -1
    S_T36U15  COST  137.017  SU_T36U15  -1
    S_T36U16  COST  128.26  SU_T36U16  -1
    S_T36U17  COST  129.837  SU_T36U17  -1
    S_T36U18  COST  69.9072  SU_T36U18  -1
    S_T36U19  COST  190.973  SU_T36U19  -1
    S_T36U20  COST  74.3573  SU_T36U20  -1
    S_T37U1  COST  159.624  SU_T37U1  -1
    S_T37U2  COST  85.1842  SU_T37U2  -1
    S_T37U3  COST  88.296  SU_T37U3  -1
    S_T37U4  COST  196.795  SU_T37U4  -1
    S_T37U5  COST  52.6274  SU_T37U5  -1
    S_T37U6  COST  174.632  SU_T37U6  -1
    S_T37U7  COST  165.278  SU_T37U7  -1
    S_T37U8  COST  169.327  SU_T37U8  -1
    S_T37U9  COST  140.091  SU_T37U9  -1
    S_T37U10  COST  174.026  SU_T37U10  -1
    S_T37U11  COST  136.578  SU_T37U11  -1
    S_T37U12  COST  73.8931  SU_T37U12  -1
    S_T37U13  COST  97.7167  SU_T37U13  -1
    S_T37U14  COST  199.001  SU_T37U14  -1
    S_T37U15  COST  63.5723  SU_T37U15  -1
    S_T37U16  COST  66.3664  SU_T37U16  -1
    S_T37U17  COST  164.779  SU_T37U17  -1
    S_T37U18  COST  115.726  SU_T37U18  -1
    S_T37U19  COST  181.684  SU_T37U19  -1
    S_T37U20  COST  180.335  SU_T37U20  -1
    S_T38U1  COST  94.5304  SU_T38U1  -1
    S_T38U2  COST  99.2572  SU_T38U2  -1
    S_T38U3  COST  141.475  SU_T38U3  -1
    S_T38U4  COST  107.063  SU_T38U4  -1
    S_T38U5  COST  139.473  SU_T38U5  -1
    S_T38U6  COST  116.663  SU_T38U6  -1
    S_T38U7  COST  138.059  SU_T38U7  -1
    S_T38U8  COST  146.386  SU_T38U8  -1
    S_T38U9  COST  125.067  SU_T38U9  -1
    S_T38U10  COST  192.722  SU_T38U10  -1
    S_T38U11  COST  187.135  SU_T38U11  -1
    S_T38U12  COST  66.3378  SU_T38U12  -1
    S_T38U13  COST  128.994  SU_T38U13  -1
    S_T38U14  COST  121.504  SU_T38U14  -1
    S_T38U15  COST  132.412  SU_T38U15  -1
    S_T38U16  COST  157.324  SU_T38U16  -1
    S_T38U17  COST  173.359  SU_T38U17  -1
    S_T38U18  COST  184.507  SU_T38U18  -1
    S_T38U19  COST  193.199  SU_T38U19  -1
    S_T38U20  COST  107.011  SU_T38U20  -1
    S_T39U1  COST  121.877  SU_T39U1  -1
    S_T39U2  COST  74.9497  SU_T39U2  -1
    S_T39U3  COST  128.463  SU_T39U3  -1
    S_T39U4  COST  189.441  SU_T39U4  -1
    S_T39U5  COST  137.14  SU_T39U5  -1
    S_T39U6  COST  157.645  SU_T39U6  -1
    S_T39U7  COST  196.509  SU_T39U7  -1
    S_T39U8  COST  128.372  SU_T39U8  -1
    S_T39U9  COST  178.912  SU_T39U9  -1
    S_T39U10  COST  77.6878  SU_T39U10  -1
    S_T39U11  COST  169.011  SU_T39U11  -1
    S_T39U12  COST  187.663  SU_T39U12  -1
    S_T39U13  COST  63.0558  SU_T39U13  -1
    S_T39U14  COST  106.026  SU_T39U14  -1
    S_T39U15  COST  66.8457  SU_T39U15  -1
    S_T39U16  COST  145.698  SU_T39U16  -1
    S_T39U17  COST  139.031  SU_T39U17  -1
    S_T39U18  COST  146.991  SU_T39U18  -1
    S_T39U19  COST  104.116  SU_T39U19  -1
    S_T39U20  COST  165.492  SU_T39U20  -1
    S_T40U1  COST  88.3467  SU_T40U1  -1
    S_T40U2  COST  159.794  SU_T40U2  -1
    S_T40U3  COST  150.714  SU_T40U3  -1
    S_T40U4  COST  164.998  SU_T40U4  -1
    S_T40U5  COST  113.592  SU_T40U5  -1
    S_T40U6  COST  85.2853  SU_T40U6  -1
    S_T40U7  COST  120.934  SU_T40U7  -1
    S_T40U8  COST  76.7669  SU_T40U8  -1
    S_T40U9  COST  84.5369  SU_T40U9  -1
    S_T40U10  COST  145.694  SU_T40U10  -1
    S_T40U11  COST  144.802  SU_T40U11  -1
    S_T40U12  COST  71.2662  SU_T40U12  -1
    S_T40U13  COST  139.557  SU_T40U13  -1
    S_T40U14  COST  116.408  SU_T40U14  -1
    S_T40U15  COST  158.678  SU_T40U15  -1
    S_T40U16  COST  101.164  SU_T40U16  -1
    S_T40U17  COST  140.483  SU_T40U17  -1
    S_T40U18  COST  185.829  SU_T40U18  -1
    S_T40U19  COST  89.7343  SU_T40U19  -1
    S_T40U20  COST  139.363  SU_T40U20  -1
    S_T41U1  COST  105.043  SU_T41U1  -1
    S_T41U2  COST  142.573  SU_T41U2  -1
    S_T41U3  COST  174.779  SU_T41U3  -1
    S_T41U4  COST  60.4897  SU_T41U4  -1
    S_T41U5  COST  90.6721  SU_T41U5  -1
    S_T41U6  COST  152.02  SU_T41U6  -1
    S_T41U7  COST  118.529  SU_T41U7  -1
    S_T41U8  COST  57.8508  SU_T41U8  -1
    S_T41U9  COST  104.442  SU_T41U9  -1
    S_T41U10  COST  116.953  SU_T41U10  -1
    S_T41U11  COST  137.071  SU_T41U11  -1
    S_T41U12  COST  194.25  SU_T41U12  -1
    S_T41U13  COST  163.226  SU_T41U13  -1
    S_T41U14  COST  111.422  SU_T41U14  -1
    S_T41U15  COST  173.271  SU_T41U15  -1
    S_T41U16  COST  95.128  SU_T41U16  -1
    S_T41U17  COST  121.233  SU_T41U17  -1
    S_T41U18  COST  67.9744  SU_T41U18  -1
    S_T41U19  COST  53.004  SU_T41U19  -1
    S_T41U20  COST  165.29  SU_T41U20  -1
    S_T42U1  COST  150.734  SU_T42U1  -1
    S_T42U2  COST  88.5571  SU_T42U2  -1
    S_T42U3  COST  179.703  SU_T42U3  -1
    S_T42U4  COST  126.026  SU_T42U4  -1
    S_T42U5  COST  59.4664  SU_T42U5  -1
    S_T42U6  COST  84.1036  SU_T42U6  -1
    S_T42U7  COST  107.136  SU_T42U7  -1
    S_T42U8  COST  85.8583  SU_T42U8  -1
    S_T42U9  COST  173.793  SU_T42U9  -1
    S_T42U10  COST  191.358  SU_T42U10  -1
    S_T42U11  COST  74.2646  SU_T42U11  -1
    S_T42U12  COST  136.188  SU_T42U12  -1
    S_T42U13  COST  108.656  SU_T42U13  -1
    S_T42U14  COST  109.577  SU_T42U14  -1
    S_T42U15  COST  144.193  SU_T42U15  -1
    S_T42U16  COST  129.872  SU_T42U16  -1
    S_T42U17  COST  71.1917  SU_T42U17  -1
    S_T42U18  COST  172.81  SU_T42U18  -1
    S_T42U19  COST  53.4341  SU_T42U19  -1
    S_T42U20  COST  83.5422  SU_T42U20  -1
    S_T43U1  COST  135.956  SU_T43U1  -1
    S_T43U2  COST  136.275  SU_T43U2  -1
    S_T43U3  COST  97.0592  SU_T43U3  -1
    S_T43U4  COST  70.8797  SU_T43U4  -1
    S_T43U5  COST  174.4  SU_T43U5  -1
    S_T43U6  COST  192.92  SU_T43U6  -1
    S_T43U7  COST  149.946  SU_T43U7  -1
    S_T43U8  COST  121.735  SU_T43U8  -1
    S_T43U9  COST  84.8827  SU_T43U9  -1
    S_T43U10  COST  166.509  SU_T43U10  -1
    S_T43U11  COST  139.144  SU_T43U11  -1
    S_T43U12  COST  181.416  SU_T43U12  -1
    S_T43U13  COST  177.717  SU_T43U13  -1
    S_T43U14  COST  52.6532  SU_T43U14  -1
    S_T43U15  COST  104.72  SU_T43U15  -1
    S_T43U16  COST  134.666  SU_T43U16  -1
    S_T43U17  COST  81.7633  SU_T43U17  -1
    S_T43U18  COST  163.138  SU_T43U18  -1
    S_T43U19  COST  94.6033  SU_T43U19  -1
    S_T43U20  COST  75.5997  SU_T43U20  -1
    S_T44U1  COST  167.404  SU_T44U1  -1
    S_T44U2  COST  76.665  SU_T44U2  -1
    S_T44U3  COST  142.708  SU_T44U3  -1
    S_T44U4  COST  84.3342  SU_T44U4  -1
    S_T44U5  COST  83.1204  SU_T44U5  -1
    S_T44U6  COST  148.359  SU_T44U6  -1
    S_T44U7  COST  158.648  SU_T44U7  -1
    S_T44U8  COST  110.72  SU_T44U8  -1
    S_T44U9  COST  103.135  SU_T44U9  -1
    S_T44U10  COST  122.245  SU_T44U10  -1
    S_T44U11  COST  108.062  SU_T44U11  -1
    S_T44U12  COST  87.287  SU_T44U12  -1
    S_T44U13  COST  112.787  SU_T44U13  -1
    S_T44U14  COST  137.322  SU_T44U14  -1
    S_T44U15  COST  78.4542  SU_T44U15  -1
    S_T44U16  COST  98.5251  SU_T44U16  -1
    S_T44U17  COST  144.395  SU_T44U17  -1
    S_T44U18  COST  59.6925  SU_T44U18  -1
    S_T44U19  COST  105.711  SU_T44U19  -1
    S_T44U20  COST  146.914  SU_T44U20  -1
    S_T45U1  COST  89.9029  SU_T45U1  -1
    S_T45U2  COST  69.08  SU_T45U2  -1
    S_T45U3  COST  86.5217  SU_T45U3  -1
    S_T45U4  COST  171.603  SU_T45U4  -1
    S_T45U5  COST  178.935  SU_T45U5  -1
    S_T45U6  COST  193.433  SU_T45U6  -1
    S_T45U7  COST  65.3224  SU_T45U7  -1
    S_T45U8  COST  191.425  SU_T45U8  -1
    S_T45U9  COST  61.4625  SU_T45U9  -1
    S_T45U10  COST  189.548  SU_T45U10  -1
    S_T45U11  COST  167.176  SU_T45U11  -1
    S_T45U12  COST  124.318  SU_T45U12  -1
    S_T45U13  COST  117.519  SU_T45U13  -1
    S_T45U14  COST  183.409  SU_T45U14  -1
    S_T45U15  COST  182.369  SU_T45U15  -1
    S_T45U16  COST  198.241  SU_T45U16  -1
    S_T45U17  COST  57.1746  SU_T45U17  -1
    S_T45U18  COST  161.931  SU_T45U18  -1
    S_T45U19  COST  170.32  SU_T45U19  -1
    S_T45U20  COST  55.3356  SU_T45U20  -1
    S_T46U1  COST  108.139  SU_T46U1  -1
    S_T46U2  COST  198.738  SU_T46U2  -1
    S_T46U3  COST  191.347  SU_T46U3  -1
    S_T46U4  COST  103.226  SU_T46U4  -1
    S_T46U5  COST  132.442  SU_T46U5  -1
    S_T46U6  COST  60.3069  SU_T46U6  -1
    S_T46U7  COST  62.3926  SU_T46U7  -1
    S_T46U8  COST  184.835  SU_T46U8  -1
    S_T46U9  COST  84.1764  SU_T46U9  -1
    S_T46U10  COST  150.103  SU_T46U10  -1
    S_T46U11  COST  88.312  SU_T46U11  -1
    S_T46U12  COST  60.3881  SU_T46U12  -1
    S_T46U13  COST  121.738  SU_T46U13  -1
    S_T46U14  COST  98.3323  SU_T46U14  -1
    S_T46U15  COST  121.15  SU_T46U15  -1
    S_T46U16  COST  122.902  SU_T46U16  -1
    S_T46U17  COST  128.115  SU_T46U17  -1
    S_T46U18  COST  73.4958  SU_T46U18  -1
    S_T46U19  COST  66.6212  SU_T46U19  -1
    S_T46U20  COST  64.2518  SU_T46U20  -1
    S_T47U1  COST  132.514  SU_T47U1  -1
    S_T47U2  COST  74.5526  SU_T47U2  -1
    S_T47U3  COST  189.248  SU_T47U3  -1
    S_T47U4  COST  124.407  SU_T47U4  -1
    S_T47U5  COST  198.862  SU_T47U5  -1
    S_T47U6  COST  97.5384  SU_T47U6  -1
    S_T47U7  COST  88.7647  SU_T47U7  -1
    S_T47U8  COST  145.411  SU_T47U8  -1
    S_T47U9  COST  196.76  SU_T47U9  -1
    S_T47U10  COST  133.672  SU_T47U10  -1
    S_T47U11  COST  58.0787  SU_T47U11  -1
    S_T47U12  COST  162.978  SU_T47U12  -1
    S_T47U13  COST  130.933  SU_T47U13  -1
    S_T47U14  COST  66.1916  SU_T47U14  -1
    S_T47U15  COST  63.7806  SU_T47U15  -1
    S_T47U16  COST  123.259  SU_T47U16  -1
    S_T47U17  COST  101.358  SU_T47U17  -1
    S_T47U18  COST  163.728  SU_T47U18  -1
    S_T47U19  COST  141.791  SU_T47U19  -1
    S_T47U20  COST  72.7354  SU_T47U20  -1
    S_T48U1  COST  136.576  SU_T48U1  -1
    S_T48U2  COST  115.07  SU_T48U2  -1
    S_T48U3  COST  133.706  SU_T48U3  -1
    S_T48U4  COST  161.257  SU_T48U4  -1
    S_T48U5  COST  91.6853  SU_T48U5  -1
    S_T48U6  COST  181.972  SU_T48U6  -1
    S_T48U7  COST  96.6393  SU_T48U7  -1
    S_T48U8  COST  172.268  SU_T48U8  -1
    S_T48U9  COST  153.183  SU_T48U9  -1
    S_T48U10  COST  130.804  SU_T48U10  -1
    S_T48U11  COST  177.207  SU_T48U11  -1
    S_T48U12  COST  174.902  SU_T48U12  -1
    S_T48U13  COST  162.432  SU_T48U13  -1
    S_T48U14  COST  151.757  SU_T48U14  -1
    S_T48U15  COST  176.296  SU_T48U15  -1
    S_T48U16  COST  125.308  SU_T48U16  -1
    S_T48U17  COST  107.806  SU_T48U17  -1
    S_T48U18  COST  167.06  SU_T48U18  -1
    S_T48U19  COST  70.6734  SU_T48U19  -1
    S_T48U20  COST  50.282  SU_T48U20  -1
    S_T49U1  COST  54.3607  SU_T49U1  -1
    S_T49U2  COST  77.1979  SU_T49U2  -1
    S_T49U3  COST  110.349  SU_T49U3  -1
    S_T49U4  COST  126.516  SU_T49U4  -1
    S_T49U5  COST  65.6206  SU_T49U5  -1
    S_T49U6  COST  155.442  SU_T49U6  -1
    S_T49U7  COST  122.99  SU_T49U7  -1
    S_T49U8  COST  140.322  SU_T49U8  -1
    S_T49U9  COST  98.3162  SU_T49U9  -1
    S_T49U10  COST  72.35  SU_T49U10  -1
    S_T49U11  COST  161.889  SU_T49U11  -1
    S_T49U12  COST  81.4763  SU_T49U12  -1
    S_T49U13  COST  128.044  SU_T49U13  -1
    S_T49U14  COST  68.3565  SU_T49U14  -1
    S_T49U15  COST  85.3786  SU_T49U15  -1
    S_T49U16  COST  59.3813  SU_T49U16  -1
    S_T49U17  COST  164.988  SU_T49U17  -1
    S_T49U18  COST  94.9165  SU_T49U18  -1
    S_T49U19  COST  145.633  SU_T49U19  -1
    S_T49U20  COST  76.7379  SU_T49U20  -1
    S_T50U1  COST  198.669  SU_T50U1  -1
    S_T50U2  COST  160.998  SU_T50U2  -1
    S_T50U3  COST  80.4405  SU_T50U3  -1
    S_T50U4  COST  196.947  SU_T50U4  -1
    S_T50U5  COST  155.038  SU_T50U5  -1
    S_T50U6  COST  137.972  SU_T50U6  -1
    S_T50U7  COST  189.443  SU_T50U7  -1
    S_T50U8  COST  58.4204  SU_T50U8  -1
    S_T50U9  COST  83.8312  SU_T50U9  -1
    S_T50U10  COST  119.26  SU_T50U10  -1
    S_T50U11  COST  115.277  SU_T50U11  -1
    S_T50U12  COST  155.903  SU_T50U12  -1
    S_T50U13  COST  57.4763  SU_T50U13  -1
    S_T50U14  COST  186.409  SU_T50U14  -1
    S_T50U15  COST  51.0544  SU_T50U15  -1
    S_T50U16  COST  83.7836  SU_T50U16  -1
    S_T50U17  COST  109.825  SU_T50U17  -1
    S_T50U18  COST  120.809  SU_T50U18  -1
    S_T50U19  COST  92.4119  SU_T50U19  -1
    S_T50U20  COST  55.4431  SU_T50U20  -1
    S_T51U1  COST  91.3419  SU_T51U1  -1
    S_T51U2  COST  196.225  SU_T51U2  -1
    S_T51U3  COST  114.333  SU_T51U3  -1
    S_T51U4  COST  90.2209  SU_T51U4  -1
    S_T51U5  COST  177.963  SU_T51U5  -1
    S_T51U6  COST  142.955  SU_T51U6  -1
    S_T51U7  COST  101.888  SU_T51U7  -1
    S_T51U8  COST  165.779  SU_T51U8  -1
    S_T51U9  COST  85.5176  SU_T51U9  -1
    S_T51U10  COST  132.248  SU_T51U10  -1
    S_T51U11  COST  182.32  SU_T51U11  -1
    S_T51U12  COST  174.18  SU_T51U12  -1
    S_T51U13  COST  143.664  SU_T51U13  -1
    S_T51U14  COST  196.933  SU_T51U14  -1
    S_T51U15  COST  158.773  SU_T51U15  -1
    S_T51U16  COST  100.739  SU_T51U16  -1
    S_T51U17  COST  192.055  SU_T51U17  -1
    S_T51U18  COST  77.4523  SU_T51U18  -1
    S_T51U19  COST  158.001  SU_T51U19  -1
    S_T51U20  COST  63.326  SU_T51U20  -1
    S_T52U1  COST  131.766  SU_T52U1  -1
    S_T52U2  COST  84.1114  SU_T52U2  -1
    S_T52U3  COST  131.382  SU_T52U3  -1
    S_T52U4  COST  132.326  SU_T52U4  -1
    S_T52U5  COST  83.9221  SU_T52U5  -1
    S_T52U6  COST  114.295  SU_T52U6  -1
    S_T52U7  COST  149.628  SU_T52U7  -1
    S_T52U8  COST  64.6344  SU_T52U8  -1
    S_T52U9  COST  119.024  SU_T52U9  -1
    S_T52U10  COST  93.5881  SU_T52U10  -1
    S_T52U11  COST  66.7904  SU_T52U11  -1
    S_T52U12  COST  196.709  SU_T52U12  -1
    S_T52U13  COST  124.588  SU_T52U13  -1
    S_T52U14  COST  180.82  SU_T52U14  -1
    S_T52U15  COST  163.764  SU_T52U15  -1
    S_T52U16  COST  52.6919  SU_T52U16  -1
    S_T52U17  COST  148.944  SU_T52U17  -1
    S_T52U18  COST  88.324  SU_T52U18  -1
    S_T52U19  COST  134.027  SU_T52U19  -1
    S_T52U20  COST  133.697  SU_T52U20  -1
    S_T53U1  COST  64.1228  SU_T53U1  -1
    S_T53U2  COST  92.3646  SU_T53U2  -1
    S_T53U3  COST  169.752  SU_T53U3  -1
    S_T53U4  COST  117.755  SU_T53U4  -1
    S_T53U5  COST  64.0112  SU_T53U5  -1
    S_T53U6  COST  79.3414  SU_T53U6  -1
    S_T53U7  COST  64.1054  SU_T53U7  -1
    S_T53U8  COST  163.622  SU_T53U8  -1
    S_T53U9  COST  96.8524  SU_T53U9  -1
    S_T53U10  COST  79.3761  SU_T53U10  -1
    S_T53U11  COST  128.029  SU_T53U11  -1
    S_T53U12  COST  133.673  SU_T53U12  -1
    S_T53U13  COST  142.021  SU_T53U13  -1
    S_T53U14  COST  184.578  SU_T53U14  -1
    S_T53U15  COST  126.058  SU_T53U15  -1
    S_T53U16  COST  55.0075  SU_T53U16  -1
    S_T53U17  COST  159.895  SU_T53U17  -1
    S_T53U18  COST  96.9743  SU_T53U18  -1
    S_T53U19  COST  195.163  SU_T53U19  -1
    S_T53U20  COST  67.6466  SU_T53U20  -1
    S_T54U1  COST  97.95  SU_T54U1  -1
    S_T54U2  COST  122.804  SU_T54U2  -1
    S_T54U3  COST  158.778  SU_T54U3  -1
    S_T54U4  COST  199.562  SU_T54U4  -1
    S_T54U5  COST  148.42  SU_T54U5  -1
    S_T54U6  COST  153.029  SU_T54U6  -1
    S_T54U7  COST  54.4046  SU_T54U7  -1
    S_T54U8  COST  81.4629  SU_T54U8  -1
    S_T54U9  COST  196.019  SU_T54U9  -1
    S_T54U10  COST  94.4735  SU_T54U10  -1
    S_T54U11  COST  66.6123  SU_T54U11  -1
    S_T54U12  COST  198.21  SU_T54U12  -1
    S_T54U13  COST  147.75  SU_T54U13  -1
    S_T54U14  COST  88.1483  SU_T54U14  -1
    S_T54U15  COST  181.973  SU_T54U15  -1
    S_T54U16  COST  86.651  SU_T54U16  -1
    S_T54U17  COST  63.0769  SU_T54U17  -1
    S_T54U18  COST  113.018  SU_T54U18  -1
    S_T54U19  COST  160.951  SU_T54U19  -1
    S_T54U20  COST  142.067  SU_T54U20  -1
    S_T55U1  COST  136.587  SU_T55U1  -1
    S_T55U2  COST  170.929  SU_T55U2  -1
    S_T55U3  COST  88.0962  SU_T55U3  -1
    S_T55U4  COST  160.894  SU_T55U4  -1
    S_T55U5  COST  97.2379  SU_T55U5  -1
    S_T55U6  COST  152.25  SU_T55U6  -1
    S_T55U7  COST  148.292  SU_T55U7  -1
    S_T55U8  COST  60.9006  SU_T55U8  -1
    S_T55U9  COST  101.057  SU_T55U9  -1
    S_T55U10  COST  82.3295  SU_T55U10  -1
    S_T55U11  COST  60.2758  SU_T55U11  -1
    S_T55U12  COST  111.246  SU_T55U12  -1
    S_T55U13  COST  185.541  SU_T55U13  -1
    S_T55U14  COST  171.109  SU_T55U14  -1
    S_T55U15  COST  184.827  SU_T55U15  -1
    S_T55U16  COST  181.134  SU_T55U16  -1
    S_T55U17  COST  75.3622  SU_T55U17  -1
    S_T55U18  COST  106.925  SU_T55U18  -1
    S_T55U19  COST  107.242  SU_T55U19  -1
    S_T55U20  COST  111.914  SU_T55U20  -1
    S_T56U1  COST  121.861  SU_T56U1  -1
    S_T56U2  COST  113.217  SU_T56U2  -1
    S_T56U3  COST  194.937  SU_T56U3  -1
    S_T56U4  COST  156.153  SU_T56U4  -1
    S_T56U5  COST  173.906  SU_T56U5  -1
    S_T56U6  COST  175.919  SU_T56U6  -1
    S_T56U7  COST  143.202  SU_T56U7  -1
    S_T56U8  COST  144.236  SU_T56U8  -1
    S_T56U9  COST  145.263  SU_T56U9  -1
    S_T56U10  COST  82.7665  SU_T56U10  -1
    S_T56U11  COST  60.2511  SU_T56U11  -1
    S_T56U12  COST  56.9185  SU_T56U12  -1
    S_T56U13  COST  92.5743  SU_T56U13  -1
    S_T56U14  COST  61.1361  SU_T56U14  -1
    S_T56U15  COST  159.537  SU_T56U15  -1
    S_T56U16  COST  59.6737  SU_T56U16  -1
    S_T56U17  COST  181.589  SU_T56U17  -1
    S_T56U18  COST  101.061  SU_T56U18  -1
    S_T56U19  COST  143.926  SU_T56U19  -1
    S_T56U20  COST  175.723  SU_T56U20  -1
    S_T57U1  COST  114.377  SU_T57U1  -1
    S_T57U2  COST  168.374  SU_T57U2  -1
    S_T57U3  COST  148.824  SU_T57U3  -1
    S_T57U4  COST  83.0338  SU_T57U4  -1
    S_T57U5  COST  160.635  SU_T57U5  -1
    S_T57U6  COST  54.8969  SU_T57U6  -1
    S_T57U7  COST  59.703  SU_T57U7  -1
    S_T57U8  COST  53.7713  SU_T57U8  -1
    S_T57U9  COST  62.3311  SU_T57U9  -1
    S_T57U10  COST  119.665  SU_T57U10  -1
    S_T57U11  COST  101.122  SU_T57U11  -1
    S_T57U12  COST  75.5873  SU_T57U12  -1
    S_T57U13  COST  116.787  SU_T57U13  -1
    S_T57U14  COST  145.941  SU_T57U14  -1
    S_T57U15  COST  69.754  SU_T57U15  -1
    S_T57U16  COST  168.013  SU_T57U16  -1
    S_T57U17  COST  89.4013  SU_T57U17  -1
    S_T57U18  COST  120.935  SU_T57U18  -1
    S_T57U19  COST  90.3438  SU_T57U19  -1
    S_T57U20  COST  183.722  SU_T57U20  -1
    S_T58U1  COST  55.9649  SU_T58U1  -1
    S_T58U2  COST  186.107  SU_T58U2  -1
    S_T58U3  COST  120.446  SU_T58U3  -1
    S_T58U4  COST  120.946  SU_T58U4  -1
    S_T58U5  COST  120.462  SU_T58U5  -1
    S_T58U6  COST  121.143  SU_T58U6  -1
    S_T58U7  COST  130.551  SU_T58U7  -1
    S_T58U8  COST  57.4245  SU_T58U8  -1
    S_T58U9  COST  176.589  SU_T58U9  -1
    S_T58U10  COST  119.428  SU_T58U10  -1
    S_T58U11  COST  82.7765  SU_T58U11  -1
    S_T58U12  COST  56.6582  SU_T58U12  -1
    S_T58U13  COST  172.502  SU_T58U13  -1
    S_T58U14  COST  172.731  SU_T58U14  -1
    S_T58U15  COST  181.979  SU_T58U15  -1
    S_T58U16  COST  54.4502  SU_T58U16  -1
    S_T58U17  COST  56.728  SU_T58U17  -1
    S_T58U18  COST  189.414  SU_T58U18  -1
    S_T58U19  COST  108.481  SU_T58U19  -1
    S_T58U20  COST  182.339  SU_T58U20  -1
    S_T59U1  COST  88.726  SU_T59U1  -1
    S_T59U2  COST  94.5091  SU_T59U2  -1
    S_T59U3  COST  193.105  SU_T59U3  -1
    S_T59U4  COST  179.432  SU_T59U4  -1
    S_T59U5  COST  157.636  SU_T59U5  -1
    S_T59U6  COST  56.0838  SU_T59U6  -1
    S_T59U7  COST  88.5041  SU_T59U7  -1
    S_T59U8  COST  170.053  SU_T59U8  -1
    S_T59U9  COST  63.8427  SU_T59U9  -1
    S_T59U10  COST  132.438  SU_T59U10  -1
    S_T59U11  COST  110.636  SU_T59U11  -1
    S_T59U12  COST  162.478  SU_T59U12  -1
    S_T59U13  COST  146.914  SU_T59U13  -1
    S_T59U14  COST  183.206  SU_T59U14  -1
    S_T59U15  COST  125.323  SU_T59U15  -1
    S_T59U16  COST  67.3606  SU_T59U16  -1
    S_T59U17  COST  75.7773  SU_T59U17  -1
    S_T59U18  COST  161.147  SU_T59U18  -1
    S_T59U19  COST  174.353  SU_T59U19  -1
    S_T59U20  COST  173.002  SU_T59U20  -1
    S_T60U1  COST  129.874  SU_T60U1  -1
    S_T60U2  COST  62.6589  SU_T60U2  -1
    S_T60U3  COST  186.52  SU_T60U3  -1
    S_T60U4  COST  82.4077  SU_T60U4  -1
    S_T60U5  COST  172.508  SU_T60U5  -1
    S_T60U6  COST  108.109  SU_T60U6  -1
    S_T60U7  COST  110.585  SU_T60U7  -1
    S_T60U8  COST  131.38  SU_T60U8  -1
    S_T60U9  COST  138.543  SU_T60U9  -1
    S_T60U10  COST  107.636  SU_T60U10  -1
    S_T60U11  COST  136.89  SU_T60U11  -1
    S_T60U12  COST  64.831  SU_T60U12  -1
    S_T60U13  COST  51.8465  SU_T60U13  -1
    S_T60U14  COST  54.113  SU_T60U14  -1
    S_T60U15  COST  128.872  SU_T60U15  -1
    S_T60U16  COST  74.8443  SU_T60U16  -1
    S_T60U17  COST  56.7168  SU_T60U17  -1
    S_T60U18  COST  191.997  SU_T60U18  -1
    S_T60U19  COST  127.586  SU_T60U19  -1
    S_T60U20  COST  51.0066  SU_T60U20  -1
    S_T61U1  COST  168.758  SU_T61U1  -1
    S_T61U2  COST  65.189  SU_T61U2  -1
    S_T61U3  COST  129.663  SU_T61U3  -1
    S_T61U4  COST  137.033  SU_T61U4  -1
    S_T61U5  COST  65.7889  SU_T61U5  -1
    S_T61U6  COST  195.804  SU_T61U6  -1
    S_T61U7  COST  196.618  SU_T61U7  -1
    S_T61U8  COST  70.3684  SU_T61U8  -1
    S_T61U9  COST  81.3296  SU_T61U9  -1
    S_T61U10  COST  112.123  SU_T61U10  -1
    S_T61U11  COST  96.9809  SU_T61U11  -1
    S_T61U12  COST  123.178  SU_T61U12  -1
    S_T61U13  COST  175.322  SU_T61U13  -1
    S_T61U14  COST  106.221  SU_T61U14  -1
    S_T61U15  COST  116.619  SU_T61U15  -1
    S_T61U16  COST  131.807  SU_T61U16  -1
    S_T61U17  COST  141.032  SU_T61U17  -1
    S_T61U18  COST  54.6406  SU_T61U18  -1
    S_T61U19  COST  166.031  SU_T61U19  -1
    S_T61U20  COST  121.682  SU_T61U20  -1
    S_T62U1  COST  75.2505  SU_T62U1  -1
    S_T62U2  COST  175.782  SU_T62U2  -1
    S_T62U3  COST  174.022  SU_T62U3  -1
    S_T62U4  COST  76.5756  SU_T62U4  -1
    S_T62U5  COST  151.608  SU_T62U5  -1
    S_T62U6  COST  174.603  SU_T62U6  -1
    S_T62U7  COST  74.7863  SU_T62U7  -1
    S_T62U8  COST  199.957  SU_T62U8  -1
    S_T62U9  COST  172.514  SU_T62U9  -1
    S_T62U10  COST  167.358  SU_T62U10  -1
    S_T62U11  COST  95.0734  SU_T62U11  -1
    S_T62U12  COST  168.878  SU_T62U12  -1
    S_T62U13  COST  159.623  SU_T62U13  -1
    S_T62U14  COST  177.884  SU_T62U14  -1
    S_T62U15  COST  186.041  SU_T62U15  -1
    S_T62U16  COST  138.952  SU_T62U16  -1
    S_T62U17  COST  103.019  SU_T62U17  -1
    S_T62U18  COST  55.6972  SU_T62U18  -1
    S_T62U19  COST  132.398  SU_T62U19  -1
    S_T62U20  COST  152.113  SU_T62U20  -1
    S_T63U1  COST  55.1692  SU_T63U1  -1
    S_T63U2  COST  192.367  SU_T63U2  -1
    S_T63U3  COST  64.0509  SU_T63U3  -1
    S_T63U4  COST  123.79  SU_T63U4  -1
    S_T63U5  COST  123.713  SU_T63U5  -1
    S_T63U6  COST  134.407  SU_T63U6  -1
    S_T63U7  COST  140.863  SU_T63U7  -1
    S_T63U8  COST  104.34  SU_T63U8  -1
    S_T63U9  COST  184.168  SU_T63U9  -1
    S_T63U10  COST  116.518  SU_T63U10  -1
    S_T63U11  COST  138.711  SU_T63U11  -1
    S_T63U12  COST  121.473  SU_T63U12  -1
    S_T63U13  COST  58.9207  SU_T63U13  -1
    S_T63U14  COST  146.03  SU_T63U14  -1
    S_T63U15  COST  86.0574  SU_T63U15  -1
    S_T63U16  COST  88.4071  SU_T63U16  -1
    S_T63U17  COST  195.73  SU_T63U17  -1
    S_T63U18  COST  160.104  SU_T63U18  -1
    S_T63U19  COST  189.389  SU_T63U19  -1
    S_T63U20  COST  180.807  SU_T63U20  -1
    S_T64U1  COST  144.882  SU_T64U1  -1
    S_T64U2  COST  172.97  SU_T64U2  -1
    S_T64U3  COST  159.958  SU_T64U3  -1
    S_T64U4  COST  169.009  SU_T64U4  -1
    S_T64U5  COST  80.0977  SU_T64U5  -1
    S_T64U6  COST  63.4718  SU_T64U6  -1
    S_T64U7  COST  56.6243  SU_T64U7  -1
    S_T64U8  COST  144.936  SU_T64U8  -1
    S_T64U9  COST  50.8499  SU_T64U9  -1
    S_T64U10  COST  173.289  SU_T64U10  -1
    S_T64U11  COST  182.664  SU_T64U11  -1
    S_T64U12  COST  65.6606  SU_T64U12  -1
    S_T64U13  COST  158.472  SU_T64U13  -1
    S_T64U14  COST  153.111  SU_T64U14  -1
    S_T64U15  COST  95.9206  SU_T64U15  -1
    S_T64U16  COST  144.813  SU_T64U16  -1
    S_T64U17  COST  154.663  SU_T64U17  -1
    S_T64U18  COST  65.1412  SU_T64U18  -1
    S_T64U19  COST  152.262  SU_T64U19  -1
    S_T64U20  COST  176.311  SU_T64U20  -1
    S_T65U1  COST  121.739  SU_T65U1  -1
    S_T65U2  COST  156.517  SU_T65U2  -1
    S_T65U3  COST  81.6669  SU_T65U3  -1
    S_T65U4  COST  110.196  SU_T65U4  -1
    S_T65U5  COST  72.8494  SU_T65U5  -1
    S_T65U6  COST  53.304  SU_T65U6  -1
    S_T65U7  COST  176.335  SU_T65U7  -1
    S_T65U8  COST  82.8911  SU_T65U8  -1
    S_T65U9  COST  82.1942  SU_T65U9  -1
    S_T65U10  COST  163.942  SU_T65U10  -1
    S_T65U11  COST  157.969  SU_T65U11  -1
    S_T65U12  COST  118.092  SU_T65U12  -1
    S_T65U13  COST  133.199  SU_T65U13  -1
    S_T65U14  COST  128.942  SU_T65U14  -1
    S_T65U15  COST  85.198  SU_T65U15  -1
    S_T65U16  COST  93.4955  SU_T65U16  -1
    S_T65U17  COST  67.9931  SU_T65U17  -1
    S_T65U18  COST  158.098  SU_T65U18  -1
    S_T65U19  COST  73.7936  SU_T65U19  -1
    S_T65U20  COST  173.567  SU_T65U20  -1
    S_T66U1  COST  90.7321  SU_T66U1  -1
    S_T66U2  COST  65.4122  SU_T66U2  -1
    S_T66U3  COST  167.452  SU_T66U3  -1
    S_T66U4  COST  139.023  SU_T66U4  -1
    S_T66U5  COST  137.49  SU_T66U5  -1
    S_T66U6  COST  101.056  SU_T66U6  -1
    S_T66U7  COST  62.4073  SU_T66U7  -1
    S_T66U8  COST  174.007  SU_T66U8  -1
    S_T66U9  COST  134.748  SU_T66U9  -1
    S_T66U10  COST  135.771  SU_T66U10  -1
    S_T66U11  COST  191.448  SU_T66U11  -1
    S_T66U12  COST  106.597  SU_T66U12  -1
    S_T66U13  COST  151.271  SU_T66U13  -1
    S_T66U14  COST  56.3438  SU_T66U14  -1
    S_T66U15  COST  189.526  SU_T66U15  -1
    S_T66U16  COST  151.377  SU_T66U16  -1
    S_T66U17  COST  88.1347  SU_T66U17  -1
    S_T66U18  COST  77.4211  SU_T66U18  -1
    S_T66U19  COST  69.4401  SU_T66U19  -1
    S_T66U20  COST  191.597  SU_T66U20  -1
    S_T67U1  COST  121.311  SU_T67U1  -1
    S_T67U2  COST  199.92  SU_T67U2  -1
    S_T67U3  COST  124.786  SU_T67U3  -1
    S_T67U4  COST  179.873  SU_T67U4  -1
    S_T67U5  COST  66.6466  SU_T67U5  -1
    S_T67U6  COST  165.617  SU_T67U6  -1
    S_T67U7  COST  178.844  SU_T67U7  -1
    S_T67U8  COST  132.81  SU_T67U8  -1
    S_T67U9  COST  157.948  SU_T67U9  -1
    S_T67U10  COST  180.464  SU_T67U10  -1
    S_T67U11  COST  147.157  SU_T67U11  -1
    S_T67U12  COST  163.103  SU_T67U12  -1
    S_T67U13  COST  109.21  SU_T67U13  -1
    S_T67U14  COST  68.8586  SU_T67U14  -1
    S_T67U15  COST  196.189  SU_T67U15  -1
    S_T67U16  COST  152.329  SU_T67U16  -1
    S_T67U17  COST  136.876  SU_T67U17  -1
    S_T67U18  COST  56.451  SU_T67U18  -1
    S_T67U19  COST  173.496  SU_T67U19  -1
    S_T67U20  COST  131.571  SU_T67U20  -1
    S_T68U1  COST  153.207  SU_T68U1  -1
    S_T68U2  COST  186.66  SU_T68U2  -1
    S_T68U3  COST  156.407  SU_T68U3  -1
    S_T68U4  COST  54.7133  SU_T68U4  -1
    S_T68U5  COST  99.5364  SU_T68U5  -1
    S_T68U6  COST  90.0013  SU_T68U6  -1
    S_T68U7  COST  181.647  SU_T68U7  -1
    S_T68U8  COST  109.647  SU_T68U8  -1
    S_T68U9  COST  118.238  SU_T68U9  -1
    S_T68U10  COST  82.9708  SU_T68U10  -1
    S_T68U11  COST  178.569  SU_T68U11  -1
    S_T68U12  COST  61.4577  SU_T68U12  -1
    S_T68U13  COST  105.16  SU_T68U13  -1
    S_T68U14  COST  115.326  SU_T68U14  -1
    S_T68U15  COST  101.271  SU_T68U15  -1
    S_T68U16  COST  83.4895  SU_T68U16  -1
    S_T68U17  COST  135.597  SU_T68U17  -1
    S_T68U18  COST  149.451  SU_T68U18  -1
    S_T68U19  COST  181.888  SU_T68U19  -1
    S_T68U20  COST  132.044  SU_T68U20  -1
    S_T69U1  COST  140.922  SU_T69U1  -1
    S_T69U2  COST  81.0642  SU_T69U2  -1
    S_T69U3  COST  184.918  SU_T69U3  -1
    S_T69U4  COST  190.607  SU_T69U4  -1
    S_T69U5  COST  121.01  SU_T69U5  -1
    S_T69U6  COST  150.746  SU_T69U6  -1
    S_T69U7  COST  198.531  SU_T69U7  -1
    S_T69U8  COST  129.611  SU_T69U8  -1
    S_T69U9  COST  146.689  SU_T69U9  -1
    S_T69U10  COST  166.539  SU_T69U10  -1
    S_T69U11  COST  158.844  SU_T69U11  -1
    S_T69U12  COST  184.411  SU_T69U12  -1
    S_T69U13  COST  97.2721  SU_T69U13  -1
    S_T69U14  COST  197.248  SU_T69U14  -1
    S_T69U15  COST  185.963  SU_T69U15  -1
    S_T69U16  COST  146.423  SU_T69U16  -1
    S_T69U17  COST  192.109  SU_T69U17  -1
    S_T69U18  COST  158.747  SU_T69U18  -1
    S_T69U19  COST  59.0943  SU_T69U19  -1
    S_T69U20  COST  153.514  SU_T69U20  -1
    S_T70U1  COST  124.597  SU_T70U1  -1
    S_T70U2  COST  56.6846  SU_T70U2  -1
    S_T70U3  COST  95.2875  SU_T70U3  -1
    S_T70U4  COST  103.14  SU_T70U4  -1
    S_T70U5  COST  194.347  SU_T70U5  -1
    S_T70U6  COST  189.299  SU_T70U6  -1
    S_T70U7  COST  132.029  SU_T70U7  -1
    S_T70U8  COST  118.79  SU_T70U8  -1
    S_T70U9  COST  179.594  SU_T70U9  -1
    S_T70U10  COST  184.651  SU_T70U10  -1
    S_T70U11  COST  70.5499  SU_T70U11  -1
    S_T70U12  COST  129.085  SU_T70U12  -1
    S_T70U13  COST  148.867  SU_T70U13  -1
    S_T70U14  COST  145.481  SU_T70U14  -1
    S_T70U15  COST  111.001  SU_T70U15  -1
    S_T70U16  COST  128.381  SU_T70U16  -1
    S_T70U17  COST  118.845  SU_T70U17  -1
    S_T70U18  COST  76.4143  SU_T70U18  -1
    S_T70U19  COST  51.9544  SU_T70U19  -1
    S_T70U20  COST  174.409  SU_T70U20  -1
    S_T71U1  COST  103.256  SU_T71U1  -1
    S_T71U2  COST  109.281  SU_T71U2  -1
    S_T71U3  COST  195.058  SU_T71U3  -1
    S_T71U4  COST  178.133  SU_T71U4  -1
    S_T71U5  COST  96.5  SU_T71U5  -1
    S_T71U6  COST  118.735  SU_T71U6  -1
    S_T71U7  COST  194.025  SU_T71U7  -1
    S_T71U8  COST  178.281  SU_T71U8  -1
    S_T71U9  COST  175.311  SU_T71U9  -1
    S_T71U10  COST  106.548  SU_T71U10  -1
    S_T71U11  COST  170.713  SU_T71U11  -1
    S_T71U12  COST  171.212  SU_T71U12  -1
    S_T71U13  COST  127.203  SU_T71U13  -1
    S_T71U14  COST  88.0732  SU_T71U14  -1
    S_T71U15  COST  110.415  SU_T71U15  -1
    S_T71U16  COST  50.0664  SU_T71U16  -1
    S_T71U17  COST  73.0711  SU_T71U17  -1
    S_T71U18  COST  193.227  SU_T71U18  -1
    S_T71U19  COST  126.908  SU_T71U19  -1
    S_T71U20  COST  145.317  SU_T71U20  -1
    S_T72U1  COST  54.8927  SU_T72U1  -1
    S_T72U2  COST  116.655  SU_T72U2  -1
    S_T72U3  COST  143.306  SU_T72U3  -1
    S_T72U4  COST  107.948  SU_T72U4  -1
    S_T72U5  COST  112.341  SU_T72U5  -1
    S_T72U6  COST  185.335  SU_T72U6  -1
    S_T72U7  COST  196.156  SU_T72U7  -1
    S_T72U8  COST  175.972  SU_T72U8  -1
    S_T72U9  COST  84.3042  SU_T72U9  -1
    S_T72U10  COST  72.2267  SU_T72U10  -1
    S_T72U11  COST  83.7335  SU_T72U11  -1
    S_T72U12  COST  157.874  SU_T72U12  -1
    S_T72U13  COST  114.125  SU_T72U13  -1
    S_T72U14  COST  175.949  SU_T72U14  -1
    S_T72U15  COST  114.515  SU_T72U15  -1
    S_T72U16  COST  176.877  SU_T72U16  -1
    S_T72U17  COST  164.466  SU_T72U17  -1
    S_T72U18  COST  183.333  SU_T72U18  -1
    S_T72U19  COST  80.6691  SU_T72U19  -1
    S_T72U20  COST  94.3542  SU_T72U20  -1
    S_T73U1  COST  54.9214  SU_T73U1  -1
    S_T73U2  COST  104.653  SU_T73U2  -1
    S_T73U3  COST  181.924  SU_T73U3  -1
    S_T73U4  COST  64.258  SU_T73U4  -1
    S_T73U5  COST  57.1462  SU_T73U5  -1
    S_T73U6  COST  166.086  SU_T73U6  -1
    S_T73U7  COST  173.718  SU_T73U7  -1
    S_T73U8  COST  119.494  SU_T73U8  -1
    S_T73U9  COST  93.5044  SU_T73U9  -1
    S_T73U10  COST  108.774  SU_T73U10  -1
    S_T73U11  COST  129.803  SU_T73U11  -1
    S_T73U12  COST  59.1996  SU_T73U12  -1
    S_T73U13  COST  158.469  SU_T73U13  -1
    S_T73U14  COST  80.5368  SU_T73U14  -1
    S_T73U15  COST  115.622  SU_T73U15  -1
    S_T73U16  COST  57.7851  SU_T73U16  -1
    S_T73U17  COST  96.5127  SU_T73U17  -1
    S_T73U18  COST  146.095  SU_T73U18  -1
    S_T73U19  COST  163.86  SU_T73U19  -1
    S_T73U20  COST  184.406  SU_T73U20  -1
    S_T74U1  COST  87.922  SU_T74U1  -1
    S_T74U2  COST  68.8035  SU_T74U2  -1
    S_T74U3  COST  199.932  SU_T74U3  -1
    S_T74U4  COST  83.0733  SU_T74U4  -1
    S_T74U5  COST  131.371  SU_T74U5  -1
    S_T74U6  COST  107.103  SU_T74U6  -1
    S_T74U7  COST  163.074  SU_T74U7  -1
    S_T74U8  COST  90.3529  SU_T74U8  -1
    S_T74U9  COST  90.327  SU_T74U9  -1
    S_T74U10  COST  122.28  SU_T74U10  -1
    S_T74U11  COST  192.381  SU_T74U11  -1
    S_T74U12  COST  69.4912  SU_T74U12  -1
    S_T74U13  COST  167.11  SU_T74U13  -1
    S_T74U14  COST  75.8134  SU_T74U14  -1
    S_T74U15  COST  117.322  SU_T74U15  -1
    S_T74U16  COST  77.0294  SU_T74U16  -1
    S_T74U17  COST  170.528  SU_T74U17  -1
    S_T74U18  COST  68.7688  SU_T74U18  -1
    S_T74U19  COST  101.691  SU_T74U19  -1
    S_T74U20  COST  57.7843  SU_T74U20  -1
    S_T75U1  COST  82.009  SU_T75U1  -1
    S_T75U2  COST  73.5989  SU_T75U2  -1
    S_T75U3  COST  164.708  SU_T75U3  -1
    S_T75U4  COST  115.299  SU_T75U4  -1
    S_T75U5  COST  96.7976  SU_T75U5  -1
    S_T75U6  COST  126.001  SU_T75U6  -1
    S_T75U7  COST  185.986  SU_T75U7  -1
    S_T75U8  COST  167.326  SU_T75U8  -1
    S_T75U9  COST  169.632  SU_T75U9  -1
    S_T75U10  COST  176.492  SU_T75U10  -1
    S_T75U11  COST  133.847  SU_T75U11  -1
    S_T75U12  COST  155.929  SU_T75U12  -1
    S_T75U13  COST  131.11  SU_T75U13  -1
    S_T75U14  COST  96.3252  SU_T75U14  -1
    S_T75U15  COST  67.7739  SU_T75U15  -1
    S_T75U16  COST  157.162  SU_T75U16  -1
    S_T75U17  COST  84.0091  SU_T75U17  -1
    S_T75U18  COST  171.318  SU_T75U18  -1
    S_T75U19  COST  143.754  SU_T75U19  -1
    S_T75U20  COST  172.462  SU_T75U20  -1
    S_T76U1  COST  60.6337  SU_T76U1  -1
    S_T76U2  COST  190.295  SU_T76U2  -1
    S_T76U3  COST  197.286  SU_T76U3  -1
    S_T76U4  COST  87.1265  SU_T76U4  -1
    S_T76U5  COST  78.0372  SU_T76U5  -1
    S_T76U6  COST  108.602  SU_T76U6  -1
    S_T76U7  COST  111.748  SU_T76U7  -1
    S_T76U8  COST  114.581  SU_T76U8  -1
    S_T76U9  COST  140.826  SU_T76U9  -1
    S_T76U10  COST  103.378  SU_T76U10  -1
    S_T76U11  COST  100.019  SU_T76U11  -1
    S_T76U12  COST  60.8167  SU_T76U12  -1
    S_T76U13  COST  107.216  SU_T76U13  -1
    S_T76U14  COST  167.729  SU_T76U14  -1
    S_T76U15  COST  67.4286  SU_T76U15  -1
    S_T76U16  COST  167.79  SU_T76U16  -1
    S_T76U17  COST  198.554  SU_T76U17  -1
    S_T76U18  COST  191.191  SU_T76U18  -1
    S_T76U19  COST  51.7221  SU_T76U19  -1
    S_T76U20  COST  196.566  SU_T76U20  -1
    S_T77U1  COST  132.168  SU_T77U1  -1
    S_T77U2  COST  133.324  SU_T77U2  -1
    S_T77U3  COST  137.327  SU_T77U3  -1
    S_T77U4  COST  127.956  SU_T77U4  -1
    S_T77U5  COST  140.822  SU_T77U5  -1
    S_T77U6  COST  161.024  SU_T77U6  -1
    S_T77U7  COST  132.441  SU_T77U7  -1
    S_T77U8  COST  71.5913  SU_T77U8  -1
    S_T77U9  COST  75.8166  SU_T77U9  -1
    S_T77U10  COST  60.2501  SU_T77U10  -1
    S_T77U11  COST  154.37  SU_T77U11  -1
    S_T77U12  COST  63.8143  SU_T77U12  -1
    S_T77U13  COST  146.245  SU_T77U13  -1
    S_T77U14  COST  105.989  SU_T77U14  -1
    S_T77U15  COST  117.603  SU_T77U15  -1
    S_T77U16  COST  137.534  SU_T77U16  -1
    S_T77U17  COST  87.4287  SU_T77U17  -1
    S_T77U18  COST  76.1123  SU_T77U18  -1
    S_T77U19  COST  117.363  SU_T77U19  -1
    S_T77U20  COST  81.9628  SU_T77U20  -1
    S_T78U1  COST  51.0023  SU_T78U1  -1
    S_T78U2  COST  143.781  SU_T78U2  -1
    S_T78U3  COST  57.5733  SU_T78U3  -1
    S_T78U4  COST  107.842  SU_T78U4  -1
    S_T78U5  COST  131.299  SU_T78U5  -1
    S_T78U6  COST  83.0726  SU_T78U6  -1
    S_T78U7  COST  142.587  SU_T78U7  -1
    S_T78U8  COST  82.2002  SU_T78U8  -1
    S_T78U9  COST  124.706  SU_T78U9  -1
    S_T78U10  COST  99.0567  SU_T78U10  -1
    S_T78U11  COST  62.6452  SU_T78U11  -1
    S_T78U12  COST  179.198  SU_T78U12  -1
    S_T78U13  COST  126.909  SU_T78U13  -1
    S_T78U14  COST  199.439  SU_T78U14  -1
    S_T78U15  COST  132.031  SU_T78U15  -1
    S_T78U16  COST  155.13  SU_T78U16  -1
    S_T78U17  COST  148.099  SU_T78U17  -1
    S_T78U18  COST  57.5028  SU_T78U18  -1
    S_T78U19  COST  54.4256  SU_T78U19  -1
    S_T78U20  COST  52.372  SU_T78U20  -1
    S_T79U1  COST  186.675  SU_T79U1  -1
    S_T79U2  COST  113.716  SU_T79U2  -1
    S_T79U3  COST  139.564  SU_T79U3  -1
    S_T79U4  COST  105.83  SU_T79U4  -1
    S_T79U5  COST  182.745  SU_T79U5  -1
    S_T79U6  COST  124.025  SU_T79U6  -1
    S_T79U7  COST  168.015  SU_T79U7  -1
    S_T79U8  COST  127.042  SU_T79U8  -1
    S_T79U9  COST  198.149  SU_T79U9  -1
    S_T79U10  COST  165.611  SU_T79U10  -1
    S_T79U11  COST  80.9326  SU_T79U11  -1
    S_T79U12  COST  100.041  SU_T79U12  -1
    S_T79U13  COST  187.289  SU_T79U13  -1
    S_T79U14  COST  55.2512  SU_T79U14  -1
    S_T79U15  COST  111.701  SU_T79U15  -1
    S_T79U16  COST  145.693  SU_T79U16  -1
    S_T79U17  COST  124.915  SU_T79U17  -1
    S_T79U18  COST  71.6581  SU_T79U18  -1
    S_T79U19  COST  112.908  SU_T79U19  -1
    S_T79U20  COST  167.765  SU_T79U20  -1
    S_T80U1  COST  80.1648  SU_T80U1  -1
    S_T80U2  COST  111.145  SU_T80U2  -1
    S_T80U3  COST  54.2467  SU_T80U3  -1
    S_T80U4  COST  92.1557  SU_T80U4  -1
    S_T80U5  COST  51.7239  SU_T80U5  -1
    S_T80U6  COST  188.604  SU_T80U6  -1
    S_T80U7  COST  127.464  SU_T80U7  -1
    S_T80U8  COST  191.38  SU_T80U8  -1
    S_T80U9  COST  158.085  SU_T80U9  -1
    S_T80U10  COST  116.93  SU_T80U10  -1
    S_T80U11  COST  51.1947  SU_T80U11  -1
    S_T80U12  COST  116.496  SU_T80U12  -1
    S_T80U13  COST  88.2323  SU_T80U13  -1
    S_T80U14  COST  61.4954  SU_T80U14  -1
    S_T80U15  COST  174.218  SU_T80U15  -1
    S_T80U16  COST  171.399  SU_T80U16  -1
    S_T80U17  COST  144.832  SU_T80U17  -1
    S_T80U18  COST  90.7248  SU_T80U18  -1
    S_T80U19  COST  97.7913  SU_T80U19  -1
    S_T80U20  COST  61.6461  SU_T80U20  -1
    S_T81U1  COST  102.334  SU_T81U1  -1
    S_T81U2  COST  169.173  SU_T81U2  -1
    S_T81U3  COST  101.717  SU_T81U3  -1
    S_T81U4  COST  112.177  SU_T81U4  -1
    S_T81U5  COST  94.3914  SU_T81U5  -1
    S_T81U6  COST  111.664  SU_T81U6  -1
    S_T81U7  COST  107.721  SU_T81U7  -1
    S_T81U8  COST  114.441  SU_T81U8  -1
    S_T81U9  COST  179.446  SU_T81U9  -1
    S_T81U10  COST  168.415  SU_T81U10  -1
    S_T81U11  COST  131.205  SU_T81U11  -1
    S_T81U12  COST  112.13  SU_T81U12  -1
    S_T81U13  COST  182.249  SU_T81U13  -1
    S_T81U14  COST  145.196  SU_T81U14  -1
    S_T81U15  COST  67.7623  SU_T81U15  -1
    S_T81U16  COST  96.6504  SU_T81U16  -1
    S_T81U17  COST  86.5594  SU_T81U17  -1
    S_T81U18  COST  100.351  SU_T81U18  -1
    S_T81U19  COST  135.787  SU_T81U19  -1
    S_T81U20  COST  112.21  SU_T81U20  -1
    S_T82U1  COST  180.72  SU_T82U1  -1
    S_T82U2  COST  111.78  SU_T82U2  -1
    S_T82U3  COST  80.5501  SU_T82U3  -1
    S_T82U4  COST  132.003  SU_T82U4  -1
    S_T82U5  COST  53.3212  SU_T82U5  -1
    S_T82U6  COST  154.494  SU_T82U6  -1
    S_T82U7  COST  189.969  SU_T82U7  -1
    S_T82U8  COST  197.065  SU_T82U8  -1
    S_T82U9  COST  67.1429  SU_T82U9  -1
    S_T82U10  COST  151.835  SU_T82U10  -1
    S_T82U11  COST  192.716  SU_T82U11  -1
    S_T82U12  COST  141.7  SU_T82U12  -1
    S_T82U13  COST  150.987  SU_T82U13  -1
    S_T82U14  COST  182.843  SU_T82U14  -1
    S_T82U15  COST  157.196  SU_T82U15  -1
    S_T82U16  COST  159.697  SU_T82U16  -1
    S_T82U17  COST  162.896  SU_T82U17  -1
    S_T82U18  COST  181.126  SU_T82U18  -1
    S_T82U19  COST  69.108  SU_T82U19  -1
    S_T82U20  COST  129.737  SU_T82U20  -1
    S_T83U1  COST  173.09  SU_T83U1  -1
    S_T83U2  COST  122.652  SU_T83U2  -1
    S_T83U3  COST  111.461  SU_T83U3  -1
    S_T83U4  COST  52.3262  SU_T83U4  -1
    S_T83U5  COST  81.1935  SU_T83U5  -1
    S_T83U6  COST  121.889  SU_T83U6  -1
    S_T83U7  COST  161.462  SU_T83U7  -1
    S_T83U8  COST  131.838  SU_T83U8  -1
    S_T83U9  COST  117.572  SU_T83U9  -1
    S_T83U10  COST  198.383  SU_T83U10  -1
    S_T83U11  COST  191.382  SU_T83U11  -1
    S_T83U12  COST  116.958  SU_T83U12  -1
    S_T83U13  COST  159.385  SU_T83U13  -1
    S_T83U14  COST  155.995  SU_T83U14  -1
    S_T83U15  COST  105.422  SU_T83U15  -1
    S_T83U16  COST  102.492  SU_T83U16  -1
    S_T83U17  COST  106.884  SU_T83U17  -1
    S_T83U18  COST  176.349  SU_T83U18  -1
    S_T83U19  COST  144.798  SU_T83U19  -1
    S_T83U20  COST  65.5518  SU_T83U20  -1
    S_T84U1  COST  137.152  SU_T84U1  -1
    S_T84U2  COST  132.205  SU_T84U2  -1
    S_T84U3  COST  102.53  SU_T84U3  -1
    S_T84U4  COST  163.775  SU_T84U4  -1
    S_T84U5  COST  81.0863  SU_T84U5  -1
    S_T84U6  COST  107.993  SU_T84U6  -1
    S_T84U7  COST  102.044  SU_T84U7  -1
    S_T84U8  COST  73.8018  SU_T84U8  -1
    S_T84U9  COST  140.812  SU_T84U9  -1
    S_T84U10  COST  166.145  SU_T84U10  -1
    S_T84U11  COST  131.247  SU_T84U11  -1
    S_T84U12  COST  96.0357  SU_T84U12  -1
    S_T84U13  COST  156.917  SU_T84U13  -1
    S_T84U14  COST  138.276  SU_T84U14  -1
    S_T84U15  COST  139.966  SU_T84U15  -1
    S_T84U16  COST  180.296  SU_T84U16  -1
    S_T84U17  COST  161.863  SU_T84U17  -1
    S_T84U18  COST  137.7  SU_T84U18  -1
    S_T84U19  COST  116.579  SU_T84U19  -1
    S_T84U20  COST  193.775  SU_T84U20  -1
    S_T85U1  COST  132.401  SU_T85U1  -1
    S_T85U2  COST  145.514  SU_T85U2  -1
    S_T85U3  COST  83.7563  SU_T85U3  -1
    S_T85U4  COST  173.888  SU_T85U4  -1
    S_T85U5  COST  91.7686  SU_T85U5  -1
    S_T85U6  COST  173.565  SU_T85U6  -1
    S_T85U7  COST  166.519  SU_T85U7  -1
    S_T85U8  COST  119.228  SU_T85U8  -1
    S_T85U9  COST  168.006  SU_T85U9  -1
    S_T85U10  COST  162.176  SU_T85U10  -1
    S_T85U11  COST  82.5846  SU_T85U11  -1
    S_T85U12  COST  89.6007  SU_T85U12  -1
    S_T85U13  COST  183.27  SU_T85U13  -1
    S_T85U14  COST  144.506  SU_T85U14  -1
    S_T85U15  COST  167.566  SU_T85U15  -1
    S_T85U16  COST  80.1598  SU_T85U16  -1
    S_T85U17  COST  160.434  SU_T85U17  -1
    S_T85U18  COST  150.016  SU_T85U18  -1
    S_T85U19  COST  162.201  SU_T85U19  -1
    S_T85U20  COST  156.026  SU_T85U20  -1
    S_T86U1  COST  173.998  SU_T86U1  -1
    S_T86U2  COST  190.036  SU_T86U2  -1
    S_T86U3  COST  151.139  SU_T86U3  -1
    S_T86U4  COST  119.874  SU_T86U4  -1
    S_T86U5  COST  95.6045  SU_T86U5  -1
    S_T86U6  COST  194.174  SU_T86U6  -1
    S_T86U7  COST  177.377  SU_T86U7  -1
    S_T86U8  COST  52.0548  SU_T86U8  -1
    S_T86U9  COST  96.8295  SU_T86U9  -1
    S_T86U10  COST  52.5725  SU_T86U10  -1
    S_T86U11  COST  155.924  SU_T86U11  -1
    S_T86U12  COST  69.8967  SU_T86U12  -1
    S_T86U13  COST  50.8019  SU_T86U13  -1
    S_T86U14  COST  112.222  SU_T86U14  -1
    S_T86U15  COST  108.589  SU_T86U15  -1
    S_T86U16  COST  145.748  SU_T86U16  -1
    S_T86U17  COST  151.419  SU_T86U17  -1
    S_T86U18  COST  136.826  SU_T86U18  -1
    S_T86U19  COST  180.262  SU_T86U19  -1
    S_T86U20  COST  105.723  SU_T86U20  -1
    S_T87U1  COST  144.961  SU_T87U1  -1
    S_T87U2  COST  116.459  SU_T87U2  -1
    S_T87U3  COST  179.157  SU_T87U3  -1
    S_T87U4  COST  190.99  SU_T87U4  -1
    S_T87U5  COST  192.38  SU_T87U5  -1
    S_T87U6  COST  104.365  SU_T87U6  -1
    S_T87U7  COST  66.5095  SU_T87U7  -1
    S_T87U8  COST  144.747  SU_T87U8  -1
    S_T87U9  COST  146.639  SU_T87U9  -1
    S_T87U10  COST  60.4701  SU_T87U10  -1
    S_T87U11  COST  162.169  SU_T87U11  -1
    S_T87U12  COST  112.074  SU_T87U12  -1
    S_T87U13  COST  56.3513  SU_T87U13  -1
    S_T87U14  COST  117.937  SU_T87U14  -1
    S_T87U15  COST  59.0907  SU_T87U15  -1
    S_T87U16  COST  53.7449  SU_T87U16  -1
    S_T87U17  COST  118.037  SU_T87U17  -1
    S_T87U18  COST  152.855  SU_T87U18  -1
    S_T87U19  COST  145.855  SU_T87U19  -1
    S_T87U20  COST  182.242  SU_T87U20  -1
    S_T88U1  COST  175.069  SU_T88U1  -1
    S_T88U2  COST  61.7837  SU_T88U2  -1
    S_T88U3  COST  64.2363  SU_T88U3  -1
    S_T88U4  COST  155.396  SU_T88U4  -1
    S_T88U5  COST  84.6192  SU_T88U5  -1
    S_T88U6  COST  142.447  SU_T88U6  -1
    S_T88U7  COST  153.602  SU_T88U7  -1
    S_T88U8  COST  125.236  SU_T88U8  -1
    S_T88U9  COST  152.518  SU_T88U9  -1
    S_T88U10  COST  170.011  SU_T88U10  -1
    S_T88U11  COST  68.7831  SU_T88U11  -1
    S_T88U12  COST  82.4341  SU_T88U12  -1
    S_T88U13  COST  140.456  SU_T88U13  -1
    S_T88U14  COST  191.116  SU_T88U14  -1
    S_T88U15  COST  69.1905  SU_T88U15  -1
    S_T88U16  COST  115.309  SU_T88U16  -1
    S_T88U17  COST  150.396  SU_T88U17  -1
    S_T88U18  COST  95.9077  SU_T88U18  -1
    S_T88U19  COST  168.411  SU_T88U19  -1
    S_T88U20  COST  75.2177  SU_T88U20  -1
    S_T89U1  COST  58.2834  SU_T89U1  -1
    S_T89U2  COST  61.2232  SU_T89U2  -1
    S_T89U3  COST  129.482  SU_T89U3  -1
    S_T89U4  COST  74.9033  SU_T89U4  -1
    S_T89U5  COST  51.3059  SU_T89U5  -1
    S_T89U6  COST  81.0909  SU_T89U6  -1
    S_T89U7  COST  82.956  SU_T89U7  -1
    S_T89U8  COST  173.993  SU_T89U8  -1
    S_T89U9  COST  103.055  SU_T89U9  -1
    S_T89U10  COST  196.306  SU_T89U10  -1
    S_T89U11  COST  184.736  SU_T89U11  -1
    S_T89U12  COST  61.472  SU_T89U12  -1
    S_T89U13  COST  90.7049  SU_T89U13  -1
    S_T89U14  COST  174.397  SU_T89U14  -1
    S_T89U15  COST  142.583  SU_T89U15  -1
    S_T89U16  COST  121.774  SU_T89U16  -1
    S_T89U17  COST  95.5436  SU_T89U17  -1
    S_T89U18  COST  50.4711  SU_T89U18  -1
    S_T89U19  COST  181.311  SU_T89U19  -1
    S_T89U20  COST  197.635  SU_T89U20  -1
    S_T90U1  COST  157.278  SU_T90U1  -1
    S_T90U2  COST  104.571  SU_T90U2  -1
    S_T90U3  COST  102.059  SU_T90U3  -1
    S_T90U4  COST  198.766  SU_T90U4  -1
    S_T90U5  COST  79.8869  SU_T90U5  -1
    S_T90U6  COST  68.9535  SU_T90U6  -1
    S_T90U7  COST  164.774  SU_T90U7  -1
    S_T90U8  COST  52.3735  SU_T90U8  -1
    S_T90U9  COST  120.63  SU_T90U9  -1
    S_T90U10  COST  133.937  SU_T90U10  -1
    S_T90U11  COST  148.712  SU_T90U11  -1
    S_T90U12  COST  169.958  SU_T90U12  -1
    S_T90U13  COST  154.78  SU_T90U13  -1
    S_T90U14  COST  127.078  SU_T90U14  -1
    S_T90U15  COST  183.483  SU_T90U15  -1
    S_T90U16  COST  126.522  SU_T90U16  -1
    S_T90U17  COST  126.935  SU_T90U17  -1
    S_T90U18  COST  110.416  SU_T90U18  -1
    S_T90U19  COST  189.848  SU_T90U19  -1
    S_T90U20  COST  91.9124  SU_T90U20  -1
    S_T91U1  COST  178.206  SU_T91U1  -1
    S_T91U2  COST  178.139  SU_T91U2  -1
    S_T91U3  COST  110.984  SU_T91U3  -1
    S_T91U4  COST  140.578  SU_T91U4  -1
    S_T91U5  COST  133.815  SU_T91U5  -1
    S_T91U6  COST  167.846  SU_T91U6  -1
    S_T91U7  COST  190.834  SU_T91U7  -1
    S_T91U8  COST  100.622  SU_T91U8  -1
    S_T91U9  COST  135.983  SU_T91U9  -1
    S_T91U10  COST  198.278  SU_T91U10  -1
    S_T91U11  COST  87.8969  SU_T91U11  -1
    S_T91U12  COST  128.293  SU_T91U12  -1
    S_T91U13  COST  162.751  SU_T91U13  -1
    S_T91U14  COST  140.042  SU_T91U14  -1
    S_T91U15  COST  106.48  SU_T91U15  -1
    S_T91U16  COST  89.8055  SU_T91U16  -1
    S_T91U17  COST  79.9258  SU_T91U17  -1
    S_T91U18  COST  85.5627  SU_T91U18  -1
    S_T91U19  COST  191.7  SU_T91U19  -1
    S_T91U20  COST  188.678  SU_T91U20  -1
    S_T92U1  COST  138.492  SU_T92U1  -1
    S_T92U2  COST  165.877  SU_T92U2  -1
    S_T92U3  COST  142.288  SU_T92U3  -1
    S_T92U4  COST  126.938  SU_T92U4  -1
    S_T92U5  COST  190.276  SU_T92U5  -1
    S_T92U6  COST  156.218  SU_T92U6  -1
    S_T92U7  COST  151.16  SU_T92U7  -1
    S_T92U8  COST  56.8179  SU_T92U8  -1
    S_T92U9  COST  84.0112  SU_T92U9  -1
    S_T92U10  COST  120.25  SU_T92U10  -1
    S_T92U11  COST  68.5101  SU_T92U11  -1
    S_T92U12  COST  91.7706  SU_T92U12  -1
    S_T92U13  COST  189.258  SU_T92U13  -1
    S_T92U14  COST  169.401  SU_T92U14  -1
    S_T92U15  COST  82.3251  SU_T92U15  -1
    S_T92U16  COST  119.852  SU_T92U16  -1
    S_T92U17  COST  187.245  SU_T92U17  -1
    S_T92U18  COST  188.355  SU_T92U18  -1
    S_T92U19  COST  141.616  SU_T92U19  -1
    S_T92U20  COST  58.3288  SU_T92U20  -1
    S_T93U1  COST  147.727  SU_T93U1  -1
    S_T93U2  COST  133.468  SU_T93U2  -1
    S_T93U3  COST  175.26  SU_T93U3  -1
    S_T93U4  COST  104.883  SU_T93U4  -1
    S_T93U5  COST  162.414  SU_T93U5  -1
    S_T93U6  COST  63.1323  SU_T93U6  -1
    S_T93U7  COST  112.787  SU_T93U7  -1
    S_T93U8  COST  99.8308  SU_T93U8  -1
    S_T93U9  COST  56.2249  SU_T93U9  -1
    S_T93U10  COST  139.594  SU_T93U10  -1
    S_T93U11  COST  78.8465  SU_T93U11  -1
    S_T93U12  COST  142.942  SU_T93U12  -1
    S_T93U13  COST  125.95  SU_T93U13  -1
    S_T93U14  COST  186.94  SU_T93U14  -1
    S_T93U15  COST  118.343  SU_T93U15  -1
    S_T93U16  COST  131.453  SU_T93U16  -1
    S_T93U17  COST  115.347  SU_T93U17  -1
    S_T93U18  COST  91.7194  SU_T93U18  -1
    S_T93U19  COST  96.9745  SU_T93U19  -1
    S_T93U20  COST  63.3485  SU_T93U20  -1
    S_T94U1  COST  131.15  SU_T94U1  -1
    S_T94U2  COST  190.849  SU_T94U2  -1
    S_T94U3  COST  79.7737  SU_T94U3  -1
    S_T94U4  COST  85.9984  SU_T94U4  -1
    S_T94U5  COST  90.9425  SU_T94U5  -1
    S_T94U6  COST  117.317  SU_T94U6  -1
    S_T94U7  COST  78.409  SU_T94U7  -1
    S_T94U8  COST  59.0145  SU_T94U8  -1
    S_T94U9  COST  147.127  SU_T94U9  -1
    S_T94U10  COST  76.5789  SU_T94U10  -1
    S_T94U11  COST  67.2195  SU_T94U11  -1
    S_T94U12  COST  167.631  SU_T94U12  -1
    S_T94U13  COST  179.744  SU_T94U13  -1
    S_T94U14  COST  157.568  SU_T94U14  -1
    S_T94U15  COST  103.515  SU_T94U15  -1
    S_T94U16  COST  94.2609  SU_T94U16  -1
    S_T94U17  COST  66.0586  SU_T94U17  -1
    S_T94U18  COST  159.457  SU_T94U18  -1
    S_T94U19  COST  140.57  SU_T94U19  -1
    S_T94U20  COST  173.374  SU_T94U20  -1
    S_T95U1  COST  122.873  SU_T95U1  -1
    S_T95U2  COST  152.323  SU_T95U2  -1
    S_T95U3  COST  70.5634  SU_T95U3  -1
    S_T95U4  COST  144.836  SU_T95U4  -1
    S_T95U5  COST  108.518  SU_T95U5  -1
    S_T95U6  COST  56.7874  SU_T95U6  -1
    S_T95U7  COST  52.2765  SU_T95U7  -1
    S_T95U8  COST  65.878  SU_T95U8  -1
    S_T95U9  COST  128.471  SU_T95U9  -1
    S_T95U10  COST  111.629  SU_T95U10  -1
    S_T95U11  COST  191.399  SU_T95U11  -1
    S_T95U12  COST  88.0907  SU_T95U12  -1
    S_T95U13  COST  64.8106  SU_T95U13  -1
    S_T95U14  COST  104.231  SU_T95U14  -1
    S_T95U15  COST  137.762  SU_T95U15  -1
    S_T95U16  COST  184.355  SU_T95U16  -1
    S_T95U17  COST  154.956  SU_T95U17  -1
    S_T95U18  COST  179.52  SU_T95U18  -1
    S_T95U19  COST  180.966  SU_T95U19  -1
    S_T95U20  COST  162.224  SU_T95U20  -1
    S_T96U1  COST  86.9366  SU_T96U1  -1
    S_T96U2  COST  169.036  SU_T96U2  -1
    S_T96U3  COST  167.308  SU_T96U3  -1
    S_T96U4  COST  71.6464  SU_T96U4  -1
    S_T96U5  COST  54.0875  SU_T96U5  -1
    S_T96U6  COST  82.739  SU_T96U6  -1
    S_T96U7  COST  136.166  SU_T96U7  -1
    S_T96U8  COST  153.314  SU_T96U8  -1
    S_T96U9  COST  161.777  SU_T96U9  -1
    S_T96U10  COST  184.383  SU_T96U10  -1
    S_T96U11  COST  73.7456  SU_T96U11  -1
    S_T96U12  COST  133.597  SU_T96U12  -1
    S_T96U13  COST  175.189  SU_T96U13  -1
    S_T96U14  COST  186.934  SU_T96U14  -1
    S_T96U15  COST  77.4009  SU_T96U15  -1
    S_T96U16  COST  136.471  SU_T96U16  -1
    S_T96U17  COST  167.226  SU_T96U17  -1
    S_T96U18  COST  80.637  SU_T96U18  -1
    S_T96U19  COST  151.88  SU_T96U19  -1
    S_T96U20  COST  113.114  SU_T96U20  -1
    MARK0001  'MARKER'                 'INTEND'
RHS
    RHS       DEM_T1  8.82187
    RHS       DEM_T2  13.1824
    RHS       DEM_T3  5.05343
    RHS       DEM_T4  4.24704
    RHS       DEM_T5  9.50408
    RHS       DEM_T6  9.05011
    RHS       DEM_T7  5.31743
    RHS       DEM_T8  13.0653
    RHS       DEM_T9  11.9832
    RHS       DEM_T10  3.91177
    RHS       DEM_T11  4.10885
    RHS       DEM_T12  7.6599
    RHS       DEM_T13  11.0564
    RHS       DEM_T14  1.57252
    RHS       DEM_T15  10.0134
    RHS       DEM_T16  9.42707
    RHS       DEM_T17  4.00924
    RHS       DEM_T18  9.85759
    RHS       DEM_T19  13.2224
    RHS       DEM_T20  1.60822
    RHS       DEM_T21  5.15548
    RHS       DEM_T22  6.6963
    RHS       DEM_T23  12.6904
    RHS       DEM_T24  13.5094
    RHS       DEM_T25  6.7735
    RHS       DEM_T26  10.7504
    RHS       DEM_T27  7.91159
    RHS       DEM_T28  7.99118
    RHS       DEM_T29  4.61529
    RHS       DEM_T30  3.82043
    RHS       DEM_T31  4.74407
    RHS       DEM_T32  8.23226
    RHS       DEM_T33  1.37902
    RHS       DEM_T34  12.7942
    RHS       DEM_T35  3.03169
    RHS       DEM_T36  3.86115
    RHS       DEM_T37  7.73759
    RHS       DEM_T38  10.2315
    RHS       DEM_T39  2.24448
    RHS       DEM_T40  5.13003
    RHS       DEM_T41  13.5928
    RHS       DEM_T42  4.41046
    RHS       DEM_T43  5.06965
    RHS       DEM_T44  11.8745
    RHS       DEM_T45  1.65279
    RHS       DEM_T46  7.03997
    RHS       DEM_T47  5.93502
    RHS       DEM_T48  5.11563
    RHS       DEM_T49  4.71409
    RHS       DEM_T50  2.18786
    RHS       DEM_T51  5.09274
    RHS       DEM_T52  1.55968
    RHS       DEM_T53  11.1525
    RHS       DEM_T54  6.17696
    RHS       DEM_T55  6.77075
    RHS       DEM_T56  12.6167
    RHS       DEM_T57  9.55471
    RHS       DEM_T58  1.10477
    RHS       DEM_T59  13.2613
    RHS       DEM_T60  4.08288
    RHS       DEM_T61  2.39898
    RHS       DEM_T62  10.9857
    RHS       DEM_T63  7.50621
    RHS       DEM_T64  6.63902
    RHS       DEM_T65  4.24354
    RHS       DEM_T66  8.11713
    RHS       DEM_T67  4.567
    RHS       DEM_T68  12.7206
    RHS       DEM_T69  3.79766
    RHS       DEM_T70  12.4966
    RHS       DEM_T71  8.27227
    RHS       DEM_T72  11.7703
    RHS       DEM_T73  10.267
    RHS       DEM_T74  10.057
    RHS       DEM_T75  5.2165
    RHS       DEM_T76  4.04066
    RHS       DEM_T77  3.74152
    RHS       DEM_T78  12.1435
    RHS       DEM_T79  11.6655
    RHS       DEM_T80  6.72746
    RHS       DEM_T81  2.72126
    RHS       DEM_T82  5.96928
    RHS       DEM_T83  9.05146
    RHS       DEM_T84  6.90724
    RHS       DEM_T85  11.1425
    RHS       DEM_T86  13.9691
    RHS       DEM_T87  3.48472
    RHS       DEM_T88  6.97546
    RHS       DEM_T89  6.60279
    RHS       DEM_T90  4.9584
    RHS       DEM_T91  3.57524
    RHS       DEM_T92  1.854
    RHS       DEM_T93  12.5326
    RHS       DEM_T94  6.45803
    RHS       DEM_T95  7.45964
    RHS       DEM_T96  12.9202
BOUNDS
 UP BND       X_T1U1  1
 UP BND       X_T1U2  1
 UP BND       X_T1U3  1
 UP BND       X_T1U4  1
 UP BND       X_T1U5  1
 UP BND       X_T1U6  1
 UP BND       X_T1U7  1
 UP BND       X_T1U8  1
 UP BND       X_T1U9  1
 UP BND       X_T1U10  1
 UP BND       X_T1U11  1
 UP BND       X_T1U12  1
 UP BND       X_T1U13  1
 UP BND       X_T1U14  1
 UP BND       X_T1U15  1
 UP BND       X_T1U16  1
 UP BND       X_T1U17  1
 UP BND       X_T1U18  1
 UP BND       X_T1U19  1
 UP BND       X_T1U20  1
 UP BND       X_T2U1  1
 UP BND       X_T2U2  1
 UP BND       X_T2U3  1
 UP BND       X_T2U4  1
 UP BND       X_T2U5  1
 UP BND       X_T2U6  1
 UP BND       X_T2U7  1
 UP BND       X_T2U8  1
 UP BND       X_T2U9  1
 UP BND       X_T2U10  1
 UP BND       X_T2U11  1
 UP BND       X_T2U12  1
 UP BND       X_T2U13  1
 UP BND       X_T2U14  1
 UP BND       X_T2U15  1
 UP BND       X_T2U16  1
 UP BND       X_T2U17  1
 UP BND       X_T2U18  1
 UP BND       X_T2U19  1
 UP BND       X_T2U20  1
 UP BND       X_T3U1  1
 UP BND       X_T3U2  1
 UP BND       X_T3U3  1
 UP BND       X_T3U4  1
 UP BND       X_T3U5  1
 UP BND       X_T3U6  1
 UP BND       X_T3U7  1
 UP BND       X_T3U8  1
 UP BND       X_T3U9  1
 UP BND       X_T3U10  1
 UP BND       X_T3U11  1
 UP BND       X_T3U12  1
 UP BND       X_T3U13  1
 UP BND       X_T3U14  1
 UP BND       X_T3U15  1
 UP BND       X_T3U16  1
 UP BND       X_T3U17  1
 UP BND       X_T3U18  1
 UP BND       X_T3U19  1
 UP BND       X_T3U20  1
 UP BND       X_T4U1  1
 UP BND       X_T4U2  1
 UP BND       X_T4U3  1
 UP BND       X_T4U4  1
 UP BND       X_T4U5  1
 UP BND       X_T4U6  1
 UP BND       X_T4U7  1
 UP BND       X_T4U8  1
 UP BND       X_T4U9  1
 UP BND       X_T4U10  1
 UP BND       X_T4U11  1
 UP BND       X_T4U12  1
 UP BND       X_T4U13  1
 UP BND       X_T4U14  1
 UP BND       X_T4U15  1
 UP BND       X_T4U16  1
 UP BND       X_T4U17  1
 UP BND       X_T4U18  1
 UP BND       X_T4U19  1
 UP BND       X_T4U20  1
 UP BND       X_T5U1  1
 UP BND       X_T5U2  1
 UP BND       X_T5U3  1
 UP BND       X_T5U4  1
 UP BND       X_T5U5  1
 UP BND       X_T5U6  1
 UP BND       X_T5U7  1
 UP BND       X_T5U8  1
 UP BND       X_T5U9  1
 UP BND       X_T5U10  1
 UP BND       X_T5U11  1
 UP BND       X_T5U12  1
 UP BND       X_T5U13  1
 UP BND       X_T5U14  1
 UP BND       X_T5U15  1
 UP BND       X_T5U16  1
 UP BND       X_T5U17  1
 UP BND       X_T5U18  1
 UP BND       X_T5U19  1
 UP BND       X_T5U20  1
 UP BND       X_T6U1  1
 UP BND       X_T6U2  1
 UP BND       X_T6U3  1
 UP BND       X_T6U4  1
 UP BND       X_T6U5  1
 UP BND       X_T6U6  1
 UP BND       X_T6U7  1
 UP BND       X_T6U8  1
 UP BND       X_T6U9  1
 UP BND       X_T6U10  1
 UP BND       X_T6U11  1
 UP BND       X_T6U12  1
 UP BND       X_T6U13  1
 UP BND       X_T6U14  1
 UP BND       X_T6U15  1
 UP BND       X_T6U16  1
 UP BND       X_T6U17  1
 UP BND       X_T6U18  1
 UP BND       X_T6U19  1
 UP BND       X_T6U20  1
 UP BND       X_T7U1  1
 UP BND       X_T7U2  1
 UP BND       X_T7U3  1
 UP BND       X_T7U4  1
 UP BND       X_T7U5  1
 UP BND       X_T7U6  1
 UP BND       X_T7U7  1
 UP BND       X_T7U8  1
 UP BND       X_T7U9  1
 UP BND       X_T7U10  1
 UP BND       X_T7U11  1
 UP BND       X_T7U12  1
 UP BND       X_T7U13  1
 UP BND       X_T7U14  1
 UP BND       X_T7U15  1
 UP BND       X_T7U16  1
 UP BND       X_T7U17  1
 UP BND       X_T7U18  1
 UP BND       X_T7U19  1
 UP BND       X_T7U20  1
 UP BND       X_T8U1  1
 UP BND       X_T8U2  1
 UP BND       X_T8U3  1
 UP BND       X_T8U4  1
 UP BND       X_T8U5  1
 UP BND       X_T8U6  1
 UP BND       X_T8U7  1
 UP BND       X_T8U8  1
 UP BND       X_T8U9  1
 UP BND       X_T8U10  1
 UP BND       X_T8U11  1
 UP BND       X_T8U12  1
 UP BND       X_T8U13  1
 UP BND       X_T8U14  1
 UP BND       X_T8U15  1
 UP BND       X_T8U16  1
 UP BND       X_T8U17  1
 UP BND       X_T8U18  1
 UP BND       X_T8U19  1
 UP BND       X_T8U20  1
 UP BND       X_T9U1  1
 UP BND       X_T9U2  1
 UP BND       X_T9U3  1
 UP BND       X_T9U4  1
 UP BND       X_T9U5  1
 UP BND       X_T9U6  1
 UP BND       X_T9U7  1
 UP BND       X_T9U8  1
 UP BND       X_T9U9  1
 UP BND       X_T9U10  1
 UP BND       X_T9U11  1
 UP BND       X_T9U12  1
 UP BND       X_T9U13  1
 UP BND       X_T9U14  1
 UP BND       X_T9U15  1
 UP BND       X_T9U16  1
 UP BND       X_T9U17  1
 UP BND       X_T9U18  1
 UP BND       X_T9U19  1
 UP BND       X_T9U20  1
 UP BND       X_T10U1  1
 UP BND       X_T10U2  1
 UP BND       X_T10U3  1
 UP BND       X_T10U4  1
 UP BND       X_T10U5  1
 UP BND       X_T10U6  1
 UP BND       X_T10U7  1
 UP BND       X_T10U8  1
 UP BND       X_T10U9  1
 UP BND       X_T10U10  1
 UP BND       X_T10U11  1
 UP BND       X_T10U12  1
 UP BND       X_T10U13  1
 UP BND       X_T10U14  1
 UP BND       X_T10U15  1
 UP BND       X_T10U16  1
 UP BND       X_T10U17  1
 UP BND       X_T10U18  1
 UP BND       X_T10U19  1
 UP BND       X_T10U20  1
 UP BND       X_T11U1  1
 UP BND       X_T11U2  1
 UP BND       X_T11U3  1
 UP BND       X_T11U4  1
 UP BND       X_T11U5  1
 UP BND       X_T11U6  1
 UP BND       X_T11U7  1
 UP BND       X_T11U8  1
 UP BND       X_T11U9  1
 UP BND       X_T11U10  1
 UP BND       X_T11U11  1
 UP BND       X_T11U12  1
 UP BND       X_T11U13  1
 UP BND       X_T11U14  1
 UP BND       X_T11U15  1
 UP BND       X_T11U16  1
 UP BND       X_T11U17  1
 UP BND       X_T11U18  1
 UP BND       X_T11U19  1
 UP BND       X_T11U20  1
 UP BND       X_T12U1  1
 UP BND       X_T12U2  1
 UP BND       X_T12U3  1
 UP BND       X_T12U4  1
 UP BND       X_T12U5  1
 UP BND       X_T12U6  1
 UP BND       X_T12U7  1
 UP BND       X_T12U8  1
 UP BND       X_T12U9  1
 UP BND       X_T12U10  1
 UP BND       X_T12U11  1
 UP BND       X_T12U12  1
 UP BND       X_T12U13  1
 UP BND       X_T12U14  1
 UP BND       X_T12U15  1
 UP BND       X_T12U16  1
 UP BND       X_T12U17  1
 UP BND       X_T12U18  1
 UP BND       X_T12U19  1
 UP BND       X_T12U20  1
 UP BND       X_T13U1  1
 UP BND       X_T13U2  1
 UP BND       X_T13U3  1
 UP BND       X_T13U4  1
 UP BND       X_T13U5  1
 UP BND       X_T13U6  1
 UP BND       X_T13U7  1
 UP BND       X_T13U8  1
 UP BND       X_T13U9  1
 UP BND       X_T13U10  1
 UP BND       X_T13U11  1
 UP BND       X_T13U12  1
 UP BND       X_T13U13  1
 UP BND       X_T13U14  1
 UP BND       X_T13U15  1
 UP BND       X_T13U16  1
 UP BND       X_T13U17  1
 UP BND       X_T13U18  1
 UP BND       X_T13U19  1
 UP BND       X_T13U20  1
 UP BND       X_T14U1  1
 UP BND       X_T14U2  1
 UP BND       X_T14U3  1
 UP BND       X_T14U4  1
 UP BND       X_T14U5  1
 UP BND       X_T14U6  1
 UP BND       X_T14U7  1
 UP BND       X_T14U8  1
 UP BND       X_T14U9  1
 UP BND       X_T14U10  1
 UP BND       X_T14U11  1
 UP BND       X_T14U12  1
 UP BND       X_T14U13  1
 UP BND       X_T14U14  1
 UP BND       X_T14U15  1
 UP BND       X_T14U16  1
 UP BND       X_T14U17  1
 UP BND       X_T14U18  1
 UP BND       X_T14U19  1
 UP BND       X_T14U20  1
 UP BND       X_T15U1  1
 UP BND       X_T15U2  1
 UP BND       X_T15U3  1
 UP BND       X_T15U4  1
 UP BND       X_T15U5  1
 UP BND       X_T15U6  1
 UP BND       X_T15U7  1
 UP BND       X_T15U8  1
 UP BND       X_T15U9  1
 UP BND       X_T15U10  1
 UP BND       X_T15U11  1
 UP BND       X_T15U12  1
 UP BND       X_T15U13  1
 UP BND       X_T15U14  1
 UP BND       X_T15U15  1
 UP BND       X_T15U16  1
 UP BND       X_T15U17  1
 UP BND       X_T15U18  1
 UP BND       X_T15U19  1
 UP BND       X_T15U20  1
 UP BND       X_T16U1  1
 UP BND       X_T16U2  1
 UP BND       X_T16U3  1
 UP BND       X_T16U4  1
 UP BND       X_T16U5  1
 UP BND       X_T16U6  1
 UP BND       X_T16U7  1
 UP BND       X_T16U8  1
 UP BND       X_T16U9  1
 UP BND       X_T16U10  1
 UP BND       X_T16U11  1
 UP BND       X_T16U12  1
 UP BND       X_T16U13  1
 UP BND       X_T16U14  1
 UP BND       X_T16U15  1
 UP BND       X_T16U16  1
 UP BND       X_T16U17  1
 UP BND       X_T16U18  1
 UP BND       X_T16U19  1
 UP BND       X_T16U20  1
 UP BND       X_T17U1  1
 UP BND       X_T17U2  1
 UP BND       X_T17U3  1
 UP BND       X_T17U4  1
 UP BND       X_T17U5  1
 UP BND       X_T17U6  1
 UP BND       X_T17U7  1
 UP BND       X_T17U8  1
 UP BND       X_T17U9  1
 UP BND       X_T17U10  1
 UP BND       X_T17U11  1
 UP BND       X_T17U12  1
 UP BND       X_T17U13  1
 UP BND       X_T17U14  1
 UP BND       X_T17U15  1
 UP BND       X_T17U16  1
 UP BND       X_T17U17  1
 UP BND       X_T17U18  1
 UP BND       X_T17U19  1
 UP BND       X_T17U20  1
 UP BND       X_T18U1  1
 UP BND       X_T18U2  1
 UP BND       X_T18U3  1
 UP BND       X_T18U4  1
 UP BND       X_T18U5  1
 UP BND       X_T18U6  1
 UP BND       X_T18U7  1
 UP BND       X_T18U8  1
 UP BND       X_T18U9  1
 UP BND       X_T18U10  1
 UP BND       X_T18U11  1
 UP BND       X_T18U12  1
 UP BND       X_T18U13  1
 UP BND       X_T18U14  1
 UP BND       X_T18U15  1
 UP BND       X_T18U16  1
 UP BND       X_T18U17  1
 UP BND       X_T18U18  1
 UP BND       X_T18U19  1
 UP BND       X_T18U20  1
 UP BND       X_T19U1  1
 UP BND       X_T19U2  1
 UP BND       X_T19U3  1
 UP BND       X_T19U4  1
 UP BND       X_T19U5  1
 UP BND       X_T19U6  1
 UP BND       X_T19U7  1
 UP BND       X_T19U8  1
 UP BND       X_T19U9  1
 UP BND       X_T19U10  1
 UP BND       X_T19U11  1
 UP BND       X_T19U12  1
 UP BND       X_T19U13  1
 UP BND       X_T19U14  1
 UP BND       X_T19U15  1
 UP BND       X_T19U16  1
 UP BND       X_T19U17  1
 UP BND       X_T19U18  1
 UP BND       X_T19U19  1
 UP BND       X_T19U20  1
 UP BND       X_T20U1  1
 UP BND       X_T20U2  1
 UP BND       X_T20U3  1
 UP BND       X_T20U4  1
 UP BND       X_T20U5  1
 UP BND       X_T20U6  1
 UP BND       X_T20U7  1
 UP BND       X_T20U8  1
 UP BND       X_T20U9  1
 UP BND       X_T20U10  1
 UP BND       X_T20U11  1
 UP BND       X_T20U12  1
 UP BND       X_T20U13  1
 UP BND       X_T20U14  1
 UP BND       X_T20U15  1
 UP BND       X_T20U16  1
 UP BND       X_T20U17  1
 UP BND       X_T20U18  1
 UP BND       X_T20U19  1
 UP BND       X_T20U20  1
 UP BND       X_T21U1  1
 UP BND       X_T21U2  1
 UP BND       X_T21U3  1
 UP BND       X_T21U4  1
 UP BND       X_T21U5  1
 UP BND       X_T21U6  1
 UP BND       X_T21U7  1
 UP BND       X_T21U8  1
 UP BND       X_T21U9  1
 UP BND       X_T21U10  1
 UP BND       X_T21U11  1
 UP BND       X_T21U12  1
 UP BND       X_T21U13  1
 UP BND       X_T21U14  1
 UP BND       X_T21U15  1
 UP BND       X_T21U16  1
 UP BND       X_T21U17  1
 UP BND       X_T21U18  1
 UP BND       X_T21U19  1
 UP BND       X_T21U20  1
 UP BND       X_T22U1  1
 UP BND       X_T22U2  1
 UP BND       X_T22U3  1
 UP BND       X_T22U4  1
 UP BND       X_T22U5  1
 UP BND       X_T22U6  1
 UP BND       X_T22U7  1
 UP BND       X_T22U8  1
 UP BND       X_T22U9  1
 UP BND       X_T22U10  1
 UP BND       X_T22U11  1
 UP BND       X_T22U12  1
 UP BND       X_T22U13  1
 UP BND       X_T22U14  1
 UP BND       X_T22U15  1
 UP BND       X_T22U16  1
 UP BND       X_T22U17  1
 UP BND       X_T22U18  1
 UP BND       X_T22U19  1
 UP BND       X_T22U20  1
 UP BND       X_T23U1  1
 UP BND       X_T23U2  1
 UP BND       X_T23U3  1
 UP BND       X_T23U4  1
 UP BND       X_T23U5  1
 UP BND       X_T23U6  1
 UP BND       X_T23U7  1
 UP BND       X_T23U8  1
 UP BND       X_T23U9  1
 UP BND       X_T23U10  1
 UP BND       X_T23U11  1
 UP BND       X_T23U12  1
 UP BND       X_T23U13  1
 UP BND       X_T23U14  1
 UP BND       X_T23U15  1
 UP BND       X_T23U16  1
 UP BND       X_T23U17  1
 UP BND       X_T23U18  1
 UP BND       X_T23U19  1
 UP BND       X_T23U20  1
 UP BND       X_T24U1  1
 UP BND       X_T24U2  1
 UP BND       X_T24U3  1
 UP BND       X_T24U4  1
 UP BND       X_T24U5  1
 UP BND       X_T24U6  1
 UP BND       X_T24U7  1
 UP BND       X_T24U8  1
 UP BND       X_T24U9  1
 UP BND       X_T24U10  1
 UP BND       X_T24U11  1
 UP BND       X_T24U12  1
 UP BND       X_T24U13  1
 UP BND       X_T24U14  1
 UP BND       X_T24U15  1
 UP BND       X_T24U16  1
 UP BND       X_T24U17  1
 UP BND       X_T24U18  1
 UP BND       X_T24U19  1
 UP BND       X_T24U20  1
 UP BND       X_T25U1  1
 UP BND       X_T25U2  1
 UP BND       X_T25U3  1
 UP BND       X_T25U4  1
 UP BND       X_T25U5  1
 UP BND       X_T25U6  1
 UP BND       X_T25U7  1
 UP BND       X_T25U8  1
 UP BND       X_T25U9  1
 UP BND       X_T25U10  1
 UP BND       X_T25U11  1
 UP BND       X_T25U12  1
 UP BND       X_T25U13  1
 UP BND       X_T25U14  1
 UP BND       X_T25U15  1
 UP BND       X_T25U16  1
 UP BND       X_T25U17  1
 UP BND       X_T25U18  1
 UP BND       X_T25U19  1
 UP BND       X_T25U20  1
 UP BND       X_T26U1  1
 UP BND       X_T26U2  1
 UP BND       X_T26U3  1
 UP BND       X_T26U4  1
 UP BND       X_T26U5  1
 UP BND       X_T26U6  1
 UP BND       X_T26U7  1
 UP BND       X_T26U8  1
 UP BND       X_T26U9  1
 UP BND       X_T26U10  1
 UP BND       X_T26U11  1
 UP BND       X_T26U12  1
 UP BND       X_T26U13  1
 UP BND       X_T26U14  1
 UP BND       X_T26U15  1
 UP BND       X_T26U16  1
 UP BND       X_T26U17  1
 UP BND       X_T26U18  1
 UP BND       X_T26U19  1
 UP BND       X_T26U20  1
 UP BND       X_T27U1  1
 UP BND       X_T27U2  1
 UP BND       X_T27U3  1
 UP BND       X_T27U4  1
 UP BND       X_T27U5  1
 UP BND       X_T27U6  1
 UP BND       X_T27U7  1
 UP BND       X_T27U8  1
 UP BND       X_T27U9  1
 UP BND       X_T27U10  1
 UP BND       X_T27U11  1
 UP BND       X_T27U12  1
 UP BND       X_T27U13  1
 UP BND       X_T27U14  1
 UP BND       X_T27U15  1
 UP BND       X_T27U16  1
 UP BND       X_T27U17  1
 UP BND       X_T27U18  1
 UP BND       X_T27U19  1
 UP BND       X_T27U20  1
 UP BND       X_T28U1  1
 UP BND       X_T28U2  1
 UP BND       X_T28U3  1
 UP BND       X_T28U4  1
 UP BND       X_T28U5  1
 UP BND       X_T28U6  1
 UP BND       X_T28U7  1
 UP BND       X_T28U8  1
 UP BND       X_T28U9  1
 UP BND       X_T28U10  1
 UP BND       X_T28U11  1
 UP BND       X_T28U12  1
 UP BND       X_T28U13  1
 UP BND       X_T28U14  1
 UP BND       X_T28U15  1
 UP BND       X_T28U16  1
 UP BND       X_T28U17  1
 UP BND       X_T28U18  1
 UP BND       X_T28U19  1
 UP BND       X_T28U20  1
 UP BND       X_T29U1  1
 UP BND       X_T29U2  1
 UP BND       X_T29U3  1
 UP BND       X_T29U4  1
 UP BND       X_T29U5  1
 UP BND       X_T29U6  1
 UP BND       X_T29U7  1
 UP BND       X_T29U8  1
 UP BND       X_T29U9  1
 UP BND       X_T29U10  1
 UP BND       X_T29U11  1
 UP BND       X_T29U12  1
 UP BND       X_T29U13  1
 UP BND       X_T29U14  1
 UP BND       X_T29U15  1
 UP BND       X_T29U16  1
 UP BND       X_T29U17  1
 UP BND       X_T29U18  1
 UP BND       X_T29U19  1
 UP BND       X_T29U20  1
 UP BND       X_T30U1  1
 UP BND       X_T30U2  1
 UP BND       X_T30U3  1
 UP BND       X_T30U4  1
 UP BND       X_T30U5  1
 UP BND       X_T30U6  1
 UP BND       X_T30U7  1
 UP BND       X_T30U8  1
 UP BND       X_T30U9  1
 UP BND       X_T30U10  1
 UP BND       X_T30U11  1
 UP BND       X_T30U12  1
 UP BND       X_T30U13  1
 UP BND       X_T30U14  1
 UP BND       X_T30U15  1
 UP BND       X_T30U16  1
 UP BND       X_T30U17  1
 UP BND       X_T30U18  1
 UP BND       X_T30U19  1
 UP BND       X_T30U20  1
 UP BND       X_T31U1  1
 UP BND       X_T31U2  1
 UP BND       X_T31U3  1
 UP BND       X_T31U4  1
 UP BND       X_T31U5  1
 UP BND       X_T31U6  1
 UP BND       X_T31U7  1
 UP BND       X_T31U8  1
 UP BND       X_T31U9  1
 UP BND       X_T31U10  1
 UP BND       X_T31U11  1
 UP BND       X_T31U12  1
 UP BND       X_T31U13  1
 UP BND       X_T31U14  1
 UP BND       X_T31U15  1
 UP BND       X_T31U16  1
 UP BND       X_T31U17  1
 UP BND       X_T31U18  1
 UP BND       X_T31U19  1
 UP BND       X_T31U20  1
 UP BND       X_T32U1  1
 UP BND       X_T32U2  1
 UP BND       X_T32U3  1
 UP BND       X_T32U4  1
 UP BND       X_T32U5  1
 UP BND       X_T32U6  1
 UP BND       X_T32U7  1
 UP BND       X_T32U8  1
 UP BND       X_T32U9  1
 UP BND       X_T32U10  1
 UP BND       X_T32U11  1
 UP BND       X_T32U12  1
 UP BND       X_T32U13  1
 UP BND       X_T32U14  1
 UP BND       X_T32U15  1
 UP BND       X_T32U16  1
 UP BND       X_T32U17  1
 UP BND       X_T32U18  1
 UP BND       X_T32U19  1
 UP BND       X_T32U20  1
 UP BND       X_T33U1  1
 UP BND       X_T33U2  1
 UP BND       X_T33U3  1
 UP BND       X_T33U4  1
 UP BND       X_T33U5  1
 UP BND       X_T33U6  1
 UP BND       X_T33U7  1
 UP BND       X_T33U8  1
 UP BND       X_T33U9  1
 UP BND       X_T33U10  1
 UP BND       X_T33U11  1
 UP BND       X_T33U12  1
 UP BND       X_T33U13  1
 UP BND       X_T33U14  1
 UP BND       X_T33U15  1
 UP BND       X_T33U16  1
 UP BND       X_T33U17  1
 UP BND       X_T33U18  1
 UP BND       X_T33U19  1
 UP BND       X_T33U20  1
 UP BND       X_T34U1  1
 UP BND       X_T34U2  1
 UP BND       X_T34U3  1
 UP BND       X_T34U4  1
 UP BND       X_T34U5  1
 UP BND       X_T34U6  1
 UP BND       X_T34U7  1
 UP BND       X_T34U8  1
 UP BND       X_T34U9  1
 UP BND       X_T34U10  1
 UP BND       X_T34U11  1
 UP BND       X_T34U12  1
 UP BND       X_T34U13  1
 UP BND       X_T34U14  1
 UP BND       X_T34U15  1
 UP BND       X_T34U16  1
 UP BND       X_T34U17  1
 UP BND       X_T34U18  1
 UP BND       X_T34U19  1
 UP BND       X_T34U20  1
 UP BND       X_T35U1  1
 UP BND       X_T35U2  1
 UP BND       X_T35U3  1
 UP BND       X_T35U4  1
 UP BND       X_T35U5  1
 UP BND       X_T35U6  1
 UP BND       X_T35U7  1
 UP BND       X_T35U8  1
 UP BND       X_T35U9  1
 UP BND       X_T35U10  1
 UP BND       X_T35U11  1
 UP BND       X_T35U12  1
 UP BND       X_T35U13  1
 UP BND       X_T35U14  1
 UP BND       X_T35U15  1
 UP BND       X_T35U16  1
 UP BND       X_T35U17  1
 UP BND       X_T35U18  1
 UP BND       X_T35U19  1
 UP BND       X_T35U20  1
 UP BND       X_T36U1  1
 UP BND       X_T36U2  1
 UP BND       X_T36U3  1
 UP BND       X_T36U4  1
 UP BND       X_T36U5  1
 UP BND       X_T36U6  1
 UP BND       X_T36U7  1
 UP BND       X_T36U8  1
 UP BND       X_T36U9  1
 UP BND       X_T36U10  1
 UP BND       X_T36U11  1
 UP BND       X_T36U12  1
 UP BND       X_T36U13  1
 UP BND       X_T36U14  1
 UP BND       X_T36U15  1
 UP BND       X_T36U16  1
 UP BND       X_T36U17  1
 UP BND       X_T36U18  1
 UP BND       X_T36U19  1
 UP BND       X_T36U20  1
 UP BND       X_T37U1  1
 UP BND       X_T37U2  1
 UP BND       X_T37U3  1
 UP BND       X_T37U4  1
 UP BND       X_T37U5  1
 UP BND       X_T37U6  1
 UP BND       X_T37U7  1
 UP BND       X_T37U8  1
 UP BND       X_T37U9  1
 UP BND       X_T37U10  1
 UP BND       X_T37U11  1
 UP BND       X_T37U12  1
 UP BND       X_T37U13  1
 UP BND       X_T37U14  1
 UP BND       X_T37U15  1
 UP BND       X_T37U16  1
 UP BND       X_T37U17  1
 UP BND       X_T37U18  1
 UP BND       X_T37U19  1
 UP BND       X_T37U20  1
 UP BND       X_T38U1  1
 UP BND       X_T38U2  1
 UP BND       X_T38U3  1
 UP BND       X_T38U4  1
 UP BND       X_T38U5  1
 UP BND       X_T38U6  1
 UP BND       X_T38U7  1
 UP BND       X_T38U8  1
 UP BND       X_T38U9  1
 UP BND       X_T38U10  1
 UP BND       X_T38U11  1
 UP BND       X_T38U12  1
 UP BND       X_T38U13  1
 UP BND       X_T38U14  1
 UP BND       X_T38U15  1
 UP BND       X_T38U16  1
 UP BND       X_T38U17  1
 UP BND       X_T38U18  1
 UP BND       X_T38U19  1
 UP BND       X_T38U20  1
 UP BND       X_T39U1  1
 UP BND       X_T39U2  1
 UP BND       X_T39U3  1
 UP BND       X_T39U4  1
 UP BND       X_T39U5  1
 UP BND       X_T39U6  1
 UP BND       X_T39U7  1
 UP BND       X_T39U8  1
 UP BND       X_T39U9  1
 UP BND       X_T39U10  1
 UP BND       X_T39U11  1
 UP BND       X_T39U12  1
 UP BND       X_T39U13  1
 UP BND       X_T39U14  1
 UP BND       X_T39U15  1
 UP BND       X_T39U16  1
 UP BND       X_T39U17  1
 UP BND       X_T39U18  1
 UP BND       X_T39U19  1
 UP BND       X_T39U20  1
 UP BND       X_T40U1  1
 UP BND       X_T40U2  1
 UP BND       X_T40U3  1
 UP BND       X_T40U4  1
 UP BND       X_T40U5  1
 UP BND       X_T40U6  1
 UP BND       X_T40U7  1
 UP BND       X_T40U8  1
 UP BND       X_T40U9  1
 UP BND       X_T40U10  1
 UP BND       X_T40U11  1
 UP BND       X_T40U12  1
 UP BND       X_T40U13  1
 UP BND       X_T40U14  1
 UP BND       X_T40U15  1
 UP BND       X_T40U16  1
 UP BND       X_T40U17  1
 UP BND       X_T40U18  1
 UP BND       X_T40U19  1
 UP BND       X_T40U20  1
 UP BND       X_T41U1  1
 UP BND       X_T41U2  1
 UP BND       X_T41U3  1
 UP BND       X_T41U4  1
 UP BND       X_T41U5  1
 UP BND       X_T41U6  1
 UP BND       X_T41U7  1
 UP BND       X_T41U8  1
 UP BND       X_T41U9  1
 UP BND       X_T41U10  1
 UP BND       X_T41U11  1
 UP BND       X_T41U12  1
 UP BND       X_T41U13  1
 UP BND       X_T41U14  1
 UP BND       X_T41U15  1
 UP BND       X_T41U16  1
 UP BND       X_T41U17  1
 UP BND       X_T41U18  1
 UP BND       X_T41U19  1
 UP BND       X_T41U20  1
 UP BND       X_T42U1  1
 UP BND       X_T42U2  1
 UP BND       X_T42U3  1
 UP BND       X_T42U4  1
 UP BND       X_T42U5  1
 UP BND       X_T42U6  1
 UP BND       X_T42U7  1
 UP BND       X_T42U8  1
 UP BND       X_T42U9  1
 UP BND       X_T42U10  1
 UP BND       X_T42U11  1
 UP BND       X_T42U12  1
 UP BND       X_T42U13  1
 UP BND       X_T42U14  1
 UP BND       X_T42U15  1
 UP BND       X_T42U16  1
 UP BND       X_T42U17  1
 UP BND       X_T42U18  1
 UP BND       X_T42U19  1
 UP BND       X_T42U20  1
 UP BND       X_T43U1  1
 UP BND       X_T43U2  1
 UP BND       X_T43U3  1
 UP BND       X_T43U4  1
 UP BND       X_T43U5  1
 UP BND       X_T43U6  1
 UP BND       X_T43U7  1
 UP BND       X_T43U8  1
 UP BND       X_T43U9  1
 UP BND       X_T43U10  1
 UP BND       X_T43U11  1
 UP BND       X_T43U12  1
 UP BND       X_T43U13  1
 UP BND       X_T43U14  1
 UP BND       X_T43U15  1
 UP BND       X_T43U16  1
 UP BND       X_T43U17  1
 UP BND       X_T43U18  1
 UP BND       X_T43U19  1
 UP BND       X_T43U20  1
 UP BND       X_T44U1  1
 UP BND       X_T44U2  1
 UP BND       X_T44U3  1
 UP BND       X_T44U4  1
 UP BND       X_T44U5  1
 UP BND       X_T44U6  1
 UP BND       X_T44U7  1
 UP BND       X_T44U8  1
 UP BND       X_T44U9  1
 UP BND       X_T44U10  1
 UP BND       X_T44U11  1
 UP BND       X_T44U12  1
 UP BND       X_T44U13  1
 UP BND       X_T44U14  1
 UP BND       X_T44U15  1
 UP BND       X_T44U16  1
 UP BND       X_T44U17  1
 UP BND       X_T44U18  1
 UP BND       X_T44U19  1
 UP BND       X_T44U20  1
 UP BND       X_T45U1  1
 UP BND       X_T45U2  1
 UP BND       X_T45U3  1
 UP BND       X_T45U4  1
 UP BND       X_T45U5  1
 UP BND       X_T45U6  1
 UP BND       X_T45U7  1
 UP BND       X_T45U8  1
 UP BND       X_T45U9  1
 UP BND       X_T45U10  1
 UP BND       X_T45U11  1
 UP BND       X_T45U12  1
 UP BND       X_T45U13  1
 UP BND       X_T45U14  1
 UP BND       X_T45U15  1
 UP BND       X_T45U16  1
 UP BND       X_T45U17  1
 UP BND       X_T45U18  1
 UP BND       X_T45U19  1
 UP BND       X_T45U20  1
 UP BND       X_T46U1  1
 UP BND       X_T46U2  1
 UP BND       X_T46U3  1
 UP BND       X_T46U4  1
 UP BND       X_T46U5  1
 UP BND       X_T46U6  1
 UP BND       X_T46U7  1
 UP BND       X_T46U8  1
 UP BND       X_T46U9  1
 UP BND       X_T46U10  1
 UP BND       X_T46U11  1
 UP BND       X_T46U12  1
 UP BND       X_T46U13  1
 UP BND       X_T46U14  1
 UP BND       X_T46U15  1
 UP BND       X_T46U16  1
 UP BND       X_T46U17  1
 UP BND       X_T46U18  1
 UP BND       X_T46U19  1
 UP BND       X_T46U20  1
 UP BND       X_T47U1  1
 UP BND       X_T47U2  1
 UP BND       X_T47U3  1
 UP BND       X_T47U4  1
 UP BND       X_T47U5  1
 UP BND       X_T47U6  1
 UP BND       X_T47U7  1
 UP BND       X_T47U8  1
 UP BND       X_T47U9  1
 UP BND       X_T47U10  1
 UP BND       X_T47U11  1
 UP BND       X_T47U12  1
 UP BND       X_T47U13  1
 UP BND       X_T47U14  1
 UP BND       X_T47U15  1
 UP BND       X_T47U16  1
 UP BND       X_T47U17  1
 UP BND       X_T47U18  1
 UP BND       X_T47U19  1
 UP BND       X_T47U20  1
 UP BND       X_T48U1  1
 UP BND       X_T48U2  1
 UP BND       X_T48U3  1
 UP BND       X_T48U4  1
 UP BND       X_T48U5  1
 UP BND       X_T48U6  1
 UP BND       X_T48U7  1
 UP BND       X_T48U8  1
 UP BND       X_T48U9  1
 UP BND       X_T48U10  1
 UP BND       X_T48U11  1
 UP BND       X_T48U12  1
 UP BND       X_T48U13  1
 UP BND       X_T48U14  1
 UP BND       X_T48U15  1
 UP BND       X_T48U16  1
 UP BND       X_T48U17  1
 UP BND       X_T48U18  1
 UP BND       X_T48U19  1
 UP BND       X_T48U20  1
 UP BND       X_T49U1  1
 UP BND       X_T49U2  1
 UP BND       X_T49U3  1
 UP BND       X_T49U4  1
 UP BND       X_T49U5  1
 UP BND       X_T49U6  1
 UP BND       X_T49U7  1
 UP BND       X_T49U8  1
 UP BND       X_T49U9  1
 UP BND       X_T49U10  1
 UP BND       X_T49U11  1
 UP BND       X_T49U12  1
 UP BND       X_T49U13  1
 UP BND       X_T49U14  1
 UP BND       X_T49U15  1
 UP BND       X_T49U16  1
 UP BND       X_T49U17  1
 UP BND       X_T49U18  1
 UP BND       X_T49U19  1
 UP BND       X_T49U20  1
 UP BND       X_T50U1  1
 UP BND       X_T50U2  1
 UP BND       X_T50U3  1
 UP BND       X_T50U4  1
 UP BND       X_T50U5  1
 UP BND       X_T50U6  1
 UP BND       X_T50U7  1
 UP BND       X_T50U8  1
 UP BND       X_T50U9  1
 UP BND       X_T50U10  1
 UP BND       X_T50U11  1
 UP BND       X_T50U12  1
 UP BND       X_T50U13  1
 UP BND       X_T50U14  1
 UP BND       X_T50U15  1
 UP BND       X_T50U16  1
 UP BND       X_T50U17  1
 UP BND       X_T50U18  1
 UP BND       X_T50U19  1
 UP BND       X_T50U20  1
 UP BND       X_T51U1  1
 UP BND       X_T51U2  1
 UP BND       X_T51U3  1
 UP BND       X_T51U4  1
 UP BND       X_T51U5  1
 UP BND       X_T51U6  1
 UP BND       X_T51U7  1
 UP BND       X_T51U8  1
 UP BND       X_T51U9  1
 UP BND       X_T51U10  1
 UP BND       X_T51U11  1
 UP BND       X_T51U12  1
 UP BND       X_T51U13  1
 UP BND       X_T51U14  1
 UP BND       X_T51U15  1
 UP BND       X_T51U16  1
 UP BND       X_T51U17  1
 UP BND       X_T51U18  1
 UP BND       X_T51U19  1
 UP BND       X_T51U20  1
 UP BND       X_T52U1  1
 UP BND       X_T52U2  1
 UP BND       X_T52U3  1
 UP BND       X_T52U4  1
 UP BND       X_T52U5  1
 UP BND       X_T52U6  1
 UP BND       X_T52U7  1
 UP BND       X_T52U8  1
 UP BND       X_T52U9  1
 UP BND       X_T52U10  1
 UP BND       X_T52U11  1
 UP BND       X_T52U12  1
 UP BND       X_T52U13  1
 UP BND       X_T52U14  1
 UP BND       X_T52U15  1
 UP BND       X_T52U16  1
 UP BND       X_T52U17  1
 UP BND       X_T52U18  1
 UP BND       X_T52U19  1
 UP BND       X_T52U20  1
 UP BND       X_T53U1  1
 UP BND       X_T53U2  1
 UP BND       X_T53U3  1
 UP BND       X_T53U4  1
 UP BND       X_T53U5  1
 UP BND       X_T53U6  1
 UP BND       X_T53U7  1
 UP BND       X_T53U8  1
 UP BND       X_T53U9  1
 UP BND       X_T53U10  1
 UP BND       X_T53U11  1
 UP BND       X_T53U12  1
 UP BND       X_T53U13  1
 UP BND       X_T53U14  1
 UP BND       X_T53U15  1
 UP BND       X_T53U16  1
 UP BND       X_T53U17  1
 UP BND       X_T53U18  1
 UP BND       X_T53U19  1
 UP BND       X_T53U20  1
 UP BND       X_T54U1  1
 UP BND       X_T54U2  1
 UP BND       X_T54U3  1
 UP BND       X_T54U4  1
 UP BND       X_T54U5  1
 UP BND       X_T54U6  1
 UP BND       X_T54U7  1
 UP BND       X_T54U8  1
 UP BND       X_T54U9  1
 UP BND       X_T54U10  1
 UP BND       X_T54U11  1
 UP BND       X_T54U12  1
 UP BND       X_T54U13  1
 UP BND       X_T54U14  1
 UP BND       X_T54U15  1
 UP BND       X_T54U16  1
 UP BND       X_T54U17  1
 UP BND       X_T54U18  1
 UP BND       X_T54U19  1
 UP BND       X_T54U20  1
 UP BND       X_T55U1  1
 UP BND       X_T55U2  1
 UP BND       X_T55U3  1
 UP BND       X_T55U4  1
 UP BND       X_T55U5  1
 UP BND       X_T55U6  1
 UP BND       X_T55U7  1
 UP BND       X_T55U8  1
 UP BND       X_T55U9  1
 UP BND       X_T55U10  1
 UP BND       X_T55U11  1
 UP BND       X_T55U12  1
 UP BND       X_T55U13  1
 UP BND       X_T55U14  1
 UP BND       X_T55U15  1
 UP BND       X_T55U16  1
 UP BND       X_T55U17  1
 UP BND       X_T55U18  1
 UP BND       X_T55U19  1
 UP BND       X_T55U20  1
 UP BND       X_T56U1  1
 UP BND       X_T56U2  1
 UP BND       X_T56U3  1
 UP BND       X_T56U4  1
 UP BND       X_T56U5  1
 UP BND       X_T56U6  1
 UP BND       X_T56U7  1
 UP BND       X_T56U8  1
 UP BND       X_T56U9  1
 UP BND       X_T56U10  1
 UP BND       X_T56U11  1
 UP BND       X_T56U12  1
 UP BND       X_T56U13  1
 UP BND       X_T56U14  1
 UP BND       X_T56U15  1
 UP BND       X_T56U16  1
 UP BND       X_T56U17  1
 UP BND       X_T56U18  1
 UP BND       X_T56U19  1
 UP BND       X_T56U20  1
 UP BND       X_T57U1  1
 UP BND       X_T57U2  1
 UP BND       X_T57U3  1
 UP BND       X_T57U4  1
 UP BND       X_T57U5  1
 UP BND       X_T57U6  1
 UP BND       X_T57U7  1
 UP BND       X_T57U8  1
 UP BND       X_T57U9  1
 UP BND       X_T57U10  1
 UP BND       X_T57U11  1
 UP BND       X_T57U12  1
 UP BND       X_T57U13  1
 UP BND       X_T57U14  1
 UP BND       X_T57U15  1
 UP BND       X_T57U16  1
 UP BND       X_T57U17  1
 UP BND       X_T57U18  1
 UP BND       X_T57U19  1
 UP BND       X_T57U20  1
 UP BND       X_T58U1  1
 UP BND       X_T58U2  1
 UP BND       X_T58U3  1
 UP BND       X_T58U4  1
 UP BND       X_T58U5  1
 UP BND       X_T58U6  1
 UP BND       X_T58U7  1
 UP BND       X_T58U8  1
 UP BND       X_T58U9  1
 UP BND       X_T58U10  1
 UP BND       X_T58U11  1
 UP BND       X_T58U12  1
 UP BND       X_T58U13  1
 UP BND       X_T58U14  1
 UP BND       X_T58U15  1
 UP BND       X_T58U16  1
 UP BND       X_T58U17  1
 UP BND       X_T58U18  1
 UP BND       X_T58U19  1
 UP BND       X_T58U20  1
 UP BND       X_T59U1  1
 UP BND       X_T59U2  1
 UP BND       X_T59U3  1
 UP BND       X_T59U4  1
 UP BND       X_T59U5  1
 UP BND       X_T59U6  1
 UP BND       X_T59U7  1
 UP BND       X_T59U8  1
 UP BND       X_T59U9  1
 UP BND       X_T59U10  1
 UP BND       X_T59U11  1
 UP BND       X_T59U12  1
 UP BND       X_T59U13  1
 UP BND       X_T59U14  1
 UP BND       X_T59U15  1
 UP BND       X_T59U16  1
 UP BND       X_T59U17  1
 UP BND       X_T59U18  1
 UP BND       X_T59U19  1
 UP BND       X_T59U20  1
 UP BND       X_T60U1  1
 UP BND       X_T60U2  1
 UP BND       X_T60U3  1
 UP BND       X_T60U4  1
 UP BND       X_T60U5  1
 UP BND       X_T60U6  1
 UP BND       X_T60U7  1
 UP BND       X_T60U8  1
 UP BND       X_T60U9  1
 UP BND       X_T60U10  1
 UP BND       X_T60U11  1
 UP BND       X_T60U12  1
 UP BND       X_T60U13  1
 UP BND       X_T60U14  1
 UP BND       X_T60U15  1
 UP BND       X_T60U16  1
 UP BND       X_T60U17  1
 UP BND       X_T60U18  1
 UP BND       X_T60U19  1
 UP BND       X_T60U20  1
 UP BND       X_T61U1  1
 UP BND       X_T61U2  1
 UP BND       X_T61U3  1
 UP BND       X_T61U4  1
 UP BND       X_T61U5  1
 UP BND       X_T61U6  1
 UP BND       X_T61U7  1
 UP BND       X_T61U8  1
 UP BND       X_T61U9  1
 UP BND       X_T61U10  1
 UP BND       X_T61U11  1
 UP BND       X_T61U12  1
 UP BND       X_T61U13  1
 UP BND       X_T61U14  1
 UP BND       X_T61U15  1
 UP BND       X_T61U16  1
 UP BND       X_T61U17  1
 UP BND       X_T61U18  1
 UP BND       X_T61U19  1
 UP BND       X_T61U20  1
 UP BND       X_T62U1  1
 UP BND       X_T62U2  1
 UP BND       X_T62U3  1
 UP BND       X_T62U4  1
 UP BND       X_T62U5  1
 UP BND       X_T62U6  1
 UP BND       X_T62U7  1
 UP BND       X_T62U8  1
 UP BND       X_T62U9  1
 UP BND       X_T62U10  1
 UP BND       X_T62U11  1
 UP BND       X_T62U12  1
 UP BND       X_T62U13  1
 UP BND       X_T62U14  1
 UP BND       X_T62U15  1
 UP BND       X_T62U16  1
 UP BND       X_T62U17  1
 UP BND       X_T62U18  1
 UP BND       X_T62U19  1
 UP BND       X_T62U20  1
 UP BND       X_T63U1  1
 UP BND       X_T63U2  1
 UP BND       X_T63U3  1
 UP BND       X_T63U4  1
 UP BND       X_T63U5  1
 UP BND       X_T63U6  1
 UP BND       X_T63U7  1
 UP BND       X_T63U8  1
 UP BND       X_T63U9  1
 UP BND       X_T63U10  1
 UP BND       X_T63U11  1
 UP BND       X_T63U12  1
 UP BND       X_T63U13  1
 UP BND       X_T63U14  1
 UP BND       X_T63U15  1
 UP BND       X_T63U16  1
 UP BND       X_T63U17  1
 UP BND       X_T63U18  1
 UP BND       X_T63U19  1
 UP BND       X_T63U20  1
 UP BND       X_T64U1  1
 UP BND       X_T64U2  1
 UP BND       X_T64U3  1
 UP BND       X_T64U4  1
 UP BND       X_T64U5  1
 UP BND       X_T64U6  1
 UP BND       X_T64U7  1
 UP BND       X_T64U8  1
 UP BND       X_T64U9  1
 UP BND       X_T64U10  1
 UP BND       X_T64U11  1
 UP BND       X_T64U12  1
 UP BND       X_T64U13  1
 UP BND       X_T64U14  1
 UP BND       X_T64U15  1
 UP BND       X_T64U16  1
 UP BND       X_T64U17  1
 UP BND       X_T64U18  1
 UP BND       X_T64U19  1
 UP BND       X_T64U20  1
 UP BND       X_T65U1  1
 UP BND       X_T65U2  1
 UP BND       X_T65U3  1
 UP BND       X_T65U4  1
 UP BND       X_T65U5  1
 UP BND       X_T65U6  1
 UP BND       X_T65U7  1
 UP BND       X_T65U8  1
 UP BND       X_T65U9  1
 UP BND       X_T65U10  1
 UP BND       X_T65U11  1
 UP BND       X_T65U12  1
 UP BND       X_T65U13  1
 UP BND       X_T65U14  1
 UP BND       X_T65U15  1
 UP BND       X_T65U16  1
 UP BND       X_T65U17  1
 UP BND       X_T65U18  1
 UP BND       X_T65U19  1
 UP BND       X_T65U20  1
 UP BND       X_T66U1  1
 UP BND       X_T66U2  1
 UP BND       X_T66U3  1
 UP BND       X_T66U4  1
 UP BND       X_T66U5  1
 UP BND       X_T66U6  1
 UP BND       X_T66U7  1
 UP BND       X_T66U8  1
 UP BND       X_T66U9  1
 UP BND       X_T66U10  1
 UP BND       X_T66U11  1
 UP BND       X_T66U12  1
 UP BND       X_T66U13  1
 UP BND       X_T66U14  1
 UP BND       X_T66U15  1
 UP BND       X_T66U16  1
 UP BND       X_T66U17  1
 UP BND       X_T66U18  1
 UP BND       X_T66U19  1
 UP BND       X_T66U20  1
 UP BND       X_T67U1  1
 UP BND       X_T67U2  1
 UP BND       X_T67U3  1
 UP BND       X_T67U4  1
 UP BND       X_T67U5  1
 UP BND       X_T67U6  1
 UP BND       X_T67U7  1
 UP BND       X_T67U8  1
 UP BND       X_T67U9  1
 UP BND       X_T67U10  1
 UP BND       X_T67U11  1
 UP BND       X_T67U12  1
 UP BND       X_T67U13  1
 UP BND       X_T67U14  1
 UP BND       X_T67U15  1
 UP BND       X_T67U16  1
 UP BND       X_T67U17  1
 UP BND       X_T67U18  1
 UP BND       X_T67U19  1
 UP BND       X_T67U20  1
 UP BND       X_T68U1  1
 UP BND       X_T68U2  1
 UP BND       X_T68U3  1
 UP BND       X_T68U4  1
 UP BND       X_T68U5  1
 UP BND       X_T68U6  1
 UP BND       X_T68U7  1
 UP BND       X_T68U8  1
 UP BND       X_T68U9  1
 UP BND       X_T68U10  1
 UP BND       X_T68U11  1
 UP BND       X_T68U12  1
 UP BND       X_T68U13  1
 UP BND       X_T68U14  1
 UP BND       X_T68U15  1
 UP BND       X_T68U16  1
 UP BND       X_T68U17  1
 UP BND       X_T68U18  1
 UP BND       X_T68U19  1
 UP BND       X_T68U20  1
 UP BND       X_T69U1  1
 UP BND       X_T69U2  1
 UP BND       X_T69U3  1
 UP BND       X_T69U4  1
 UP BND       X_T69U5  1
 UP BND       X_T69U6  1
 UP BND       X_T69U7  1
 UP BND       X_T69U8  1
 UP BND       X_T69U9  1
 UP BND       X_T69U10  1
 UP BND       X_T69U11  1
 UP BND       X_T69U12  1
 UP BND       X_T69U13  1
 UP BND       X_T69U14  1
 UP BND       X_T69U15  1
 UP BND       X_T69U16  1
 UP BND       X_T69U17  1
 UP BND       X_T69U18  1
 UP BND       X_T69U19  1
 UP BND       X_T69U20  1
 UP BND       X_T70U1  1
 UP BND       X_T70U2  1
 UP BND       X_T70U3  1
 UP BND       X_T70U4  1
 UP BND       X_T70U5  1
 UP BND       X_T70U6  1
 UP BND       X_T70U7  1
 UP BND       X_T70U8  1
 UP BND       X_T70U9  1
 UP BND       X_T70U10  1
 UP BND       X_T70U11  1
 UP BND       X_T70U12  1
 UP BND       X_T70U13  1
 UP BND       X_T70U14  1
 UP BND       X_T70U15  1
 UP BND       X_T70U16  1
 UP BND       X_T70U17  1
 UP BND       X_T70U18  1
 UP BND       X_T70U19  1
 UP BND       X_T70U20  1
 UP BND       X_T71U1  1
 UP BND       X_T71U2  1
 UP BND       X_T71U3  1
 UP BND       X_T71U4  1
 UP BND       X_T71U5  1
 UP BND       X_T71U6  1
 UP BND       X_T71U7  1
 UP BND       X_T71U8  1
 UP BND       X_T71U9  1
 UP BND       X_T71U10  1
 UP BND       X_T71U11  1
 UP BND       X_T71U12  1
 UP BND       X_T71U13  1
 UP BND       X_T71U14  1
 UP BND       X_T71U15  1
 UP BND       X_T71U16  1
 UP BND       X_T71U17  1
 UP BND       X_T71U18  1
 UP BND       X_T71U19  1
 UP BND       X_T71U20  1
 UP BND       X_T72U1  1
 UP BND       X_T72U2  1
 UP BND       X_T72U3  1
 UP BND       X_T72U4  1
 UP BND       X_T72U5  1
 UP BND       X_T72U6  1
 UP BND       X_T72U7  1
 UP BND       X_T72U8  1
 UP BND       X_T72U9  1
 UP BND       X_T72U10  1
 UP BND       X_T72U11  1
 UP BND       X_T72U12  1
 UP BND       X_T72U13  1
 UP BND       X_T72U14  1
 UP BND       X_T72U15  1
 UP BND       X_T72U16  1
 UP BND       X_T72U17  1
 UP BND       X_T72U18  1
 UP BND       X_T72U19  1
 UP BND       X_T72U20  1
 UP BND       X_T73U1  1
 UP BND       X_T73U2  1
 UP BND       X_T73U3  1
 UP BND       X_T73U4  1
 UP BND       X_T73U5  1
 UP BND       X_T73U6  1
 UP BND       X_T73U7  1
 UP BND       X_T73U8  1
 UP BND       X_T73U9  1
 UP BND       X_T73U10  1
 UP BND       X_T73U11  1
 UP BND       X_T73U12  1
 UP BND       X_T73U13  1
 UP BND       X_T73U14  1
 UP BND       X_T73U15  1
 UP BND       X_T73U16  1
 UP BND       X_T73U17  1
 UP BND       X_T73U18  1
 UP BND       X_T73U19  1
 UP BND       X_T73U20  1
 UP BND       X_T74U1  1
 UP BND       X_T74U2  1
 UP BND       X_T74U3  1
 UP BND       X_T74U4  1
 UP BND       X_T74U5  1
 UP BND       X_T74U6  1
 UP BND       X_T74U7  1
 UP BND       X_T74U8  1
 UP BND       X_T74U9  1
 UP BND       X_T74U10  1
 UP BND       X_T74U11  1
 UP BND       X_T74U12  1
 UP BND       X_T74U13  1
 UP BND       X_T74U14  1
 UP BND       X_T74U15  1
 UP BND       X_T74U16  1
 UP BND       X_T74U17  1
 UP BND       X_T74U18  1
 UP BND       X_T74U19  1
 UP BND       X_T74U20  1
 UP BND       X_T75U1  1
 UP BND       X_T75U2  1
 UP BND       X_T75U3  1
 UP BND       X_T75U4  1
 UP BND       X_T75U5  1
 UP BND       X_T75U6  1
 UP BND       X_T75U7  1
 UP BND       X_T75U8  1
 UP BND       X_T75U9  1
 UP BND       X_T75U10  1
 UP BND       X_T75U11  1
 UP BND       X_T75U12  1
 UP BND       X_T75U13  1
 UP BND       X_T75U14  1
 UP BND       X_T75U15  1
 UP BND       X_T75U16  1
 UP BND       X_T75U17  1
 UP BND       X_T75U18  1
 UP BND       X_T75U19  1
 UP BND       X_T75U20  1
 UP BND       X_T76U1  1
 UP BND       X_T76U2  1
 UP BND       X_T76U3  1
 UP BND       X_T76U4  1
 UP BND       X_T76U5  1
 UP BND       X_T76U6  1
 UP BND       X_T76U7  1
 UP BND       X_T76U8  1
 UP BND       X_T76U9  1
 UP BND       X_T76U10  1
 UP BND       X_T76U11  1
 UP BND       X_T76U12  1
 UP BND       X_T76U13  1
 UP BND       X_T76U14  1
 UP BND       X_T76U15  1
 UP BND       X_T76U16  1
 UP BND       X_T76U17  1
 UP BND       X_T76U18  1
 UP BND       X_T76U19  1
 UP BND       X_T76U20  1
 UP BND       X_T77U1  1
 UP BND       X_T77U2  1
 UP BND       X_T77U3  1
 UP BND       X_T77U4  1
 UP BND       X_T77U5  1
 UP BND       X_T77U6  1
 UP BND       X_T77U7  1
 UP BND       X_T77U8  1
 UP BND       X_T77U9  1
 UP BND       X_T77U10  1
 UP BND       X_T77U11  1
 UP BND       X_T77U12  1
 UP BND       X_T77U13  1
 UP BND       X_T77U14  1
 UP BND       X_T77U15  1
 UP BND       X_T77U16  1
 UP BND       X_T77U17  1
 UP BND       X_T77U18  1
 UP BND       X_T77U19  1
 UP BND       X_T77U20  1
 UP BND       X_T78U1  1
 UP BND       X_T78U2  1
 UP BND       X_T78U3  1
 UP BND       X_T78U4  1
 UP BND       X_T78U5  1
 UP BND       X_T78U6  1
 UP BND       X_T78U7  1
 UP BND       X_T78U8  1
 UP BND       X_T78U9  1
 UP BND       X_T78U10  1
 UP BND       X_T78U11  1
 UP BND       X_T78U12  1
 UP BND       X_T78U13  1
 UP BND       X_T78U14  1
 UP BND       X_T78U15  1
 UP BND       X_T78U16  1
 UP BND       X_T78U17  1
 UP BND       X_T78U18  1
 UP BND       X_T78U19  1
 UP BND       X_T78U20  1
 UP BND       X_T79U1  1
 UP BND       X_T79U2  1
 UP BND       X_T79U3  1
 UP BND       X_T79U4  1
 UP BND       X_T79U5  1
 UP BND       X_T79U6  1
 UP BND       X_T79U7  1
 UP BND       X_T79U8  1
 UP BND       X_T79U9  1
 UP BND       X_T79U10  1
 UP BND       X_T79U11  1
 UP BND       X_T79U12  1
 UP BND       X_T79U13  1
 UP BND       X_T79U14  1
 UP BND       X_T79U15  1
 UP BND       X_T79U16  1
 UP BND       X_T79U17  1
 UP BND       X_T79U18  1
 UP BND       X_T79U19  1
 UP BND       X_T79U20  1
 UP BND       X_T80U1  1
 UP BND       X_T80U2  1
 UP BND       X_T80U3  1
 UP BND       X_T80U4  1
 UP BND       X_T80U5  1
 UP BND       X_T80U6  1
 UP BND       X_T80U7  1
 UP BND       X_T80U8  1
 UP BND       X_T80U9  1
 UP BND       X_T80U10  1
 UP BND       X_T80U11  1
 UP BND       X_T80U12  1
 UP BND       X_T80U13  1
 UP BND       X_T80U14  1
 UP BND       X_T80U15  1
 UP BND       X_T80U16  1
 UP BND       X_T80U17  1
 UP BND       X_T80U18  1
 UP BND       X_T80U19  1
 UP BND       X_T80U20  1
 UP BND       X_T81U1  1
 UP BND       X_T81U2  1
 UP BND       X_T81U3  1
 UP BND       X_T81U4  1
 UP BND       X_T81U5  1
 UP BND       X_T81U6  1
 UP BND       X_T81U7  1
 UP BND       X_T81U8  1
 UP BND       X_T81U9  1
 UP BND       X_T81U10  1
 UP BND       X_T81U11  1
 UP BND       X_T81U12  1
 UP BND       X_T81U13  1
 UP BND       X_T81U14  1
 UP BND       X_T81U15  1
 UP BND       X_T81U16  1
 UP BND       X_T81U17  1
 UP BND       X_T81U18  1
 UP BND       X_T81U19  1
 UP BND       X_T81U20  1
 UP BND       X_T82U1  1
 UP BND       X_T82U2  1
 UP BND       X_T82U3  1
 UP BND       X_T82U4  1
 UP BND       X_T82U5  1
 UP BND       X_T82U6  1
 UP BND       X_T82U7  1
 UP BND       X_T82U8  1
 UP BND       X_T82U9  1
 UP BND       X_T82U10  1
 UP BND       X_T82U11  1
 UP BND       X_T82U12  1
 UP BND       X_T82U13  1
 UP BND       X_T82U14  1
 UP BND       X_T82U15  1
 UP BND       X_T82U16  1
 UP BND       X_T82U17  1
 UP BND       X_T82U18  1
 UP BND       X_T82U19  1
 UP BND       X_T82U20  1
 UP BND       X_T83U1  1
 UP BND       X_T83U2  1
 UP BND       X_T83U3  1
 UP BND       X_T83U4  1
 UP BND       X_T83U5  1
 UP BND       X_T83U6  1
 UP BND       X_T83U7  1
 UP BND       X_T83U8  1
 UP BND       X_T83U9  1
 UP BND       X_T83U10  1
 UP BND       X_T83U11  1
 UP BND       X_T83U12  1
 UP BND       X_T83U13  1
 UP BND       X_T83U14  1
 UP BND       X_T83U15  1
 UP BND       X_T83U16  1
 UP BND       X_T83U17  1
 UP BND       X_T83U18  1
 UP BND       X_T83U19  1
 UP BND       X_T83U20  1
 UP BND       X_T84U1  1
 UP BND       X_T84U2  1
 UP BND       X_T84U3  1
 UP BND       X_T84U4  1
 UP BND       X_T84U5  1
 UP BND       X_T84U6  1
 UP BND       X_T84U7  1
 UP BND       X_T84U8  1
 UP BND       X_T84U9  1
 UP BND       X_T84U10  1
 UP BND       X_T84U11  1
 UP BND       X_T84U12  1
 UP BND       X_T84U13  1
 UP BND       X_T84U14  1
 UP BND       X_T84U15  1
 UP BND       X_T84U16  1
 UP BND       X_T84U17  1
 UP BND       X_T84U18  1
 UP BND       X_T84U19  1
 UP BND       X_T84U20  1
 UP BND       X_T85U1  1
 UP BND       X_T85U2  1
 UP BND       X_T85U3  1
 UP BND       X_T85U4  1
 UP BND       X_T85U5  1
 UP BND       X_T85U6  1
 UP BND       X_T85U7  1
 UP BND       X_T85U8  1
 UP BND       X_T85U9  1
 UP BND       X_T85U10  1
 UP BND       X_T85U11  1
 UP BND       X_T85U12  1
 UP BND       X_T85U13  1
 UP BND       X_T85U14  1
 UP BND       X_T85U15  1
 UP BND       X_T85U16  1
 UP BND       X_T85U17  1
 UP BND       X_T85U18  1
 UP BND       X_T85U19  1
 UP BND       X_T85U20  1
 UP BND       X_T86U1  1
 UP BND       X_T86U2  1
 UP BND       X_T86U3  1
 UP BND       X_T86U4  1
 UP BND       X_T86U5  1
 UP BND       X_T86U6  1
 UP BND       X_T86U7  1
 UP BND       X_T86U8  1
 UP BND       X_T86U9  1
 UP BND       X_T86U10  1
 UP BND       X_T86U11  1
 UP BND       X_T86U12  1
 UP BND       X_T86U13  1
 UP BND       X_T86U14  1
 UP BND       X_T86U15  1
 UP BND       X_T86U16  1
 UP BND       X_T86U17  1
 UP BND       X_T86U18  1
 UP BND       X_T86U19  1
 UP BND       X_T86U20  1
 UP BND       X_T87U1  1
 UP BND       X_T87U2  1
 UP BND       X_T87U3  1
 UP BND       X_T87U4  1
 UP BND       X_T87U5  1
 UP BND       X_T87U6  1
 UP BND       X_T87U7  1
 UP BND       X_T87U8  1
 UP BND       X_T87U9  1
 UP BND       X_T87U10  1
 UP BND       X_T87U11  1
 UP BND       X_T87U12  1
 UP BND       X_T87U13  1
 UP BND       X_T87U14  1
 UP BND       X_T87U15  1
 UP BND       X_T87U16  1
 UP BND       X_T87U17  1
 UP BND       X_T87U18  1
 UP BND       X_T87U19  1
 UP BND       X_T87U20  1
 UP BND       X_T88U1  1
 UP BND       X_T88U2  1
 UP BND       X_T88U3  1
 UP BND       X_T88U4  1
 UP BND       X_T88U5  1
 UP BND       X_T88U6  1
 UP BND       X_T88U7  1
 UP BND       X_T88U8  1
 UP BND       X_T88U9  1
 UP BND       X_T88U10  1
 UP BND       X_T88U11  1
 UP BND       X_T88U12  1
 UP BND       X_T88U13  1
 UP BND       X_T88U14  1
 UP BND       X_T88U15  1
 UP BND       X_T88U16  1
 UP BND       X_T88U17  1
 UP BND       X_T88U18  1
 UP BND       X_T88U19  1
 UP BND       X_T88U20  1
 UP BND       X_T89U1  1
 UP BND       X_T89U2  1
 UP BND       X_T89U3  1
 UP BND       X_T89U4  1
 UP BND       X_T89U5  1
 UP BND       X_T89U6  1
 UP BND       X_T89U7  1
 UP BND       X_T89U8  1
 UP BND       X_T89U9  1
 UP BND       X_T89U10  1
 UP BND       X_T89U11  1
 UP BND       X_T89U12  1
 UP BND       X_T89U13  1
 UP BND       X_T89U14  1
 UP BND       X_T89U15  1
 UP BND       X_T89U16  1
 UP BND       X_T89U17  1
 UP BND       X_T89U18  1
 UP BND       X_T89U19  1
 UP BND       X_T89U20  1
 UP BND       X_T90U1  1
 UP BND       X_T90U2  1
 UP BND       X_T90U3  1
 UP BND       X_T90U4  1
 UP BND       X_T90U5  1
 UP BND       X_T90U6  1
 UP BND       X_T90U7  1
 UP BND       X_T90U8  1
 UP BND       X_T90U9  1
 UP BND       X_T90U10  1
 UP BND       X_T90U11  1
 UP BND       X_T90U12  1
 UP BND       X_T90U13  1
 UP BND       X_T90U14  1
 UP BND       X_T90U15  1
 UP BND       X_T90U16  1
 UP BND       X_T90U17  1
 UP BND       X_T90U18  1
 UP BND       X_T90U19  1
 UP BND       X_T90U20  1
 UP BND       X_T91U1  1
 UP BND       X_T91U2  1
 UP BND       X_T91U3  1
 UP BND       X_T91U4  1
 UP BND       X_T91U5  1
 UP BND       X_T91U6  1
 UP BND       X_T91U7  1
 UP BND       X_T91U8  1
 UP BND       X_T91U9  1
 UP BND       X_T91U10  1
 UP BND       X_T91U11  1
 UP BND       X_T91U12  1
 UP BND       X_T91U13  1
 UP BND       X_T91U14  1
 UP BND       X_T91U15  1
 UP BND       X_T91U16  1
 UP BND       X_T91U17  1
 UP BND       X_T91U18  1
 UP BND       X_T91U19  1
 UP BND       X_T91U20  1
 UP BND       X_T92U1  1
 UP BND       X_T92U2  1
 UP BND       X_T92U3  1
 UP BND       X_T92U4  1
 UP BND       X_T92U5  1
 UP BND       X_T92U6  1
 UP BND       X_T92U7  1
 UP BND       X_T92U8  1
 UP BND       X_T92U9  1
 UP BND       X_T92U10  1
 UP BND       X_T92U11  1
 UP BND       X_T92U12  1
 UP BND       X_T92U13  1
 UP BND       X_T92U14  1
 UP BND       X_T92U15  1
 UP BND       X_T92U16  1
 UP BND       X_T92U17  1
 UP BND       X_T92U18  1
 UP BND       X_T92U19  1
 UP BND       X_T92U20  1
 UP BND       X_T93U1  1
 UP BND       X_T93U2  1
 UP BND       X_T93U3  1
 UP BND       X_T93U4  1
 UP BND       X_T93U5  1
 UP BND       X_T93U6  1
 UP BND       X_T93U7  1
 UP BND       X_T93U8  1
 UP BND       X_T93U9  1
 UP BND       X_T93U10  1
 UP BND       X_T93U11  1
 UP BND       X_T93U12  1
 UP BND       X_T93U13  1
 UP BND       X_T93U14  1
 UP BND       X_T93U15  1
 UP BND       X_T93U16  1
 UP BND       X_T93U17  1
 UP BND       X_T93U18  1
 UP BND       X_T93U19  1
 UP BND       X_T93U20  1
 UP BND       X_T94U1  1
 UP BND       X_T94U2  1
 UP BND       X_T94U3  1
 UP BND       X_T94U4  1
 UP BND       X_T94U5  1
 UP BND       X_T94U6  1
 UP BND       X_T94U7  1
 UP BND       X_T94U8  1
 UP BND       X_T94U9  1
 UP BND       X_T94U10  1
 UP BND       X_T94U11  1
 UP BND       X_T94U12  1
 UP BND       X_T94U13  1
 UP BND       X_T94U14  1
 UP BND       X_T94U15  1
 UP BND       X_T94U16  1
 UP BND       X_T94U17  1
 UP BND       X_T94U18  1
 UP BND       X_T94U19  1
 UP BND       X_T94U20  1
 UP BND       X_T95U1  1
 UP BND       X_T95U2  1
 UP BND       X_T95U3  1
 UP BND       X_T95U4  1
 UP BND       X_T95U5  1
 UP BND       X_T95U6  1
 UP BND       X_T95U7  1
 UP BND       X_T95U8  1
 UP BND       X_T95U9  1
 UP BND       X_T95U10  1
 UP BND       X_T95U11  1
 UP BND       X_T95U12  1
 UP BND       X_T95U13  1
 UP BND       X_T95U14  1
 UP BND       X_T95U15  1
 UP BND       X_T95U16  1
 UP BND       X_T95U17  1
 UP BND       X_T95U18  1
 UP BND       X_T95U19  1
 UP BND       X_T95U20  1
 UP BND       X_T96U1  1
 UP BND       X_T96U2  1
 UP BND       X_T96U3  1
 UP BND       X_T96U4  1
 UP BND       X_T96U5  1
 UP BND       X_T96U6  1
 UP BND       X_T96U7  1
 UP BND       X_T96U8  1
 UP BND       X_T96U9  1
 UP BND       X_T96U10  1
 UP BND       X_T96U11  1
 UP BND       X_T96U12  1
 UP BND       X_T96U13  1
 UP BND       X_T96U14  1
 UP BND       X_T96U15  1
 UP BND       X_T96U16  1
 UP BND       X_T96U17  1
 UP BND       X_T96U18  1
 UP BND       X_T96U19  1
 UP BND       X_T96U20  1
 UP BND       S_T1U1  1
 UP BND       S_T1U2  1
 UP BND       S_T1U3  1
 UP BND       S_T1U4  1
 UP BND       S_T1U5  1
 UP BND       S_T1U6  1
 UP BND       S_T1U7  1
 UP BND       S_T1U8  1
 UP BND       S_T1U9  1
 UP BND       S_T1U10  1
 UP BND       S_T1U11  1
 UP BND       S_T1U12  1
 UP BND       S_T1U13  1
 UP BND       S_T1U14  1
 UP BND       S_T1U15  1
 UP BND       S_T1U16  1
 UP BND       S_T1U17  1
 UP BND       S_T1U18  1
 UP BND       S_T1U19  1
 UP BND       S_T1U20  1
 UP BND       S_T2U1  1
 UP BND       S_T2U2  1
 UP BND       S_T2U3  1
 UP BND       S_T2U4  1
 UP BND       S_T2U5  1
 UP BND       S_T2U6  1
 UP BND       S_T2U7  1
 UP BND       S_T2U8  1
 UP BND       S_T2U9  1
 UP BND       S_T2U10  1
 UP BND       S_T2U11  1
 UP BND       S_T2U12  1
 UP BND       S_T2U13  1
 UP BND       S_T2U14  1
 UP BND       S_T2U15  1
 UP BND       S_T2U16  1
 UP BND       S_T2U17  1
 UP BND       S_T2U18  1
 UP BND       S_T2U19  1
 UP BND       S_T2U20  1
 UP BND       S_T3U1  1
 UP BND       S_T3U2  1
 UP BND       S_T3U3  1
 UP BND       S_T3U4  1
 UP BND       S_T3U5  1
 UP BND       S_T3U6  1
 UP BND       S_T3U7  1
 UP BND       S_T3U8  1
 UP BND       S_T3U9  1
 UP BND       S_T3U10  1
 UP BND       S_T3U11  1
 UP BND       S_T3U12  1
 UP BND       S_T3U13  1
 UP BND       S_T3U14  1
 UP BND       S_T3U15  1
 UP BND       S_T3U16  1
 UP BND       S_T3U17  1
 UP BND       S_T3U18  1
 UP BND       S_T3U19  1
 UP BND       S_T3U20  1
 UP BND       S_T4U1  1
 UP BND       S_T4U2  1
 UP BND       S_T4U3  1
 UP BND       S_T4U4  1
 UP BND       S_T4U5  1
 UP BND       S_T4U6  1
 UP BND       S_T4U7  1
 UP BND       S_T4U8  1
 UP BND       S_T4U9  1
 UP BND       S_T4U10  1
 UP BND       S_T4U11  1
 UP BND       S_T4U12  1
 UP BND       S_T4U13  1
 UP BND       S_T4U14  1
 UP BND       S_T4U15  1
 UP BND       S_T4U16  1
 UP BND       S_T4U17  1
 UP BND       S_T4U18  1
 UP BND       S_T4U19  1
 UP BND       S_T4U20  1
 UP BND       S_T5U1  1
 UP BND       S_T5U2  1
 UP BND       S_T5U3  1
 UP BND       S_T5U4  1
 UP BND       S_T5U5  1
 UP BND       S_T5U6  1
 UP BND       S_T5U7  1
 UP BND       S_T5U8  1
 UP BND       S_T5U9  1
 UP BND       S_T5U10  1
 UP BND       S_T5U11  1
 UP BND       S_T5U12  1
 UP BND       S_T5U13  1
 UP BND       S_T5U14  1
 UP BND       S_T5U15  1
 UP BND       S_T5U16  1
 UP BND       S_T5U17  1
 UP BND       S_T5U18  1
 UP BND       S_T5U19  1
 UP BND       S_T5U20  1
 UP BND       S_T6U1  1
 UP BND       S_T6U2  1
 UP BND       S_T6U3  1
 UP BND       S_T6U4  1
 UP BND       S_T6U5  1
 UP BND       S_T6U6  1
 UP BND       S_T6U7  1
 UP BND       S_T6U8  1
 UP BND       S_T6U9  1
 UP BND       S_T6U10  1
 UP BND       S_T6U11  1
 UP BND       S_T6U12  1
 UP BND       S_T6U13  1
 UP BND       S_T6U14  1
 UP BND       S_T6U15  1
 UP BND       S_T6U16  1
 UP BND       S_T6U17  1
 UP BND       S_T6U18  1
 UP BND       S_T6U19  1
 UP BND       S_T6U20  1
 UP BND       S_T7U1  1
 UP BND       S_T7U2  1
 UP BND       S_T7U3  1
 UP BND       S_T7U4  1
 UP BND       S_T7U5  1
 UP BND       S_T7U6  1
 UP BND       S_T7U7  1
 UP BND       S_T7U8  1
 UP BND       S_T7U9  1
 UP BND       S_T7U10  1
 UP BND       S_T7U11  1
 UP BND       S_T7U12  1
 UP BND       S_T7U13  1
 UP BND       S_T7U14  1
 UP BND       S_T7U15  1
 UP BND       S_T7U16  1
 UP BND       S_T7U17  1
 UP BND       S_T7U18  1
 UP BND       S_T7U19  1
 UP BND       S_T7U20  1
 UP BND       S_T8U1  1
 UP BND       S_T8U2  1
 UP BND       S_T8U3  1
 UP BND       S_T8U4  1
 UP BND       S_T8U5  1
 UP BND       S_T8U6  1
 UP BND       S_T8U7  1
 UP BND       S_T8U8  1
 UP BND       S_T8U9  1
 UP BND       S_T8U10  1
 UP BND       S_T8U11  1
 UP BND       S_T8U12  1
 UP BND       S_T8U13  1
 UP BND       S_T8U14  1
 UP BND       S_T8U15  1
 UP BND       S_T8U16  1
 UP BND       S_T8U17  1
 UP BND       S_T8U18  1
 UP BND       S_T8U19  1
 UP BND       S_T8U20  1
 UP BND       S_T9U1  1
 UP BND       S_T9U2  1
 UP BND       S_T9U3  1
 UP BND       S_T9U4  1
 UP BND       S_T9U5  1
 UP BND       S_T9U6  1
 UP BND       S_T9U7  1
 UP BND       S_T9U8  1
 UP BND       S_T9U9  1
 UP BND       S_T9U10  1
 UP BND       S_T9U11  1
 UP BND       S_T9U12  1
 UP BND       S_T9U13  1
 UP BND       S_T9U14  1
 UP BND       S_T9U15  1
 UP BND       S_T9U16  1
 UP BND       S_T9U17  1
 UP BND       S_T9U18  1
 UP BND       S_T9U19  1
 UP BND       S_T9U20  1
 UP BND       S_T10U1  1
 UP BND       S_T10U2  1
 UP BND       S_T10U3  1
 UP BND       S_T10U4  1
 UP BND       S_T10U5  1
 UP BND       S_T10U6  1
 UP BND       S_T10U7  1
 UP BND       S_T10U8  1
 UP BND       S_T10U9  1
 UP BND       S_T10U10  1
 UP BND       S_T10U11  1
 UP BND       S_T10U12  1
 UP BND       S_T10U13  1
 UP BND       S_T10U14  1
 UP BND       S_T10U15  1
 UP BND       S_T10U16  1
 UP BND       S_T10U17  1
 UP BND       S_T10U18  1
 UP BND       S_T10U19  1
 UP BND       S_T10U20  1
 UP BND       S_T11U1  1
 UP BND       S_T11U2  1
 UP BND       S_T11U3  1
 UP BND       S_T11U4  1
 UP BND       S_T11U5  1
 UP BND       S_T11U6  1
 UP BND       S_T11U7  1
 UP BND       S_T11U8  1
 UP BND       S_T11U9  1
 UP BND       S_T11U10  1
 UP BND       S_T11U11  1
 UP BND       S_T11U12  1
 UP BND       S_T11U13  1
 UP BND       S_T11U14  1
 UP BND       S_T11U15  1
 UP BND       S_T11U16  1
 UP BND       S_T11U17  1
 UP BND       S_T11U18  1
 UP BND       S_T11U19  1
 UP BND       S_T11U20  1
 UP BND       S_T12U1  1
 UP BND       S_T12U2  1
 UP BND       S_T12U3  1
 UP BND       S_T12U4  1
 UP BND       S_T12U5  1
 UP BND       S_T12U6  1
 UP BND       S_T12U7  1
 UP BND       S_T12U8  1
 UP BND       S_T12U9  1
 UP BND       S_T12U10  1
 UP BND       S_T12U11  1
 UP BND       S_T12U12  1
 UP BND       S_T12U13  1
 UP BND       S_T12U14  1
 UP BND       S_T12U15  1
 UP BND       S_T12U16  1
 UP BND       S_T12U17  1
 UP BND       S_T12U18  1
 UP BND       S_T12U19  1
 UP BND       S_T12U20  1
 UP BND       S_T13U1  1
 UP BND       S_T13U2  1
 UP BND       S_T13U3  1
 UP BND       S_T13U4  1
 UP BND       S_T13U5  1
 UP BND       S_T13U6  1
 UP BND       S_T13U7  1
 UP BND       S_T13U8  1
 UP BND       S_T13U9  1
 UP BND       S_T13U10  1
 UP BND       S_T13U11  1
 UP BND       S_T13U12  1
 UP BND       S_T13U13  1
 UP BND       S_T13U14  1
 UP BND       S_T13U15  1
 UP BND       S_T13U16  1
 UP BND       S_T13U17  1
 UP BND       S_T13U18  1
 UP BND       S_T13U19  1
 UP BND       S_T13U20  1
 UP BND       S_T14U1  1
 UP BND       S_T14U2  1
 UP BND       S_T14U3  1
 UP BND       S_T14U4  1
 UP BND       S_T14U5  1
 UP BND       S_T14U6  1
 UP BND       S_T14U7  1
 UP BND       S_T14U8  1
 UP BND       S_T14U9  1
 UP BND       S_T14U10  1
 UP BND       S_T14U11  1
 UP BND       S_T14U12  1
 UP BND       S_T14U13  1
 UP BND       S_T14U14  1
 UP BND       S_T14U15  1
 UP BND       S_T14U16  1
 UP BND       S_T14U17  1
 UP BND       S_T14U18  1
 UP BND       S_T14U19  1
 UP BND       S_T14U20  1
 UP BND       S_T15U1  1
 UP BND       S_T15U2  1
 UP BND       S_T15U3  1
 UP BND       S_T15U4  1
 UP BND       S_T15U5  1
 UP BND       S_T15U6  1
 UP BND       S_T15U7  1
 UP BND       S_T15U8  1
 UP BND       S_T15U9  1
 UP BND       S_T15U10  1
 UP BND       S_T15U11  1
 UP BND       S_T15U12  1
 UP BND       S_T15U13  1
 UP BND       S_T15U14  1
 UP BND       S_T15U15  1
 UP BND       S_T15U16  1
 UP BND       S_T15U17  1
 UP BND       S_T15U18  1
 UP BND       S_T15U19  1
 UP BND       S_T15U20  1
 UP BND       S_T16U1  1
 UP BND       S_T16U2  1
 UP BND       S_T16U3  1
 UP BND       S_T16U4  1
 UP BND       S_T16U5  1
 UP BND       S_T16U6  1
 UP BND       S_T16U7  1
 UP BND       S_T16U8  1
 UP BND       S_T16U9  1
 UP BND       S_T16U10  1
 UP BND       S_T16U11  1
 UP BND       S_T16U12  1
 UP BND       S_T16U13  1
 UP BND       S_T16U14  1
 UP BND       S_T16U15  1
 UP BND       S_T16U16  1
 UP BND       S_T16U17  1
 UP BND       S_T16U18  1
 UP BND       S_T16U19  1
 UP BND       S_T16U20  1
 UP BND       S_T17U1  1
 UP BND       S_T17U2  1
 UP BND       S_T17U3  1
 UP BND       S_T17U4  1
 UP BND       S_T17U5  1
 UP BND       S_T17U6  1
 UP BND       S_T17U7  1
 UP BND       S_T17U8  1
 UP BND       S_T17U9  1
 UP BND       S_T17U10  1
 UP BND       S_T17U11  1
 UP BND       S_T17U12  1
 UP BND       S_T17U13  1
 UP BND       S_T17U14  1
 UP BND       S_T17U15  1
 UP BND       S_T17U16  1
 UP BND       S_T17U17  1
 UP BND       S_T17U18  1
 UP BND       S_T17U19  1
 UP BND       S_T17U20  1
 UP BND       S_T18U1  1
 UP BND       S_T18U2  1
 UP BND       S_T18U3  1
 UP BND       S_T18U4  1
 UP BND       S_T18U5  1
 UP BND       S_T18U6  1
 UP BND       S_T18U7  1
 UP BND       S_T18U8  1
 UP BND       S_T18U9  1
 UP BND       S_T18U10  1
 UP BND       S_T18U11  1
 UP BND       S_T18U12  1
 UP BND       S_T18U13  1
 UP BND       S_T18U14  1
 UP BND       S_T18U15  1
 UP BND       S_T18U16  1
 UP BND       S_T18U17  1
 UP BND       S_T18U18  1
 UP BND       S_T18U19  1
 UP BND       S_T18U20  1
 UP BND       S_T19U1  1
 UP BND       S_T19U2  1
 UP BND       S_T19U3  1
 UP BND       S_T19U4  1
 UP BND       S_T19U5  1
 UP BND       S_T19U6  1
 UP BND       S_T19U7  1
 UP BND       S_T19U8  1
 UP BND       S_T19U9  1
 UP BND       S_T19U10  1
 UP BND       S_T19U11  1
 UP BND       S_T19U12  1
 UP BND       S_T19U13  1
 UP BND       S_T19U14  1
 UP BND       S_T19U15  1
 UP BND       S_T19U16  1
 UP BND       S_T19U17  1
 UP BND       S_T19U18  1
 UP BND       S_T19U19  1
 UP BND       S_T19U20  1
 UP BND       S_T20U1  1
 UP BND       S_T20U2  1
 UP BND       S_T20U3  1
 UP BND       S_T20U4  1
 UP BND       S_T20U5  1
 UP BND       S_T20U6  1
 UP BND       S_T20U7  1
 UP BND       S_T20U8  1
 UP BND       S_T20U9  1
 UP BND       S_T20U10  1
 UP BND       S_T20U11  1
 UP BND       S_T20U12  1
 UP BND       S_T20U13  1
 UP BND       S_T20U14  1
 UP BND       S_T20U15  1
 UP BND       S_T20U16  1
 UP BND       S_T20U17  1
 UP BND       S_T20U18  1
 UP BND       S_T20U19  1
 UP BND       S_T20U20  1
 UP BND       S_T21U1  1
 UP BND       S_T21U2  1
 UP BND       S_T21U3  1
 UP BND       S_T21U4  1
 UP BND       S_T21U5  1
 UP BND       S_T21U6  1
 UP BND       S_T21U7  1
 UP BND       S_T21U8  1
 UP BND       S_T21U9  1
 UP BND       S_T21U10  1
 UP BND       S_T21U11  1
 UP BND       S_T21U12  1
 UP BND       S_T21U13  1
 UP BND       S_T21U14  1
 UP BND       S_T21U15  1
 UP BND       S_T21U16  1
 UP BND       S_T21U17  1
 UP BND       S_T21U18  1
 UP BND       S_T21U19  1
 UP BND       S_T21U20  1
 UP BND       S_T22U1  1
 UP BND       S_T22U2  1
 UP BND       S_T22U3  1
 UP BND       S_T22U4  1
 UP BND       S_T22U5  1
 UP BND       S_T22U6  1
 UP BND       S_T22U7  1
 UP BND       S_T22U8  1
 UP BND       S_T22U9  1
 UP BND       S_T22U10  1
 UP BND       S_T22U11  1
 UP BND       S_T22U12  1
 UP BND       S_T22U13  1
 UP BND       S_T22U14  1
 UP BND       S_T22U15  1
 UP BND       S_T22U16  1
 UP BND       S_T22U17  1
 UP BND       S_T22U18  1
 UP BND       S_T22U19  1
 UP BND       S_T22U20  1
 UP BND       S_T23U1  1
 UP BND       S_T23U2  1
 UP BND       S_T23U3  1
 UP BND       S_T23U4  1
 UP BND       S_T23U5  1
 UP BND       S_T23U6  1
 UP BND       S_T23U7  1
 UP BND       S_T23U8  1
 UP BND       S_T23U9  1
 UP BND       S_T23U10  1
 UP BND       S_T23U11  1
 UP BND       S_T23U12  1
 UP BND       S_T23U13  1
 UP BND       S_T23U14  1
 UP BND       S_T23U15  1
 UP BND       S_T23U16  1
 UP BND       S_T23U17  1
 UP BND       S_T23U18  1
 UP BND       S_T23U19  1
 UP BND       S_T23U20  1
 UP BND       S_T24U1  1
 UP BND       S_T24U2  1
 UP BND       S_T24U3  1
 UP BND       S_T24U4  1
 UP BND       S_T24U5  1
 UP BND       S_T24U6  1
 UP BND       S_T24U7  1
 UP BND       S_T24U8  1
 UP BND       S_T24U9  1
 UP BND       S_T24U10  1
 UP BND       S_T24U11  1
 UP BND       S_T24U12  1
 UP BND       S_T24U13  1
 UP BND       S_T24U14  1
 UP BND       S_T24U15  1
 UP BND       S_T24U16  1
 UP BND       S_T24U17  1
 UP BND       S_T24U18  1
 UP BND       S_T24U19  1
 UP BND       S_T24U20  1
 UP BND       S_T25U1  1
 UP BND       S_T25U2  1
 UP BND       S_T25U3  1
 UP BND       S_T25U4  1
 UP BND       S_T25U5  1
 UP BND       S_T25U6  1
 UP BND       S_T25U7  1
 UP BND       S_T25U8  1
 UP BND       S_T25U9  1
 UP BND       S_T25U10  1
 UP BND       S_T25U11  1
 UP BND       S_T25U12  1
 UP BND       S_T25U13  1
 UP BND       S_T25U14  1
 UP BND       S_T25U15  1
 UP BND       S_T25U16  1
 UP BND       S_T25U17  1
 UP BND       S_T25U18  1
 UP BND       S_T25U19  1
 UP BND       S_T25U20  1
 UP BND       S_T26U1  1
 UP BND       S_T26U2  1
 UP BND       S_T26U3  1
 UP BND       S_T26U4  1
 UP BND       S_T26U5  1
 UP BND       S_T26U6  1
 UP BND       S_T26U7  1
 UP BND       S_T26U8  1
 UP BND       S_T26U9  1
 UP BND       S_T26U10  1
 UP BND       S_T26U11  1
 UP BND       S_T26U12  1
 UP BND       S_T26U13  1
 UP BND       S_T26U14  1
 UP BND       S_T26U15  1
 UP BND       S_T26U16  1
 UP BND       S_T26U17  1
 UP BND       S_T26U18  1
 UP BND       S_T26U19  1
 UP BND       S_T26U20  1
 UP BND       S_T27U1  1
 UP BND       S_T27U2  1
 UP BND       S_T27U3  1
 UP BND       S_T27U4  1
 UP BND       S_T27U5  1
 UP BND       S_T27U6  1
 UP BND       S_T27U7  1
 UP BND       S_T27U8  1
 UP BND       S_T27U9  1
 UP BND       S_T27U10  1
 UP BND       S_T27U11  1
 UP BND       S_T27U12  1
 UP BND       S_T27U13  1
 UP BND       S_T27U14  1
 UP BND       S_T27U15  1
 UP BND       S_T27U16  1
 UP BND       S_T27U17  1
 UP BND       S_T27U18  1
 UP BND       S_T27U19  1
 UP BND       S_T27U20  1
 UP BND       S_T28U1  1
 UP BND       S_T28U2  1
 UP BND       S_T28U3  1
 UP BND       S_T28U4  1
 UP BND       S_T28U5  1
 UP BND       S_T28U6  1
 UP BND       S_T28U7  1
 UP BND       S_T28U8  1
 UP BND       S_T28U9  1
 UP BND       S_T28U10  1
 UP BND       S_T28U11  1
 UP BND       S_T28U12  1
 UP BND       S_T28U13  1
 UP BND       S_T28U14  1
 UP BND       S_T28U15  1
 UP BND       S_T28U16  1
 UP BND       S_T28U17  1
 UP BND       S_T28U18  1
 UP BND       S_T28U19  1
 UP BND       S_T28U20  1
 UP BND       S_T29U1  1
 UP BND       S_T29U2  1
 UP BND       S_T29U3  1
 UP BND       S_T29U4  1
 UP BND       S_T29U5  1
 UP BND       S_T29U6  1
 UP BND       S_T29U7  1
 UP BND       S_T29U8  1
 UP BND       S_T29U9  1
 UP BND       S_T29U10  1
 UP BND       S_T29U11  1
 UP BND       S_T29U12  1
 UP BND       S_T29U13  1
 UP BND       S_T29U14  1
 UP BND       S_T29U15  1
 UP BND       S_T29U16  1
 UP BND       S_T29U17  1
 UP BND       S_T29U18  1
 UP BND       S_T29U19  1
 UP BND       S_T29U20  1
 UP BND       S_T30U1  1
 UP BND       S_T30U2  1
 UP BND       S_T30U3  1
 UP BND       S_T30U4  1
 UP BND       S_T30U5  1
 UP BND       S_T30U6  1
 UP BND       S_T30U7  1
 UP BND       S_T30U8  1
 UP BND       S_T30U9  1
 UP BND       S_T30U10  1
 UP BND       S_T30U11  1
 UP BND       S_T30U12  1
 UP BND       S_T30U13  1
 UP BND       S_T30U14  1
 UP BND       S_T30U15  1
 UP BND       S_T30U16  1
 UP BND       S_T30U17  1
 UP BND       S_T30U18  1
 UP BND       S_T30U19  1
 UP BND       S_T30U20  1
 UP BND       S_T31U1  1
 UP BND       S_T31U2  1
 UP BND       S_T31U3  1
 UP BND       S_T31U4  1
 UP BND       S_T31U5  1
 UP BND       S_T31U6  1
 UP BND       S_T31U7  1
 UP BND       S_T31U8  1
 UP BND       S_T31U9  1
 UP BND       S_T31U10  1
 UP BND       S_T31U11  1
 UP BND       S_T31U12  1
 UP BND       S_T31U13  1
 UP BND       S_T31U14  1
 UP BND       S_T31U15  1
 UP BND       S_T31U16  1
 UP BND       S_T31U17  1
 UP BND       S_T31U18  1
 UP BND       S_T31U19  1
 UP BND       S_T31U20  1
 UP BND       S_T32U1  1
 UP BND       S_T32U2  1
 UP BND       S_T32U3  1
 UP BND       S_T32U4  1
 UP BND       S_T32U5  1
 UP BND       S_T32U6  1
 UP BND       S_T32U7  1
 UP BND       S_T32U8  1
 UP BND       S_T32U9  1
 UP BND       S_T32U10  1
 UP BND       S_T32U11  1
 UP BND       S_T32U12  1
 UP BND       S_T32U13  1
 UP BND       S_T32U14  1
 UP BND       S_T32U15  1
 UP BND       S_T32U16  1
 UP BND       S_T32U17  1
 UP BND       S_T32U18  1
 UP BND       S_T32U19  1
 UP BND       S_T32U20  1
 UP BND       S_T33U1  1
 UP BND       S_T33U2  1
 UP BND       S_T33U3  1
 UP BND       S_T33U4  1
 UP BND       S_T33U5  1
 UP BND       S_T33U6  1
 UP BND       S_T33U7  1
 UP BND       S_T33U8  1
 UP BND       S_T33U9  1
 UP BND       S_T33U10  1
 UP BND       S_T33U11  1
 UP BND       S_T33U12  1
 UP BND       S_T33U13  1
 UP BND       S_T33U14  1
 UP BND       S_T33U15  1
 UP BND       S_T33U16  1
 UP BND       S_T33U17  1
 UP BND       S_T33U18  1
 UP BND       S_T33U19  1
 UP BND       S_T33U20  1
 UP BND       S_T34U1  1
 UP BND       S_T34U2  1
 UP BND       S_T34U3  1
 UP BND       S_T34U4  1
 UP BND       S_T34U5  1
 UP BND       S_T34U6  1
 UP BND       S_T34U7  1
 UP BND       S_T34U8  1
 UP BND       S_T34U9  1
 UP BND       S_T34U10  1
 UP BND       S_T34U11  1
 UP BND       S_T34U12  1
 UP BND       S_T34U13  1
 UP BND       S_T34U14  1
 UP BND       S_T34U15  1
 UP BND       S_T34U16  1
 UP BND       S_T34U17  1
 UP BND       S_T34U18  1
 UP BND       S_T34U19  1
 UP BND       S_T34U20  1
 UP BND       S_T35U1  1
 UP BND       S_T35U2  1
 UP BND       S_T35U3  1
 UP BND       S_T35U4  1
 UP BND       S_T35U5  1
 UP BND       S_T35U6  1
 UP BND       S_T35U7  1
 UP BND       S_T35U8  1
 UP BND       S_T35U9  1
 UP BND       S_T35U10  1
 UP BND       S_T35U11  1
 UP BND       S_T35U12  1
 UP BND       S_T35U13  1
 UP BND       S_T35U14  1
 UP BND       S_T35U15  1
 UP BND       S_T35U16  1
 UP BND       S_T35U17  1
 UP BND       S_T35U18  1
 UP BND       S_T35U19  1
 UP BND       S_T35U20  1
 UP BND       S_T36U1  1
 UP BND       S_T36U2  1
 UP BND       S_T36U3  1
 UP BND       S_T36U4  1
 UP BND       S_T36U5  1
 UP BND       S_T36U6  1
 UP BND       S_T36U7  1
 UP BND       S_T36U8  1
 UP BND       S_T36U9  1
 UP BND       S_T36U10  1
 UP BND       S_T36U11  1
 UP BND       S_T36U12  1
 UP BND       S_T36U13  1
 UP BND       S_T36U14  1
 UP BND       S_T36U15  1
 UP BND       S_T36U16  1
 UP BND       S_T36U17  1
 UP BND       S_T36U18  1
 UP BND       S_T36U19  1
 UP BND       S_T36U20  1
 UP BND       S_T37U1  1
 UP BND       S_T37U2  1
 UP BND       S_T37U3  1
 UP BND       S_T37U4  1
 UP BND       S_T37U5  1
 UP BND       S_T37U6  1
 UP BND       S_T37U7  1
 UP BND       S_T37U8  1
 UP BND       S_T37U9  1
 UP BND       S_T37U10  1
 UP BND       S_T37U11  1
 UP BND       S_T37U12  1
 UP BND       S_T37U13  1
 UP BND       S_T37U14  1
 UP BND       S_T37U15  1
 UP BND       S_T37U16  1
 UP BND       S_T37U17  1
 UP BND       S_T37U18  1
 UP BND       S_T37U19  1
 UP BND       S_T37U20  1
 UP BND       S_T38U1  1
 UP BND       S_T38U2  1
 UP BND       S_T38U3  1
 UP BND       S_T38U4  1
 UP BND       S_T38U5  1
 UP BND       S_T38U6  1
 UP BND       S_T38U7  1
 UP BND       S_T38U8  1
 UP BND       S_T38U9  1
 UP BND       S_T38U10  1
 UP BND       S_T38U11  1
 UP BND       S_T38U12  1
 UP BND       S_T38U13  1
 UP BND       S_T38U14  1
 UP BND       S_T38U15  1
 UP BND       S_T38U16  1
 UP BND       S_T38U17  1
 UP BND       S_T38U18  1
 UP BND       S_T38U19  1
 UP BND       S_T38U20  1
 UP BND       S_T39U1  1
 UP BND       S_T39U2  1
 UP BND       S_T39U3  1
 UP BND       S_T39U4  1
 UP BND       S_T39U5  1
 UP BND       S_T39U6  1
 UP BND       S_T39U7  1
 UP BND       S_T39U8  1
 UP BND       S_T39U9  1
 UP BND       S_T39U10  1
 UP BND       S_T39U11  1
 UP BND       S_T39U12  1
 UP BND       S_T39U13  1
 UP BND       S_T39U14  1
 UP BND       S_T39U15  1
 UP BND       S_T39U16  1
 UP BND       S_T39U17  1
 UP BND       S_T39U18  1
 UP BND       S_T39U19  1
 UP BND       S_T39U20  1
 UP BND       S_T40U1  1
 UP BND       S_T40U2  1
 UP BND       S_T40U3  1
 UP BND       S_T40U4  1
 UP BND       S_T40U5  1
 UP BND       S_T40U6  1
 UP BND       S_T40U7  1
 UP BND       S_T40U8  1
 UP BND       S_T40U9  1
 UP BND       S_T40U10  1
 UP BND       S_T40U11  1
 UP BND       S_T40U12  1
 UP BND       S_T40U13  1
 UP BND       S_T40U14  1
 UP BND       S_T40U15  1
 UP BND       S_T40U16  1
 UP BND       S_T40U17  1
 UP BND       S_T40U18  1
 UP BND       S_T40U19  1
 UP BND       S_T40U20  1
 UP BND       S_T41U1  1
 UP BND       S_T41U2  1
 UP BND       S_T41U3  1
 UP BND       S_T41U4  1
 UP BND       S_T41U5  1
 UP BND       S_T41U6  1
 UP BND       S_T41U7  1
 UP BND       S_T41U8  1
 UP BND       S_T41U9  1
 UP BND       S_T41U10  1
 UP BND       S_T41U11  1
 UP BND       S_T41U12  1
 UP BND       S_T41U13  1
 UP BND       S_T41U14  1
 UP BND       S_T41U15  1
 UP BND       S_T41U16  1
 UP BND       S_T41U17  1
 UP BND       S_T41U18  1
 UP BND       S_T41U19  1
 UP BND       S_T41U20  1
 UP BND       S_T42U1  1
 UP BND       S_T42U2  1
 UP BND       S_T42U3  1
 UP BND       S_T42U4  1
 UP BND       S_T42U5  1
 UP BND       S_T42U6  1
 UP BND       S_T42U7  1
 UP BND       S_T42U8  1
 UP BND       S_T42U9  1
 UP BND       S_T42U10  1
 UP BND       S_T42U11  1
 UP BND       S_T42U12  1
 UP BND       S_T42U13  1
 UP BND       S_T42U14  1
 UP BND       S_T42U15  1
 UP BND       S_T42U16  1
 UP BND       S_T42U17  1
 UP BND       S_T42U18  1
 UP BND       S_T42U19  1
 UP BND       S_T42U20  1
 UP BND       S_T43U1  1
 UP BND       S_T43U2  1
 UP BND       S_T43U3  1
 UP BND       S_T43U4  1
 UP BND       S_T43U5  1
 UP BND       S_T43U6  1
 UP BND       S_T43U7  1
 UP BND       S_T43U8  1
 UP BND       S_T43U9  1
 UP BND       S_T43U10  1
 UP BND       S_T43U11  1
 UP BND       S_T43U12  1
 UP BND       S_T43U13  1
 UP BND       S_T43U14  1
 UP BND       S_T43U15  1
 UP BND       S_T43U16  1
 UP BND       S_T43U17  1
 UP BND       S_T43U18  1
 UP BND       S_T43U19  1
 UP BND       S_T43U20  1
 UP BND       S_T44U1  1
 UP BND       S_T44U2  1
 UP BND       S_T44U3  1
 UP BND       S_T44U4  1
 UP BND       S_T44U5  1
 UP BND       S_T44U6  1
 UP BND       S_T44U7  1
 UP BND       S_T44U8  1
 UP BND       S_T44U9  1
 UP BND       S_T44U10  1
 UP BND       S_T44U11  1
 UP BND       S_T44U12  1
 UP BND       S_T44U13  1
 UP BND       S_T44U14  1
 UP BND       S_T44U15  1
 UP BND       S_T44U16  1
 UP BND       S_T44U17  1
 UP BND       S_T44U18  1
 UP BND       S_T44U19  1
 UP BND       S_T44U20  1
 UP BND       S_T45U1  1
 UP BND       S_T45U2  1
 UP BND       S_T45U3  1
 UP BND       S_T45U4  1
 UP BND       S_T45U5  1
 UP BND       S_T45U6  1
 UP BND       S_T45U7  1
 UP BND       S_T45U8  1
 UP BND       S_T45U9  1
 UP BND       S_T45U10  1
 UP BND       S_T45U11  1
 UP BND       S_T45U12  1
 UP BND       S_T45U13  1
 UP BND       S_T45U14  1
 UP BND       S_T45U15  1
 UP BND       S_T45U16  1
 UP BND       S_T45U17  1
 UP BND       S_T45U18  1
 UP BND       S_T45U19  1
 UP BND       S_T45U20  1
 UP BND       S_T46U1  1
 UP BND       S_T46U2  1
 UP BND       S_T46U3  1
 UP BND       S_T46U4  1
 UP BND       S_T46U5  1
 UP BND       S_T46U6  1
 UP BND       S_T46U7  1
 UP BND       S_T46U8  1
 UP BND       S_T46U9  1
 UP BND       S_T46U10  1
 UP BND       S_T46U11  1
 UP BND       S_T46U12  1
 UP BND       S_T46U13  1
 UP BND       S_T46U14  1
 UP BND       S_T46U15  1
 UP BND       S_T46U16  1
 UP BND       S_T46U17  1
 UP BND       S_T46U18  1
 UP BND       S_T46U19  1
 UP BND       S_T46U20  1
 UP BND       S_T47U1  1
 UP BND       S_T47U2  1
 UP BND       S_T47U3  1
 UP BND       S_T47U4  1
 UP BND       S_T47U5  1
 UP BND       S_T47U6  1
 UP BND       S_T47U7  1
 UP BND       S_T47U8  1
 UP BND       S_T47U9  1
 UP BND       S_T47U10  1
 UP BND       S_T47U11  1
 UP BND       S_T47U12  1
 UP BND       S_T47U13  1
 UP BND       S_T47U14  1
 UP BND       S_T47U15  1
 UP BND       S_T47U16  1
 UP BND       S_T47U17  1
 UP BND       S_T47U18  1
 UP BND       S_T47U19  1
 UP BND       S_T47U20  1
 UP BND       S_T48U1  1
 UP BND       S_T48U2  1
 UP BND       S_T48U3  1
 UP BND       S_T48U4  1
 UP BND       S_T48U5  1
 UP BND       S_T48U6  1
 UP BND       S_T48U7  1
 UP BND       S_T48U8  1
 UP BND       S_T48U9  1
 UP BND       S_T48U10  1
 UP BND       S_T48U11  1
 UP BND       S_T48U12  1
 UP BND       S_T48U13  1
 UP BND       S_T48U14  1
 UP BND       S_T48U15  1
 UP BND       S_T48U16  1
 UP BND       S_T48U17  1
 UP BND       S_T48U18  1
 UP BND       S_T48U19  1
 UP BND       S_T48U20  1
 UP BND       S_T49U1  1
 UP BND       S_T49U2  1
 UP BND       S_T49U3  1
 UP BND       S_T49U4  1
 UP BND       S_T49U5  1
 UP BND       S_T49U6  1
 UP BND       S_T49U7  1
 UP BND       S_T49U8  1
 UP BND       S_T49U9  1
 UP BND       S_T49U10  1
 UP BND       S_T49U11  1
 UP BND       S_T49U12  1
 UP BND       S_T49U13  1
 UP BND       S_T49U14  1
 UP BND       S_T49U15  1
 UP BND       S_T49U16  1
 UP BND       S_T49U17  1
 UP BND       S_T49U18  1
 UP BND       S_T49U19  1
 UP BND       S_T49U20  1
 UP BND       S_T50U1  1
 UP BND       S_T50U2  1
 UP BND       S_T50U3  1
 UP BND       S_T50U4  1
 UP BND       S_T50U5  1
 UP BND       S_T50U6  1
 UP BND       S_T50U7  1
 UP BND       S_T50U8  1
 UP BND       S_T50U9  1
 UP BND       S_T50U10  1
 UP BND       S_T50U11  1
 UP BND       S_T50U12  1
 UP BND       S_T50U13  1
 UP BND       S_T50U14  1
 UP BND       S_T50U15  1
 UP BND       S_T50U16  1
 UP BND       S_T50U17  1
 UP BND       S_T50U18  1
 UP BND       S_T50U19  1
 UP BND       S_T50U20  1
 UP BND       S_T51U1  1
 UP BND       S_T51U2  1
 UP BND       S_T51U3  1
 UP BND       S_T51U4  1
 UP BND       S_T51U5  1
 UP BND       S_T51U6  1
 UP BND       S_T51U7  1
 UP BND       S_T51U8  1
 UP BND       S_T51U9  1
 UP BND       S_T51U10  1
 UP BND       S_T51U11  1
 UP BND       S_T51U12  1
 UP BND       S_T51U13  1
 UP BND       S_T51U14  1
 UP BND       S_T51U15  1
 UP BND       S_T51U16  1
 UP BND       S_T51U17  1
 UP BND       S_T51U18  1
 UP BND       S_T51U19  1
 UP BND       S_T51U20  1
 UP BND       S_T52U1  1
 UP BND       S_T52U2  1
 UP BND       S_T52U3  1
 UP BND       S_T52U4  1
 UP BND       S_T52U5  1
 UP BND       S_T52U6  1
 UP BND       S_T52U7  1
 UP BND       S_T52U8  1
 UP BND       S_T52U9  1
 UP BND       S_T52U10  1
 UP BND       S_T52U11  1
 UP BND       S_T52U12  1
 UP BND       S_T52U13  1
 UP BND       S_T52U14  1
 UP BND       S_T52U15  1
 UP BND       S_T52U16  1
 UP BND       S_T52U17  1
 UP BND       S_T52U18  1
 UP BND       S_T52U19  1
 UP BND       S_T52U20  1
 UP BND       S_T53U1  1
 UP BND       S_T53U2  1
 UP BND       S_T53U3  1
 UP BND       S_T53U4  1
 UP BND       S_T53U5  1
 UP BND       S_T53U6  1
 UP BND       S_T53U7  1
 UP BND       S_T53U8  1
 UP BND       S_T53U9  1
 UP BND       S_T53U10  1
 UP BND       S_T53U11  1
 UP BND       S_T53U12  1
 UP BND       S_T53U13  1
 UP BND       S_T53U14  1
 UP BND       S_T53U15  1
 UP BND       S_T53U16  1
 UP BND       S_T53U17  1
 UP BND       S_T53U18  1
 UP BND       S_T53U19  1
 UP BND       S_T53U20  1
 UP BND       S_T54U1  1
 UP BND       S_T54U2  1
 UP BND       S_T54U3  1
 UP BND       S_T54U4  1
 UP BND       S_T54U5  1
 UP BND       S_T54U6  1
 UP BND       S_T54U7  1
 UP BND       S_T54U8  1
 UP BND       S_T54U9  1
 UP BND       S_T54U10  1
 UP BND       S_T54U11  1
 UP BND       S_T54U12  1
 UP BND       S_T54U13  1
 UP BND       S_T54U14  1
 UP BND       S_T54U15  1
 UP BND       S_T54U16  1
 UP BND       S_T54U17  1
 UP BND       S_T54U18  1
 UP BND       S_T54U19  1
 UP BND       S_T54U20  1
 UP BND       S_T55U1  1
 UP BND       S_T55U2  1
 UP BND       S_T55U3  1
 UP BND       S_T55U4  1
 UP BND       S_T55U5  1
 UP BND       S_T55U6  1
 UP BND       S_T55U7  1
 UP BND       S_T55U8  1
 UP BND       S_T55U9  1
 UP BND       S_T55U10  1
 UP BND       S_T55U11  1
 UP BND       S_T55U12  1
 UP BND       S_T55U13  1
 UP BND       S_T55U14  1
 UP BND       S_T55U15  1
 UP BND       S_T55U16  1
 UP BND       S_T55U17  1
 UP BND       S_T55U18  1
 UP BND       S_T55U19  1
 UP BND       S_T55U20  1
 UP BND       S_T56U1  1
 UP BND       S_T56U2  1
 UP BND       S_T56U3  1
 UP BND       S_T56U4  1
 UP BND       S_T56U5  1
 UP BND       S_T56U6  1
 UP BND       S_T56U7  1
 UP BND       S_T56U8  1
 UP BND       S_T56U9  1
 UP BND       S_T56U10  1
 UP BND       S_T56U11  1
 UP BND       S_T56U12  1
 UP BND       S_T56U13  1
 UP BND       S_T56U14  1
 UP BND       S_T56U15  1
 UP BND       S_T56U16  1
 UP BND       S_T56U17  1
 UP BND       S_T56U18  1
 UP BND       S_T56U19  1
 UP BND       S_T56U20  1
 UP BND       S_T57U1  1
 UP BND       S_T57U2  1
 UP BND       S_T57U3  1
 UP BND       S_T57U4  1
 UP BND       S_T57U5  1
 UP BND       S_T57U6  1
 UP BND       S_T57U7  1
 UP BND       S_T57U8  1
 UP BND       S_T57U9  1
 UP BND       S_T57U10  1
 UP BND       S_T57U11  1
 UP BND       S_T57U12  1
 UP BND       S_T57U13  1
 UP BND       S_T57U14  1
 UP BND       S_T57U15  1
 UP BND       S_T57U16  1
 UP BND       S_T57U17  1
 UP BND       S_T57U18  1
 UP BND       S_T57U19  1
 UP BND       S_T57U20  1
 UP BND       S_T58U1  1
 UP BND       S_T58U2  1
 UP BND       S_T58U3  1
 UP BND       S_T58U4  1
 UP BND       S_T58U5  1
 UP BND       S_T58U6  1
 UP BND       S_T58U7  1
 UP BND       S_T58U8  1
 UP BND       S_T58U9  1
 UP BND       S_T58U10  1
 UP BND       S_T58U11  1
 UP BND       S_T58U12  1
 UP BND       S_T58U13  1
 UP BND       S_T58U14  1
 UP BND       S_T58U15  1
 UP BND       S_T58U16  1
 UP BND       S_T58U17  1
 UP BND       S_T58U18  1
 UP BND       S_T58U19  1
 UP BND       S_T58U20  1
 UP BND       S_T59U1  1
 UP BND       S_T59U2  1
 UP BND       S_T59U3  1
 UP BND       S_T59U4  1
 UP BND       S_T59U5  1
 UP BND       S_T59U6  1
 UP BND       S_T59U7  1
 UP BND       S_T59U8  1
 UP BND       S_T59U9  1
 UP BND       S_T59U10  1
 UP BND       S_T59U11  1
 UP BND       S_T59U12  1
 UP BND       S_T59U13  1
 UP BND       S_T59U14  1
 UP BND       S_T59U15  1
 UP BND       S_T59U16  1
 UP BND       S_T59U17  1
 UP BND       S_T59U18  1
 UP BND       S_T59U19  1
 UP BND       S_T59U20  1
 UP BND       S_T60U1  1
 UP BND       S_T60U2  1
 UP BND       S_T60U3  1
 UP BND       S_T60U4  1
 UP BND       S_T60U5  1
 UP BND       S_T60U6  1
 UP BND       S_T60U7  1
 UP BND       S_T60U8  1
 UP BND       S_T60U9  1
 UP BND       S_T60U10  1
 UP BND       S_T60U11  1
 UP BND       S_T60U12  1
 UP BND       S_T60U13  1
 UP BND       S_T60U14  1
 UP BND       S_T60U15  1
 UP BND       S_T60U16  1
 UP BND       S_T60U17  1
 UP BND       S_T60U18  1
 UP BND       S_T60U19  1
 UP BND       S_T60U20  1
 UP BND       S_T61U1  1
 UP BND       S_T61U2  1
 UP BND       S_T61U3  1
 UP BND       S_T61U4  1
 UP BND       S_T61U5  1
 UP BND       S_T61U6  1
 UP BND       S_T61U7  1
 UP BND       S_T61U8  1
 UP BND       S_T61U9  1
 UP BND       S_T61U10  1
 UP BND       S_T61U11  1
 UP BND       S_T61U12  1
 UP BND       S_T61U13  1
 UP BND       S_T61U14  1
 UP BND       S_T61U15  1
 UP BND       S_T61U16  1
 UP BND       S_T61U17  1
 UP BND       S_T61U18  1
 UP BND       S_T61U19  1
 UP BND       S_T61U20  1
 UP BND       S_T62U1  1
 UP BND       S_T62U2  1
 UP BND       S_T62U3  1
 UP BND       S_T62U4  1
 UP BND       S_T62U5  1
 UP BND       S_T62U6  1
 UP BND       S_T62U7  1
 UP BND       S_T62U8  1
 UP BND       S_T62U9  1
 UP BND       S_T62U10  1
 UP BND       S_T62U11  1
 UP BND       S_T62U12  1
 UP BND       S_T62U13  1
 UP BND       S_T62U14  1
 UP BND       S_T62U15  1
 UP BND       S_T62U16  1
 UP BND       S_T62U17  1
 UP BND       S_T62U18  1
 UP BND       S_T62U19  1
 UP BND       S_T62U20  1
 UP BND       S_T63U1  1
 UP BND       S_T63U2  1
 UP BND       S_T63U3  1
 UP BND       S_T63U4  1
 UP BND       S_T63U5  1
 UP BND       S_T63U6  1
 UP BND       S_T63U7  1
 UP BND       S_T63U8  1
 UP BND       S_T63U9  1
 UP BND       S_T63U10  1
 UP BND       S_T63U11  1
 UP BND       S_T63U12  1
 UP BND       S_T63U13  1
 UP BND       S_T63U14  1
 UP BND       S_T63U15  1
 UP BND       S_T63U16  1
 UP BND       S_T63U17  1
 UP BND       S_T63U18  1
 UP BND       S_T63U19  1
 UP BND       S_T63U20  1
 UP BND       S_T64U1  1
 UP BND       S_T64U2  1
 UP BND       S_T64U3  1
 UP BND       S_T64U4  1
 UP BND       S_T64U5  1
 UP BND       S_T64U6  1
 UP BND       S_T64U7  1
 UP BND       S_T64U8  1
 UP BND       S_T64U9  1
 UP BND       S_T64U10  1
 UP BND       S_T64U11  1
 UP BND       S_T64U12  1
 UP BND       S_T64U13  1
 UP BND       S_T64U14  1
 UP BND       S_T64U15  1
 UP BND       S_T64U16  1
 UP BND       S_T64U17  1
 UP BND       S_T64U18  1
 UP BND       S_T64U19  1
 UP BND       S_T64U20  1
 UP BND       S_T65U1  1
 UP BND       S_T65U2  1
 UP BND       S_T65U3  1
 UP BND       S_T65U4  1
 UP BND       S_T65U5  1
 UP BND       S_T65U6  1
 UP BND       S_T65U7  1
 UP BND       S_T65U8  1
 UP BND       S_T65U9  1
 UP BND       S_T65U10  1
 UP BND       S_T65U11  1
 UP BND       S_T65U12  1
 UP BND       S_T65U13  1
 UP BND       S_T65U14  1
 UP BND       S_T65U15  1
 UP BND       S_T65U16  1
 UP BND       S_T65U17  1
 UP BND       S_T65U18  1
 UP BND       S_T65U19  1
 UP BND       S_T65U20  1
 UP BND       S_T66U1  1
 UP BND       S_T66U2  1
 UP BND       S_T66U3  1
 UP BND       S_T66U4  1
 UP BND       S_T66U5  1
 UP BND       S_T66U6  1
 UP BND       S_T66U7  1
 UP BND       S_T66U8  1
 UP BND       S_T66U9  1
 UP BND       S_T66U10  1
 UP BND       S_T66U11  1
 UP BND       S_T66U12  1
 UP BND       S_T66U13  1
 UP BND       S_T66U14  1
 UP BND       S_T66U15  1
 UP BND       S_T66U16  1
 UP BND       S_T66U17  1
 UP BND       S_T66U18  1
 UP BND       S_T66U19  1
 UP BND       S_T66U20  1
 UP BND       S_T67U1  1
 UP BND       S_T67U2  1
 UP BND       S_T67U3  1
 UP BND       S_T67U4  1
 UP BND       S_T67U5  1
 UP BND       S_T67U6  1
 UP BND       S_T67U7  1
 UP BND       S_T67U8  1
 UP BND       S_T67U9  1
 UP BND       S_T67U10  1
 UP BND       S_T67U11  1
 UP BND       S_T67U12  1
 UP BND       S_T67U13  1
 UP BND       S_T67U14  1
 UP BND       S_T67U15  1
 UP BND       S_T67U16  1
 UP BND       S_T67U17  1
 UP BND       S_T67U18  1
 UP BND       S_T67U19  1
 UP BND       S_T67U20  1
 UP BND       S_T68U1  1
 UP BND       S_T68U2  1
 UP BND       S_T68U3  1
 UP BND       S_T68U4  1
 UP BND       S_T68U5  1
 UP BND       S_T68U6  1
 UP BND       S_T68U7  1
 UP BND       S_T68U8  1
 UP BND       S_T68U9  1
 UP BND       S_T68U10  1
 UP BND       S_T68U11  1
 UP BND       S_T68U12  1
 UP BND       S_T68U13  1
 UP BND       S_T68U14  1
 UP BND       S_T68U15  1
 UP BND       S_T68U16  1
 UP BND       S_T68U17  1
 UP BND       S_T68U18  1
 UP BND       S_T68U19  1
 UP BND       S_T68U20  1
 UP BND       S_T69U1  1
 UP BND       S_T69U2  1
 UP BND       S_T69U3  1
 UP BND       S_T69U4  1
 UP BND       S_T69U5  1
 UP BND       S_T69U6  1
 UP BND       S_T69U7  1
 UP BND       S_T69U8  1
 UP BND       S_T69U9  1
 UP BND       S_T69U10  1
 UP BND       S_T69U11  1
 UP BND       S_T69U12  1
 UP BND       S_T69U13  1
 UP BND       S_T69U14  1
 UP BND       S_T69U15  1
 UP BND       S_T69U16  1
 UP BND       S_T69U17  1
 UP BND       S_T69U18  1
 UP BND       S_T69U19  1
 UP BND       S_T69U20  1
 UP BND       S_T70U1  1
 UP BND       S_T70U2  1
 UP BND       S_T70U3  1
 UP BND       S_T70U4  1
 UP BND       S_T70U5  1
 UP BND       S_T70U6  1
 UP BND       S_T70U7  1
 UP BND       S_T70U8  1
 UP BND       S_T70U9  1
 UP BND       S_T70U10  1
 UP BND       S_T70U11  1
 UP BND       S_T70U12  1
 UP BND       S_T70U13  1
 UP BND       S_T70U14  1
 UP BND       S_T70U15  1
 UP BND       S_T70U16  1
 UP BND       S_T70U17  1
 UP BND       S_T70U18  1
 UP BND       S_T70U19  1
 UP BND       S_T70U20  1
 UP BND       S_T71U1  1
 UP BND       S_T71U2  1
 UP BND       S_T71U3  1
 UP BND       S_T71U4  1
 UP BND       S_T71U5  1
 UP BND       S_T71U6  1
 UP BND       S_T71U7  1
 UP BND       S_T71U8  1
 UP BND       S_T71U9  1
 UP BND       S_T71U10  1
 UP BND       S_T71U11  1
 UP BND       S_T71U12  1
 UP BND       S_T71U13  1
 UP BND       S_T71U14  1
 UP BND       S_T71U15  1
 UP BND       S_T71U16  1
 UP BND       S_T71U17  1
 UP BND       S_T71U18  1
 UP BND       S_T71U19  1
 UP BND       S_T71U20  1
 UP BND       S_T72U1  1
 UP BND       S_T72U2  1
 UP BND       S_T72U3  1
 UP BND       S_T72U4  1
 UP BND       S_T72U5  1
 UP BND       S_T72U6  1
 UP BND       S_T72U7  1
 UP BND       S_T72U8  1
 UP BND       S_T72U9  1
 UP BND       S_T72U10  1
 UP BND       S_T72U11  1
 UP BND       S_T72U12  1
 UP BND       S_T72U13  1
 UP BND       S_T72U14  1
 UP BND       S_T72U15  1
 UP BND       S_T72U16  1
 UP BND       S_T72U17  1
 UP BND       S_T72U18  1
 UP BND       S_T72U19  1
 UP BND       S_T72U20  1
 UP BND       S_T73U1  1
 UP BND       S_T73U2  1
 UP BND       S_T73U3  1
 UP BND       S_T73U4  1
 UP BND       S_T73U5  1
 UP BND       S_T73U6  1
 UP BND       S_T73U7  1
 UP BND       S_T73U8  1
 UP BND       S_T73U9  1
 UP BND       S_T73U10  1
 UP BND       S_T73U11  1
 UP BND       S_T73U12  1
 UP BND       S_T73U13  1
 UP BND       S_T73U14  1
 UP BND       S_T73U15  1
 UP BND       S_T73U16  1
 UP BND       S_T73U17  1
 UP BND       S_T73U18  1
 UP BND       S_T73U19  1
 UP BND       S_T73U20  1
 UP BND       S_T74U1  1
 UP BND       S_T74U2  1
 UP BND       S_T74U3  1
 UP BND       S_T74U4  1
 UP BND       S_T74U5  1
 UP BND       S_T74U6  1
 UP BND       S_T74U7  1
 UP BND       S_T74U8  1
 UP BND       S_T74U9  1
 UP BND       S_T74U10  1
 UP BND       S_T74U11  1
 UP BND       S_T74U12  1
 UP BND       S_T74U13  1
 UP BND       S_T74U14  1
 UP BND       S_T74U15  1
 UP BND       S_T74U16  1
 UP BND       S_T74U17  1
 UP BND       S_T74U18  1
 UP BND       S_T74U19  1
 UP BND       S_T74U20  1
 UP BND       S_T75U1  1
 UP BND       S_T75U2  1
 UP BND       S_T75U3  1
 UP BND       S_T75U4  1
 UP BND       S_T75U5  1
 UP BND       S_T75U6  1
 UP BND       S_T75U7  1
 UP BND       S_T75U8  1
 UP BND       S_T75U9  1
 UP BND       S_T75U10  1
 UP BND       S_T75U11  1
 UP BND       S_T75U12  1
 UP BND       S_T75U13  1
 UP BND       S_T75U14  1
 UP BND       S_T75U15  1
 UP BND       S_T75U16  1
 UP BND       S_T75U17  1
 UP BND       S_T75U18  1
 UP BND       S_T75U19  1
 UP BND       S_T75U20  1
 UP BND       S_T76U1  1
 UP BND       S_T76U2  1
 UP BND       S_T76U3  1
 UP BND       S_T76U4  1
 UP BND       S_T76U5  1
 UP BND       S_T76U6  1
 UP BND       S_T76U7  1
 UP BND       S_T76U8  1
 UP BND       S_T76U9  1
 UP BND       S_T76U10  1
 UP BND       S_T76U11  1
 UP BND       S_T76U12  1
 UP BND       S_T76U13  1
 UP BND       S_T76U14  1
 UP BND       S_T76U15  1
 UP BND       S_T76U16  1
 UP BND       S_T76U17  1
 UP BND       S_T76U18  1
 UP BND       S_T76U19  1
 UP BND       S_T76U20  1
 UP BND       S_T77U1  1
 UP BND       S_T77U2  1
 UP BND       S_T77U3  1
 UP BND       S_T77U4  1
 UP BND       S_T77U5  1
 UP BND       S_T77U6  1
 UP BND       S_T77U7  1
 UP BND       S_T77U8  1
 UP BND       S_T77U9  1
 UP BND       S_T77U10  1
 UP BND       S_T77U11  1
 UP BND       S_T77U12  1
 UP BND       S_T77U13  1
 UP BND       S_T77U14  1
 UP BND       S_T77U15  1
 UP BND       S_T77U16  1
 UP BND       S_T77U17  1
 UP BND       S_T77U18  1
 UP BND       S_T77U19  1
 UP BND       S_T77U20  1
 UP BND       S_T78U1  1
 UP BND       S_T78U2  1
 UP BND       S_T78U3  1
 UP BND       S_T78U4  1
 UP BND       S_T78U5  1
 UP BND       S_T78U6  1
 UP BND       S_T78U7  1
 UP BND       S_T78U8  1
 UP BND       S_T78U9  1
 UP BND       S_T78U10  1
 UP BND       S_T78U11  1
 UP BND       S_T78U12  1
 UP BND       S_T78U13  1
 UP BND       S_T78U14  1
 UP BND       S_T78U15  1
 UP BND       S_T78U16  1
 UP BND       S_T78U17  1
 UP BND       S_T78U18  1
 UP BND       S_T78U19  1
 UP BND       S_T78U20  1
 UP BND       S_T79U1  1
 UP BND       S_T79U2  1
 UP BND       S_T79U3  1
 UP BND       S_T79U4  1
 UP BND       S_T79U5  1
 UP BND       S_T79U6  1
 UP BND       S_T79U7  1
 UP BND       S_T79U8  1
 UP BND       S_T79U9  1
 UP BND       S_T79U10  1
 UP BND       S_T79U11  1
 UP BND       S_T79U12  1
 UP BND       S_T79U13  1
 UP BND       S_T79U14  1
 UP BND       S_T79U15  1
 UP BND       S_T79U16  1
 UP BND       S_T79U17  1
 UP BND       S_T79U18  1
 UP BND       S_T79U19  1
 UP BND       S_T79U20  1
 UP BND       S_T80U1  1
 UP BND       S_T80U2  1
 UP BND       S_T80U3  1
 UP BND       S_T80U4  1
 UP BND       S_T80U5  1
 UP BND       S_T80U6  1
 UP BND       S_T80U7  1
 UP BND       S_T80U8  1
 UP BND       S_T80U9  1
 UP BND       S_T80U10  1
 UP BND       S_T80U11  1
 UP BND       S_T80U12  1
 UP BND       S_T80U13  1
 UP BND       S_T80U14  1
 UP BND       S_T80U15  1
 UP BND       S_T80U16  1
 UP BND       S_T80U17  1
 UP BND       S_T80U18  1
 UP BND       S_T80U19  1
 UP BND       S_T80U20  1
 UP BND       S_T81U1  1
 UP BND       S_T81U2  1
 UP BND       S_T81U3  1
 UP BND       S_T81U4  1
 UP BND       S_T81U5  1
 UP BND       S_T81U6  1
 UP BND       S_T81U7  1
 UP BND       S_T81U8  1
 UP BND       S_T81U9  1
 UP BND       S_T81U10  1
 UP BND       S_T81U11  1
 UP BND       S_T81U12  1
 UP BND       S_T81U13  1
 UP BND       S_T81U14  1
 UP BND       S_T81U15  1
 UP BND       S_T81U16  1
 UP BND       S_T81U17  1
 UP BND       S_T81U18  1
 UP BND       S_T81U19  1
 UP BND       S_T81U20  1
 UP BND       S_T82U1  1
 UP BND       S_T82U2  1
 UP BND       S_T82U3  1
 UP BND       S_T82U4  1
 UP BND       S_T82U5  1
 UP BND       S_T82U6  1
 UP BND       S_T82U7  1
 UP BND       S_T82U8  1
 UP BND       S_T82U9  1
 UP BND       S_T82U10  1
 UP BND       S_T82U11  1
 UP BND       S_T82U12  1
 UP BND       S_T82U13  1
 UP BND       S_T82U14  1
 UP BND       S_T82U15  1
 UP BND       S_T82U16  1
 UP BND       S_T82U17  1
 UP BND       S_T82U18  1
 UP BND       S_T82U19  1
 UP BND       S_T82U20  1
 UP BND       S_T83U1  1
 UP BND       S_T83U2  1
 UP BND       S_T83U3  1
 UP BND       S_T83U4  1
 UP BND       S_T83U5  1
 UP BND       S_T83U6  1
 UP BND       S_T83U7  1
 UP BND       S_T83U8  1
 UP BND       S_T83U9  1
 UP BND       S_T83U10  1
 UP BND       S_T83U11  1
 UP BND       S_T83U12  1
 UP BND       S_T83U13  1
 UP BND       S_T83U14  1
 UP BND       S_T83U15  1
 UP BND       S_T83U16  1
 UP BND       S_T83U17  1
 UP BND       S_T83U18  1
 UP BND       S_T83U19  1
 UP BND       S_T83U20  1
 UP BND       S_T84U1  1
 UP BND       S_T84U2  1
 UP BND       S_T84U3  1
 UP BND       S_T84U4  1
 UP BND       S_T84U5  1
 UP BND       S_T84U6  1
 UP BND       S_T84U7  1
 UP BND       S_T84U8  1
 UP BND       S_T84U9  1
 UP BND       S_T84U10  1
 UP BND       S_T84U11  1
 UP BND       S_T84U12  1
 UP BND       S_T84U13  1
 UP BND       S_T84U14  1
 UP BND       S_T84U15  1
 UP BND       S_T84U16  1
 UP BND       S_T84U17  1
 UP BND       S_T84U18  1
 UP BND       S_T84U19  1
 UP BND       S_T84U20  1
 UP BND       S_T85U1  1
 UP BND       S_T85U2  1
 UP BND       S_T85U3  1
 UP BND       S_T85U4  1
 UP BND       S_T85U5  1
 UP BND       S_T85U6  1
 UP BND       S_T85U7  1
 UP BND       S_T85U8  1
 UP BND       S_T85U9  1
 UP BND       S_T85U10  1
 UP BND       S_T85U11  1
 UP BND       S_T85U12  1
 UP BND       S_T85U13  1
 UP BND       S_T85U14  1
 UP BND       S_T85U15  1
 UP BND       S_T85U16  1
 UP BND       S_T85U17  1
 UP BND       S_T85U18  1
 UP BND       S_T85U19  1
 UP BND       S_T85U20  1
 UP BND       S_T86U1  1
 UP BND       S_T86U2  1
 UP BND       S_T86U3  1
 UP BND       S_T86U4  1
 UP BND       S_T86U5  1
 UP BND       S_T86U6  1
 UP BND       S_T86U7  1
 UP BND       S_T86U8  1
 UP BND       S_T86U9  1
 UP BND       S_T86U10  1
 UP BND       S_T86U11  1
 UP BND       S_T86U12  1
 UP BND       S_T86U13  1
 UP BND       S_T86U14  1
 UP BND       S_T86U15  1
 UP BND       S_T86U16  1
 UP BND       S_T86U17  1
 UP BND       S_T86U18  1
 UP BND       S_T86U19  1
 UP BND       S_T86U20  1
 UP BND       S_T87U1  1
 UP BND       S_T87U2  1
 UP BND       S_T87U3  1
 UP BND       S_T87U4  1
 UP BND       S_T87U5  1
 UP BND       S_T87U6  1
 UP BND       S_T87U7  1
 UP BND       S_T87U8  1
 UP BND       S_T87U9  1
 UP BND       S_T87U10  1
 UP BND       S_T87U11  1
 UP BND       S_T87U12  1
 UP BND       S_T87U13  1
 UP BND       S_T87U14  1
 UP BND       S_T87U15  1
 UP BND       S_T87U16  1
 UP BND       S_T87U17  1
 UP BND       S_T87U18  1
 UP BND       S_T87U19  1
 UP BND       S_T87U20  1
 UP BND       S_T88U1  1
 UP BND       S_T88U2  1
 UP BND       S_T88U3  1
 UP BND       S_T88U4  1
 UP BND       S_T88U5  1
 UP BND       S_T88U6  1
 UP BND       S_T88U7  1
 UP BND       S_T88U8  1
 UP BND       S_T88U9  1
 UP BND       S_T88U10  1
 UP BND       S_T88U11  1
 UP BND       S_T88U12  1
 UP BND       S_T88U13  1
 UP BND       S_T88U14  1
 UP BND       S_T88U15  1
 UP BND       S_T88U16  1
 UP BND       S_T88U17  1
 UP BND       S_T88U18  1
 UP BND       S_T88U19  1
 UP BND       S_T88U20  1
 UP BND       S_T89U1  1
 UP BND       S_T89U2  1
 UP BND       S_T89U3  1
 UP BND       S_T89U4  1
 UP BND       S_T89U5  1
 UP BND       S_T89U6  1
 UP BND       S_T89U7  1
 UP BND       S_T89U8  1
 UP BND       S_T89U9  1
 UP BND       S_T89U10  1
 UP BND       S_T89U11  1
 UP BND       S_T89U12  1
 UP BND       S_T89U13  1
 UP BND       S_T89U14  1
 UP BND       S_T89U15  1
 UP BND       S_T89U16  1
 UP BND       S_T89U17  1
 UP BND       S_T89U18  1
 UP BND       S_T89U19  1
 UP BND       S_T89U20  1
 UP BND       S_T90U1  1
 UP BND       S_T90U2  1
 UP BND       S_T90U3  1
 UP BND       S_T90U4  1
 UP BND       S_T90U5  1
 UP BND       S_T90U6  1
 UP BND       S_T90U7  1
 UP BND       S_T90U8  1
 UP BND       S_T90U9  1
 UP BND       S_T90U10  1
 UP BND       S_T90U11  1
 UP BND       S_T90U12  1
 UP BND       S_T90U13  1
 UP BND       S_T90U14  1
 UP BND       S_T90U15  1
 UP BND       S_T90U16  1
 UP BND       S_T90U17  1
 UP BND       S_T90U18  1
 UP BND       S_T90U19  1
 UP BND       S_T90U20  1
 UP BND       S_T91U1  1
 UP BND       S_T91U2  1
 UP BND       S_T91U3  1
 UP BND       S_T91U4  1
 UP BND       S_T91U5  1
 UP BND       S_T91U6  1
 UP BND       S_T91U7  1
 UP BND       S_T91U8  1
 UP BND       S_T91U9  1
 UP BND       S_T91U10  1
 UP BND       S_T91U11  1
 UP BND       S_T91U12  1
 UP BND       S_T91U13  1
 UP BND       S_T91U14  1
 UP BND       S_T91U15  1
 UP BND       S_T91U16  1
 UP BND       S_T91U17  1
 UP BND       S_T91U18  1
 UP BND       S_T91U19  1
 UP BND       S_T91U20  1
 UP BND       S_T92U1  1
 UP BND       S_T92U2  1
 UP BND       S_T92U3  1
 UP BND       S_T92U4  1
 UP BND       S_T92U5  1
 UP BND       S_T92U6  1
 UP BND       S_T92U7  1
 UP BND       S_T92U8  1
 UP BND       S_T92U9  1
 UP BND       S_T92U10  1
 UP BND       S_T92U11  1
 UP BND       S_T92U12  1
 UP BND       S_T92U13  1
 UP BND       S_T92U14  1
 UP BND       S_T92U15  1
 UP BND       S_T92U16  1
 UP BND       S_T92U17  1
 UP BND       S_T92U18  1
 UP BND       S_T92U19  1
 UP BND       S_T92U20  1
 UP BND       S_T93U1  1
 UP BND       S_T93U2  1
 UP BND       S_T93U3  1
 UP BND       S_T93U4  1
 UP BND       S_T93U5  1
 UP BND       S_T93U6  1
 UP BND       S_T93U7  1
 UP BND       S_T93U8  1
 UP BND       S_T93U9  1
 UP BND       S_T93U10  1
 UP BND       S_T93U11  1
 UP BND       S_T93U12  1
 UP BND       S_T93U13  1
 UP BND       S_T93U14  1
 UP BND       S_T93U15  1
 UP BND       S_T93U16  1
 UP BND       S_T93U17  1
 UP BND       S_T93U18  1
 UP BND       S_T93U19  1
 UP BND       S_T93U20  1
 UP BND       S_T94U1  1
 UP BND       S_T94U2  1
 UP BND       S_T94U3  1
 UP BND       S_T94U4  1
 UP BND       S_T94U5  1
 UP BND       S_T94U6  1
 UP BND       S_T94U7  1
 UP BND       S_T94U8  1
 UP BND       S_T94U9  1
 UP BND       S_T94U10  1
 UP BND       S_T94U11  1
 UP BND       S_T94U12  1
 UP BND       S_T94U13  1
 UP BND       S_T94U14  1
 UP BND       S_T94U15  1
 UP BND       S_T94U16  1
 UP BND       S_T94U17  1
 UP BND       S_T94U18  1
 UP BND       S_T94U19  1
 UP BND       S_T94U20  1
 UP BND       S_T95U1  1
 UP BND       S_T95U2  1
 UP BND       S_T95U3  1
 UP BND       S_T95U4  1
 UP BND       S_T95U5  1
 UP BND       S_T95U6  1
 UP BND       S_T95U7  1
 UP BND       S_T95U8  1
 UP BND       S_T95U9  1
 UP BND       S_T95U10  1
 UP BND       S_T95U11  1
 UP BND       S_T95U12  1
 UP BND       S_T95U13  1
 UP BND       S_T95U14  1
 UP BND       S_T95U15  1
 UP BND       S_T95U16  1
 UP BND       S_T95U17  1
 UP BND       S_T95U18  1
 UP BND       S_T95U19  1
 UP BND       S_T95U20  1
 UP BND       S_T96U1  1
 UP BND       S_T96U2  1
 UP BND       S_T96U3  1
 UP BND       S_T96U4  1
 UP BND       S_T96U5  1
 UP BND       S_T96U6  1
 UP BND       S_T96U7  1
 UP BND       S_T96U8  1
 UP BND       S_T96U9  1
 UP BND       S_T96U10  1
 UP BND       S_T96U11  1
 UP BND       S_T96U12  1
 UP BND       S_T96U13  1
 UP BND       S_T96U14  1
 UP BND       S_T96U15  1
 UP BND       S_T96U16  1
 UP BND       S_T96U17  1
 UP BND       S_T96U18  1
 UP BND       S_T96U19  1
 UP BND       S_T96U20  1
ENDATA
