NAME          BLEND_S42
OBJSENSE
 MAX
ROWS
 N  COST
 G  YLD1
 G  YLD2
 G  YLD3
 L  CAP
 G  DEM1
 G  DEM2
 G  DEM3
 L  SULF
COLUMNS
    CRUDE1  COST  -69.8271  YLD1  0.4388
    CRUDE1  YLD2  0.396993  YLD3  0.35991
    CRUDE1  CAP  1  SULF  -0.268358
    CRUDE2  COST  -68.9845  YLD1  0.525421
    CRUDE2  YLD2  0.394661  YLD3  0.309944
    CRUDE2  CAP  1  SULF  1.09591
    CRUDE3  COST  -52.2916  YLD1  0.150312
    CRUDE3  YLD2  0.152827  YLD3  0.168666
    CRUDE3  CAP  1  SULF  -0.543776
    CRUDE4  COST  -52.9624  YLD1  0.546885
    CRUDE4  YLD2  0.159225  YLD3  0.539502
    CRUDE4  CAP  1  SULF  0.227545
    PROD1  COST  100.001  YLD1  -1
    PROD1  DEM1  1
    PROD2  COST  135.562  YLD2  -1
    PROD2  DEM2  1
    PROD3  COST  93.9488  YLD3  -1
    PROD3  DEM3  1
RHS
    RHS       CAP  25000
    RHS       DEM1  1931.09
    RHS       DEM2  1362.43
    RHS       DEM3  3473.54
BOUNDS
 UP BND       CRUDE1  20000
 UP BND       CRUDE2  20000
 UP BND       CRUDE3  20000
 UP BND       CRUDE4  20000
 UP BND       PROD1  15000
 UP BND       PROD2  15000
 UP BND       PROD3  15000
ENDATA
