NAME          BLEND_S42
OBJSENSE
 MAX
ROWS
 N  COST
 G  YLD1
 G  YLD2
 G  YLD3
 G  YLD4
 G  YLD5
 G  YLD6
 G  YLD7
 G  YLD8
 G  YLD9
 G  YLD10
 G  YLD11
 G  YLD12
 G  YLD13
 G  YLD14
 G  YLD15
 G  YLD16
 G  YLD17
 G  YLD18
 G  YLD19
 G  YLD20
 G  YLD21
 G  YLD22
 G  YLD23
 G  YLD24
 G  YLD25
 G  YLD26
 G  YLD27
 G  YLD28
 G  YLD29
 G  YLD30
 G  YLD31
 G  YLD32
 G  YLD33
 G  YLD34
 G  YLD35
 G  YLD36
 G  YLD37
 G  YLD38
 G  YLD39
 G  YLD40
 G  YLD41
 G  YLD42
 G  YLD43
 G  YLD44
 G  YLD45
 G  YLD46
 G  YLD47
 G  YLD48
 G  YLD49
 G  YLD50
 G  YLD51
 G  YLD52
 G  YLD53
 G  YLD54
 G  YLD55
 G  YLD56
 G  YLD57
 G  YLD58
 G  YLD59
 G  YLD60
 G  YLD61
 G  YLD62
 G  YLD63
 G  YLD64
 G  YLD65
 G  YLD66
 G  YLD67
 G  YLD68
 G  YLD69
 G  YLD70
 G  YLD71
 G  YLD72
 G  YLD73
 G  YLD74
 G  YLD75
 G  YLD76
 G  YLD77
 G  YLD78
 G  YLD79
 G  YLD80
 L  CAP
 G  DEM1
 G  DEM2
 G  DEM3
 G  DEM4
 G  DEM5
 G  DEM6
 G  DEM7
 G  DEM8
 G  DEM9
 G  DEM10
 G  DEM11
 G  DEM12
 G  DEM13
 G  DEM14
 G  DEM15
 G  DEM16
 G  DEM17
 G  DEM18
 G  DEM19
 G  DEM20
 G  DEM21
 G  DEM22
 G  DEM23
 G  DEM24
 G  DEM25
 G  DEM26
 G  DEM27
 G  DEM28
 G  DEM29
 G  DEM30
 G  DEM31
 G  DEM32
 G  DEM33
 G  DEM34
 G  DEM35
 G  DEM36
 G  DEM37
 G  DEM38
 G  DEM39
 G  DEM40
 G  DEM41
 G  DEM42
 G  DEM43
 G  DEM44
 G  DEM45
 G  DEM46
 G  DEM47
 G  DEM48
 G  DEM49
 G  DEM50
 G  DEM51
 G  DEM52
 G  DEM53
 G  DEM54
 G  DEM55
 G  DEM56
 G  DEM57
 G  DEM58
 G  DEM59
 G  DEM60
 G  DEM61
 G  DEM62
 G  DEM63
 G  DEM64
 G  DEM65
 G  DEM66
 G  DEM67
 G  DEM68
 G  DEM69
 G  DEM70
 G  DEM71
 G  DEM72
 G  DEM73
 G  DEM74
 G  DEM75
 G  DEM76
 G  DEM77
 G  DEM78
 G  DEM79
 G  DEM80
 L  SULF
COLUMNS
    CRUDE1  COST  -69.8271  YLD1  0.236724
    CRUDE1  YLD2  0.540027  YLD3  0.228445
    CRUDE1  YLD4  0.253593  YLD5  0.23414
    CRUDE1  YLD6  0.300269  YLD7  0.532929
    CRUDE1  YLD8  0.187503  YLD9  0.371005
    CRUDE1  YLD10  0.151168  YLD11  0.336713
    CRUDE1  YLD12  0.189947  YLD13  0.387521
    CRUDE1  YLD14  0.525623  YLD15  0.354225
    CRUDE1  YLD16  0.3838  YLD17  0.377386
    CRUDE1  YLD18  0.53747  YLD19  0.527225
    CRUDE1  YLD20  0.165235  YLD21  0.412361
    CRUDE1  YLD22  0.428075  YLD23  0.227264
    CRUDE1  YLD24  0.450061  YLD25  0.332692
    CRUDE1  YLD26  0.494885  YLD27  0.398491
    CRUDE1  YLD28  0.172291  YLD29  0.418945
    CRUDE1  YLD30  0.471544  YLD31  0.401949
    CRUDE1  YLD32  0.500305  YLD33  0.153912
    CRUDE1  YLD34  0.253124  YLD35  0.170182
    CRUDE1  YLD36  0.171685  YLD37  0.218979
    CRUDE1  YLD38  0.448668  YLD39  0.294586
    CRUDE1  YLD40  0.240305  YLD41  0.346002
    CRUDE1  YLD42  0.54956  YLD43  0.52329
    CRUDE1  YLD44  0.448346  YLD45  0.355352
    CRUDE1  YLD46  0.418398  YLD47  0.438659
    CRUDE1  YLD48  0.47891  YLD49  0.158469
    CRUDE1  YLD50  0.548809  YLD51  0.449096
    CRUDE1  YLD52  0.155948  YLD53  0.324336
    CRUDE1  YLD54  0.212368  YLD55  0.208946
    CRUDE1  YLD56  0.317125  YLD57  0.504795
    CRUDE1  YLD58  0.429996  YLD59  0.384495
    CRUDE1  YLD60  0.236394  YLD61  0.305195
    CRUDE1  YLD62  0.201222  YLD63  0.350631
    CRUDE1  YLD64  0.226512  YLD65  0.291151
    CRUDE1  YLD66  0.163733  YLD67  0.428989
    CRUDE1  YLD68  0.205775  YLD69  0.401454
    CRUDE1  YLD70  0.52997  YLD71  0.374213
    CRUDE1  YLD72  0.16678  YLD73  0.287669
    CRUDE1  YLD74  0.378897  YLD75  0.39612
    CRUDE1  YLD76  0.185712  YLD77  0.230501
    CRUDE1  YLD78  0.468949  YLD79  0.200004
    CRUDE1  YLD80  0.513056  CAP  1
    CRUDE1  SULF  -0.996885
    CRUDE2  COST  -68.9845  YLD1  0.267798
    CRUDE2  YLD2  0.3463  YLD3  0.352203
    CRUDE2  YLD4  0.385422  YLD5  0.288407
    CRUDE2  YLD6  0.268748  YLD7  0.379217
    CRUDE2  YLD8  0.380869  YLD9  0.187661
    CRUDE2  YLD10  0.165906  YLD11  0.163785
    CRUDE2  YLD12  0.425218  YLD13  0.163124
    CRUDE2  YLD14  0.152673  YLD15  0.47824
    CRUDE2  YLD16  0.483517  YLD17  0.410606
    CRUDE2  YLD18  0.254937  YLD19  0.279528
    CRUDE2  YLD20  0.397987  YLD21  0.229526
    CRUDE2  YLD22  0.401851  YLD23  0.338523
    CRUDE2  YLD24  0.332727  YLD25  0.281692
    CRUDE2  YLD26  0.476437  YLD27  0.169232
    CRUDE2  YLD28  0.514691  YLD29  0.281504
    CRUDE2  YLD30  0.353554  YLD31  0.293916
    CRUDE2  YLD32  0.450938  YLD33  0.180049
    CRUDE2  YLD34  0.312729  YLD35  0.191825
    CRUDE2  YLD36  0.440191  YLD37  0.381853
    CRUDE2  YLD38  0.187529  YLD39  0.461072
    CRUDE2  YLD40  0.160056  YLD41  0.194164
    CRUDE2  YLD42  0.544886  YLD43  0.525345
    CRUDE2  YLD44  0.467872  YLD45  0.480129
    CRUDE2  YLD46  0.214079  YLD47  0.179865
    CRUDE2  YLD48  0.375068  YLD49  0.289205
    CRUDE2  YLD50  0.332347  YLD51  0.250934
    CRUDE2  YLD52  0.291151  YLD53  0.372336
    CRUDE2  YLD54  0.326739  YLD55  0.427691
    CRUDE2  YLD56  0.255221  YLD57  0.229343
    CRUDE2  YLD58  0.152433  YLD59  0.371511
    CRUDE2  YLD60  0.441457  YLD61  0.303433
    CRUDE2  YLD62  0.326144  YLD63  0.496643
    CRUDE2  YLD64  0.49252  YLD65  0.300203
    CRUDE2  YLD66  0.543026  YLD67  0.170897
    CRUDE2  YLD68  0.352909  YLD69  0.208712
    CRUDE2  YLD70  0.161076  YLD71  0.301836
    CRUDE2  YLD72  0.423101  YLD73  0.262618
    CRUDE2  YLD74  0.49698  YLD75  0.300106
    CRUDE2  YLD76  0.304977  YLD77  0.386179
    CRUDE2  YLD78  0.302644  YLD79  0.207608
    CRUDE2  YLD80  0.436144  CAP  1
    CRUDE2  SULF  0.367386
    CRUDE3  COST  -52.2916  YLD1  0.548333
    CRUDE3  YLD2  0.439158  YLD3  0.38802
    CRUDE3  YLD4  0.542932  YLD5  0.460322
    CRUDE3  YLD6  0.40963  YLD7  0.523092
    CRUDE3  YLD8  0.500855  YLD9  0.287465
    CRUDE3  YLD10  0.391629  YLD11  0.537843
    CRUDE3  YLD12  0.246756  YLD13  0.404417
    CRUDE3  YLD14  0.45892  YLD15  0.311827
    CRUDE3  YLD16  0.407031  YLD17  0.234313
    CRUDE3  YLD18  0.27522  YLD19  0.414456
    CRUDE3  YLD20  0.429279  YLD21  0.276004
    CRUDE3  YLD22  0.495394  YLD23  0.339006
    CRUDE3  YLD24  0.488267  YLD25  0.170993
    CRUDE3  YLD26  0.543563  YLD27  0.34343
    CRUDE3  YLD28  0.430833  YLD29  0.261245
    CRUDE3  YLD30  0.174978  YLD31  0.312325
    CRUDE3  YLD32  0.157058  YLD33  0.364264
    CRUDE3  YLD34  0.334026  YLD35  0.502402
    CRUDE3  YLD36  0.182424  YLD37  0.37221
    CRUDE3  YLD38  0.355034  YLD39  0.445521
    CRUDE3  YLD40  0.439172  YLD41  0.317805
    CRUDE3  YLD42  0.50267  YLD43  0.515663
    CRUDE3  YLD44  0.449097  YLD45  0.476328
    CRUDE3  YLD46  0.153114  YLD47  0.515776
    CRUDE3  YLD48  0.535756  YLD49  0.437597
    CRUDE3  YLD50  0.449531  YLD51  0.315879
    CRUDE3  YLD52  0.207224  YLD53  0.312062
    CRUDE3  YLD54  0.352549  YLD55  0.50704
    CRUDE3  YLD56  0.1784  YLD57  0.449434
    CRUDE3  YLD58  0.338522  YLD59  0.288656
    CRUDE3  YLD60  0.408284  YLD61  0.156287
    CRUDE3  YLD62  0.505084  YLD63  0.467892
    CRUDE3  YLD64  0.50306  YLD65  0.328917
    CRUDE3  YLD66  0.49606  YLD67  0.363699
    CRUDE3  YLD68  0.416013  YLD69  0.538066
    CRUDE3  YLD70  0.205786  YLD71  0.169281
    CRUDE3  YLD72  0.27298  YLD73  0.179476
    CRUDE3  YLD74  0.339626  YLD75  0.307624
    CRUDE3  YLD76  0.187786  YLD77  0.21498
    CRUDE3  YLD78  0.265175  YLD79  0.506343
    CRUDE3  YLD80  0.428348  CAP  1
    CRUDE3  SULF  -1.2723
    CRUDE4  COST  -52.9624  YLD1  0.42877
    CRUDE4  YLD2  0.478345  YLD3  0.285708
    CRUDE4  YLD4  0.50368  YLD5  0.526495
    CRUDE4  YLD6  0.281352  YLD7  0.380065
    CRUDE4  YLD8  0.32352  YLD9  0.262972
    CRUDE4  YLD10  0.512952  YLD11  0.529645
    CRUDE4  YLD12  0.514427  YLD13  0.295742
    CRUDE4  YLD14  0.400082  YLD15  0.343738
    CRUDE4  YLD16  0.181423  YLD17  0.372582
    CRUDE4  YLD18  0.484599  YLD19  0.410894
    CRUDE4  YLD20  0.235967  YLD21  0.239841
    CRUDE4  YLD22  0.202915  YLD23  0.30129
    CRUDE4  YLD24  0.195695  YLD25  0.330095
    CRUDE4  YLD26  0.513897  YLD27  0.155859
    CRUDE4  YLD28  0.352956  YLD29  0.223774
    CRUDE4  YLD30  0.303579  YLD31  0.538175
    CRUDE4  YLD32  0.356803  YLD33  0.491782
    CRUDE4  YLD34  0.269072  YLD35  0.360998
    CRUDE4  YLD36  0.436581  YLD37  0.445849
    CRUDE4  YLD38  0.375678  YLD39  0.507186
    CRUDE4  YLD40  0.474146  YLD41  0.276601
    CRUDE4  YLD42  0.307864  YLD43  0.368568
    CRUDE4  YLD44  0.326446  YLD45  0.52392
    CRUDE4  YLD46  0.451193  YLD47  0.158257
    CRUDE4  YLD48  0.23689  YLD49  0.456772
    CRUDE4  YLD50  0.416885  YLD51  0.182937
    CRUDE4  YLD52  0.519853  YLD53  0.234232
    CRUDE4  YLD54  0.302354  YLD55  0.403493
    CRUDE4  YLD56  0.366882  YLD57  0.262891
    CRUDE4  YLD58  0.197548  YLD59  0.230606
    CRUDE4  YLD60  0.544298  YLD61  0.333134
    CRUDE4  YLD62  0.250979  YLD63  0.535096
    CRUDE4  YLD64  0.268765  YLD65  0.466066
    CRUDE4  YLD66  0.381856  YLD67  0.270505
    CRUDE4  YLD68  0.4644  YLD69  0.441843
    CRUDE4  YLD70  0.378133  YLD71  0.418909
    CRUDE4  YLD72  0.373758  YLD73  0.52657
    CRUDE4  YLD74  0.521053  YLD75  0.365859
    CRUDE4  YLD76  0.2263  YLD77  0.544322
    CRUDE4  YLD78  0.264204  YLD79  0.545203
    CRUDE4  YLD80  0.384554  CAP  1
    CRUDE4  SULF  -0.500982
    CRUDE5  COST  -37.1433  YLD1  0.303681
    CRUDE5  YLD2  0.437383  YLD3  0.377777
    CRUDE5  YLD4  0.390319  YLD5  0.178967
    CRUDE5  YLD6  0.402083  YLD7  0.341742
    CRUDE5  YLD8  0.214339  YLD9  0.306291
    CRUDE5  YLD10  0.245543  YLD11  0.355161
    CRUDE5  YLD12  0.485306  YLD13  0.268097
    CRUDE5  YLD14  0.299422  YLD15  0.155347
    CRUDE5  YLD16  0.446226  YLD17  0.492597
    CRUDE5  YLD18  0.170086  YLD19  0.250432
    CRUDE5  YLD20  0.166786  YLD21  0.177661
    CRUDE5  YLD22  0.541036  YLD23  0.356917
    CRUDE5  YLD24  0.252141  YLD25  0.251899
    CRUDE5  YLD26  0.490716  YLD27  0.518458
    CRUDE5  YLD28  0.326602  YLD29  0.349007
    CRUDE5  YLD30  0.327776  YLD31  0.194954
    CRUDE5  YLD32  0.361829  YLD33  0.151954
    CRUDE5  YLD34  0.163179  YLD35  0.479935
    CRUDE5  YLD36  0.24985  YLD37  0.349697
    CRUDE5  YLD38  0.347663  YLD39  0.329177
    CRUDE5  YLD40  0.468739  YLD41  0.164233
    CRUDE5  YLD42  0.42463  YLD43  0.292485
    CRUDE5  YLD44  0.443449  YLD45  0.48637
    CRUDE5  YLD46  0.192547  YLD47  0.53494
    CRUDE5  YLD48  0.435653  YLD49  0.316447
    CRUDE5  YLD50  0.546573  YLD51  0.39261
    CRUDE5  YLD52  0.191605  YLD53  0.387195
    CRUDE5  YLD54  0.32599  YLD55  0.238916
    CRUDE5  YLD56  0.505674  YLD57  0.475162
    CRUDE5  YLD58  0.489865  YLD59  0.473022
    CRUDE5  YLD60  0.235558  YLD61  0.160135
    CRUDE5  YLD62  0.299501  YLD63  0.178754
    CRUDE5  YLD64  0.479436  YLD65  0.470858
    CRUDE5  YLD66  0.194518  YLD67  0.263987
    CRUDE5  YLD68  0.434582  YLD69  0.250083
    CRUDE5  YLD70  0.445134  YLD71  0.544619
    CRUDE5  YLD72  0.523093  YLD73  0.347594
    CRUDE5  YLD74  0.234596  YLD75  0.18489
    CRUDE5  YLD76  0.15287  YLD77  0.335678
    CRUDE5  YLD78  0.289436  YLD79  0.265575
    CRUDE5  YLD80  0.403195  CAP  1
    CRUDE5  SULF  0.545712
    CRUDE6  COST  -32.8206  YLD1  0.44484
    CRUDE6  YLD2  0.364015  YLD3  0.504984
    CRUDE6  YLD4  0.51149  YLD5  0.363697
    CRUDE6  YLD6  0.393933  YLD7  0.275491
    CRUDE6  YLD8  0.373217  YLD9  0.469338
    CRUDE6  YLD10  0.337857  YLD11  0.187469
    CRUDE6  YLD12  0.433753  YLD13  0.501799
    CRUDE6  YLD14  0.170196  YLD15  0.313896
    CRUDE6  YLD16  0.187963  YLD17  0.484026
    CRUDE6  YLD18  0.335845  YLD19  0.41017
    CRUDE6  YLD20  0.295458  YLD21  0.480999
    CRUDE6  YLD22  0.383051  YLD23  0.315243
    CRUDE6  YLD24  0.481191  YLD25  0.290754
    CRUDE6  YLD26  0.17103  YLD27  0.540434
    CRUDE6  YLD28  0.202269  YLD29  0.26038
    CRUDE6  YLD30  0.206647  YLD31  0.257402
    CRUDE6  YLD32  0.310353  YLD33  0.524665
    CRUDE6  YLD34  0.386051  YLD35  0.492645
    CRUDE6  YLD36  0.501085  YLD37  0.258914
    CRUDE6  YLD38  0.442749  YLD39  0.362189
    CRUDE6  YLD40  0.201027  YLD41  0.204694
    CRUDE6  YLD42  0.316637  YLD43  0.152909
    CRUDE6  YLD44  0.400011  YLD45  0.407472
    CRUDE6  YLD46  0.18294  YLD47  0.334942
    CRUDE6  YLD48  0.297978  YLD49  0.156764
    CRUDE6  YLD50  0.435288  YLD51  0.191492
    CRUDE6  YLD52  0.305083  YLD53  0.452367
    CRUDE6  YLD54  0.338094  YLD55  0.171366
    CRUDE6  YLD56  0.42024  YLD57  0.197359
    CRUDE6  YLD58  0.53338  YLD59  0.171545
    CRUDE6  YLD60  0.389154  YLD61  0.37814
    CRUDE6  YLD62  0.488427  YLD63  0.25733
    CRUDE6  YLD64  0.293297  YLD65  0.437862
    CRUDE6  YLD66  0.236109  YLD67  0.305862
    CRUDE6  YLD68  0.209054  YLD69  0.439668
    CRUDE6  YLD70  0.365156  YLD71  0.514719
    CRUDE6  YLD72  0.272343  YLD73  0.18421
    CRUDE6  YLD74  0.371877  YLD75  0.445519
    CRUDE6  YLD76  0.222525  YLD77  0.388946
    CRUDE6  YLD78  0.347407  YLD79  0.207441
    CRUDE6  YLD80  0.471482  CAP  1
    CRUDE6  SULF  0.780376
    CRUDE7  COST  -76.9276  YLD1  0.516102
    CRUDE7  YLD2  0.340648  YLD3  0.372689
    CRUDE7  YLD4  0.545674  YLD5  0.503013
    CRUDE7  YLD6  0.375376  YLD7  0.392548
    CRUDE7  YLD8  0.474701  YLD9  0.298773
    CRUDE7  YLD10  0.330186  YLD11  0.451848
    CRUDE7  YLD12  0.529538  YLD13  0.334001
    CRUDE7  YLD14  0.400995  YLD15  0.40911
    CRUDE7  YLD16  0.387633  YLD17  0.520942
    CRUDE7  YLD18  0.301847  YLD19  0.234934
    CRUDE7  YLD20  0.189438  YLD21  0.251816
    CRUDE7  YLD22  0.54819  YLD23  0.229738
    CRUDE7  YLD24  0.301198  YLD25  0.432246
    CRUDE7  YLD26  0.191766  YLD27  0.238913
    CRUDE7  YLD28  0.2664  YLD29  0.442404
    CRUDE7  YLD30  0.190999  YLD31  0.346961
    CRUDE7  YLD32  0.268957  YLD33  0.192511
    CRUDE7  YLD34  0.359662  YLD35  0.52107
    CRUDE7  YLD36  0.47526  YLD37  0.217759
    CRUDE7  YLD38  0.303517  YLD39  0.31631
    CRUDE7  YLD40  0.51132  YLD41  0.455615
    CRUDE7  YLD42  0.409411  YLD43  0.174365
    CRUDE7  YLD44  0.491607  YLD45  0.393721
    CRUDE7  YLD46  0.15108  YLD47  0.315068
    CRUDE7  YLD48  0.261586  YLD49  0.397217
    CRUDE7  YLD50  0.215612  YLD51  0.484364
    CRUDE7  YLD52  0.24044  YLD53  0.407935
    CRUDE7  YLD54  0.457775  YLD55  0.396051
    CRUDE7  YLD56  0.249872  YLD57  0.452429
    CRUDE7  YLD58  0.533502  YLD59  0.177869
    CRUDE7  YLD60  0.462067  YLD61  0.352713
    CRUDE7  YLD62  0.397126  YLD63  0.182083
    CRUDE7  YLD64  0.189608  YLD65  0.158851
    CRUDE7  YLD66  0.261774  YLD67  0.150256
    CRUDE7  YLD68  0.332427  YLD69  0.38001
    CRUDE7  YLD70  0.292026  YLD71  0.436918
    CRUDE7  YLD72  0.169451  YLD73  0.497472
    CRUDE7  YLD74  0.200335  YLD75  0.310684
    CRUDE7  YLD76  0.282179  YLD77  0.214149
    CRUDE7  YLD78  0.316639  YLD79  0.342885
    CRUDE7  YLD80  0.541693  CAP  1
    CRUDE7  SULF  -1.59965
    CRUDE8  COST  -79.6106  YLD1  0.533481
    CRUDE8  YLD2  0.485433  YLD3  0.438325
    CRUDE8  YLD4  0.447341  YLD5  0.183003
    CRUDE8  YLD6  0.302168  YLD7  0.205679
    CRUDE8  YLD8  0.446685  YLD9  0.330679
    CRUDE8  YLD10  0.339189  YLD11  0.346772
    CRUDE8  YLD12  0.162569  YLD13  0.188021
    CRUDE8  YLD14  0.304245  YLD15  0.156203
    CRUDE8  YLD16  0.431056  YLD17  0.296354
    CRUDE8  YLD18  0.276635  YLD19  0.198803
    CRUDE8  YLD20  0.196591  YLD21  0.339211
    CRUDE8  YLD22  0.514606  YLD23  0.314947
    CRUDE8  YLD24  0.542473  YLD25  0.35862
    CRUDE8  YLD26  0.377593  YLD27  0.233242
    CRUDE8  YLD28  0.497584  YLD29  0.180649
    CRUDE8  YLD30  0.364186  YLD31  0.484692
    CRUDE8  YLD32  0.42269  YLD33  0.486793
    CRUDE8  YLD34  0.2632  YLD35  0.529932
    CRUDE8  YLD36  0.533132  YLD37  0.398328
    CRUDE8  YLD38  0.527987  YLD39  0.490151
    CRUDE8  YLD40  0.418912  YLD41  0.157215
    CRUDE8  YLD42  0.273773  YLD43  0.321536
    CRUDE8  YLD44  0.470984  YLD45  0.336943
    CRUDE8  YLD46  0.323041  YLD47  0.252578
    CRUDE8  YLD48  0.222155  YLD49  0.175238
    CRUDE8  YLD50  0.532207  YLD51  0.475822
    CRUDE8  YLD52  0.488689  YLD53  0.24378
    CRUDE8  YLD54  0.192097  YLD55  0.168959
    CRUDE8  YLD56  0.379434  YLD57  0.189248
    CRUDE8  YLD58  0.326786  YLD59  0.326209
    CRUDE8  YLD60  0.285593  YLD61  0.486003
    CRUDE8  YLD62  0.450647  YLD63  0.450432
    CRUDE8  YLD64  0.453231  YLD65  0.375938
    CRUDE8  YLD66  0.246413  YLD67  0.336664
    CRUDE8  YLD68  0.165434  YLD69  0.193676
    CRUDE8  YLD70  0.54119  YLD71  0.192117
    CRUDE8  YLD72  0.420251  YLD73  0.261533
    CRUDE8  YLD74  0.328888  YLD75  0.342159
    CRUDE8  YLD76  0.365287  YLD77  0.265751
    CRUDE8  YLD78  0.203202  YLD79  0.433811
    CRUDE8  YLD80  0.46813  CAP  1
    CRUDE8  SULF  0.435469
    CRUDE9  COST  -60.5827  YLD1  0.173146
    CRUDE9  YLD2  0.232031  YLD3  0.472126
    CRUDE9  YLD4  0.175995  YLD5  0.479806
    CRUDE9  YLD6  0.3694  YLD7  0.509305
    CRUDE9  YLD8  0.50258  YLD9  0.308953
    CRUDE9  YLD10  0.399008  YLD11  0.270979
    CRUDE9  YLD12  0.44448  YLD13  0.480699
    CRUDE9  YLD14  0.524507  YLD15  0.262353
    CRUDE9  YLD16  0.176611  YLD17  0.27722
    CRUDE9  YLD18  0.26428  YLD19  0.430553
    CRUDE9  YLD20  0.251704  YLD21  0.167326
    CRUDE9  YLD22  0.238607  YLD23  0.178911
    CRUDE9  YLD24  0.336501  YLD25  0.199859
    CRUDE9  YLD26  0.362592  YLD27  0.451488
    CRUDE9  YLD28  0.511781  YLD29  0.415613
    CRUDE9  YLD30  0.184057  YLD31  0.21547
    CRUDE9  YLD32  0.233116  YLD33  0.343142
    CRUDE9  YLD34  0.16519  YLD35  0.37193
    CRUDE9  YLD36  0.503505  YLD37  0.437596
    CRUDE9  YLD38  0.342721  YLD39  0.241881
    CRUDE9  YLD40  0.509011  YLD41  0.523701
    CRUDE9  YLD42  0.392481  YLD43  0.30973
    CRUDE9  YLD44  0.16655  YLD45  0.400594
    CRUDE9  YLD46  0.351306  YLD47  0.154028
    CRUDE9  YLD48  0.371001  YLD49  0.193142
    CRUDE9  YLD50  0.417111  YLD51  0.363442
    CRUDE9  YLD52  0.273427  YLD53  0.442643
    CRUDE9  YLD54  0.45758  YLD55  0.395089
    CRUDE9  YLD56  0.527294  YLD57  0.328766
    CRUDE9  YLD58  0.407806  YLD59  0.251022
    CRUDE9  YLD60  0.301872  YLD61  0.382712
    CRUDE9  YLD62  0.2356  YLD63  0.206333
    CRUDE9  YLD64  0.388578  YLD65  0.448997
    CRUDE9  YLD66  0.349008  YLD67  0.344627
    CRUDE9  YLD68  0.157119  YLD69  0.221279
    CRUDE9  YLD70  0.431541  YLD71  0.245776
    CRUDE9  YLD72  0.464736  YLD73  0.231441
    CRUDE9  YLD74  0.377961  YLD75  0.53972
    CRUDE9  YLD76  0.517711  YLD77  0.39585
    CRUDE9  YLD78  0.215382  YLD79  0.394961
    CRUDE9  YLD80  0.433015  CAP  1
    CRUDE9  SULF  -1.5789
    CRUDE10  COST  -31.1531  YLD1  0.307809
    CRUDE10  YLD2  0.537198  YLD3  0.545492
    CRUDE10  YLD4  0.310632  YLD5  0.293121
    CRUDE10  YLD6  0.388594  YLD7  0.481733
    CRUDE10  YLD8  0.261161  YLD9  0.187363
    CRUDE10  YLD10  0.337898  YLD11  0.346567
    CRUDE10  YLD12  0.282097  YLD13  0.169057
    CRUDE10  YLD14  0.366796  YLD15  0.233183
    CRUDE10  YLD16  0.242318  YLD17  0.44977
    CRUDE10  YLD18  0.18655  YLD19  0.195376
    CRUDE10  YLD20  0.268187  YLD21  0.429736
    CRUDE10  YLD22  0.172465  YLD23  0.380314
    CRUDE10  YLD24  0.466774  YLD25  0.534566
    CRUDE10  YLD26  0.333185  YLD27  0.251352
    CRUDE10  YLD28  0.150299  YLD29  0.245024
    CRUDE10  YLD30  0.271178  YLD31  0.260782
    CRUDE10  YLD32  0.469579  YLD33  0.413743
    CRUDE10  YLD34  0.547838  YLD35  0.286408
    CRUDE10  YLD36  0.523332  YLD37  0.377809
    CRUDE10  YLD38  0.378486  YLD39  0.245884
    CRUDE10  YLD40  0.328864  YLD41  0.18457
    CRUDE10  YLD42  0.359503  YLD43  0.223886
    CRUDE10  YLD44  0.301555  YLD45  0.468087
    CRUDE10  YLD46  0.405066  YLD47  0.259916
    CRUDE10  YLD48  0.236188  YLD49  0.4101
    CRUDE10  YLD50  0.173735  YLD51  0.206466
    CRUDE10  YLD52  0.546757  YLD53  0.252759
    CRUDE10  YLD54  0.425451  YLD55  0.240232
    CRUDE10  YLD56  0.439166  YLD57  0.443602
    CRUDE10  YLD58  0.389882  YLD59  0.448181
    CRUDE10  YLD60  0.505161  YLD61  0.279371
    CRUDE10  YLD62  0.436596  YLD63  0.189955
    CRUDE10  YLD64  0.259753  YLD65  0.32785
    CRUDE10  YLD66  0.527824  YLD67  0.495252
    CRUDE10  YLD68  0.326052  YLD69  0.166523
    CRUDE10  YLD70  0.482556  YLD71  0.22474
    CRUDE10  YLD72  0.533147  YLD73  0.262375
    CRUDE10  YLD74  0.39227  YLD75  0.287747
    CRUDE10  YLD76  0.366131  YLD77  0.369821
    CRUDE10  YLD78  0.287172  YLD79  0.530443
    CRUDE10  YLD80  0.204218  CAP  1
    CRUDE10  SULF  0.129536
    CRUDE11  COST  -49.993  YLD1  0.192702
    CRUDE11  YLD2  0.434381  YLD3  0.391279
    CRUDE11  YLD4  0.48513  YLD5  0.278838
    CRUDE11  YLD6  0.368275  YLD7  0.277013
    CRUDE11  YLD8  0.227582  YLD9  0.326429
    CRUDE11  YLD10  0.328987  YLD11  0.358978
    CRUDE11  YLD12  0.512426  YLD13  0.4407
    CRUDE11  YLD14  0.525861  YLD15  0.166794
    CRUDE11  YLD16  0.516269  YLD17  0.322445
    CRUDE11  YLD18  0.27593  YLD19  0.548764
    CRUDE11  YLD20  0.361988  YLD21  0.282224
    CRUDE11  YLD22  0.252256  YLD23  0.491462
    CRUDE11  YLD24  0.310923  YLD25  0.404364
    CRUDE11  YLD26  0.308716  YLD27  0.508031
    CRUDE11  YLD28  0.387655  YLD29  0.345712
    CRUDE11  YLD30  0.447839  YLD31  0.176319
    CRUDE11  YLD32  0.471215  YLD33  0.354273
    CRUDE11  YLD34  0.342794  YLD35  0.534746
    CRUDE11  YLD36  0.493497  YLD37  0.445341
    CRUDE11  YLD38  0.480212  YLD39  0.299042
    CRUDE11  YLD40  0.324782  YLD41  0.469695
    CRUDE11  YLD42  0.159792  YLD43  0.308192
    CRUDE11  YLD44  0.163886  YLD45  0.537615
    CRUDE11  YLD46  0.268426  YLD47  0.19376
    CRUDE11  YLD48  0.23014  YLD49  0.274995
    CRUDE11  YLD50  0.413027  YLD51  0.160232
    CRUDE11  YLD52  0.165447  YLD53  0.220081
    CRUDE11  YLD54  0.446664  YLD55  0.511862
    CRUDE11  YLD56  0.42579  YLD57  0.219287
    CRUDE11  YLD58  0.290016  YLD59  0.403676
    CRUDE11  YLD60  0.311678  YLD61  0.356492
    CRUDE11  YLD62  0.241044  YLD63  0.374669
    CRUDE11  YLD64  0.2512  YLD65  0.527974
    CRUDE11  YLD66  0.327669  YLD67  0.32941
    CRUDE11  YLD68  0.251184  YLD69  0.473695
    CRUDE11  YLD70  0.166099  YLD71  0.292185
    CRUDE11  YLD72  0.21312  YLD73  0.375829
    CRUDE11  YLD74  0.296212  YLD75  0.409288
    CRUDE11  YLD76  0.432241  YLD77  0.463746
    CRUDE11  YLD78  0.374826  YLD79  0.477111
    CRUDE11  YLD80  0.476832  CAP  1
    CRUDE11  SULF  -1.44822
    CRUDE12  COST  -78.6878  YLD1  0.284264
    CRUDE12  YLD2  0.229803  YLD3  0.47274
    CRUDE12  YLD4  0.242228  YLD5  0.540987
    CRUDE12  YLD6  0.327768  YLD7  0.531119
    CRUDE12  YLD8  0.501927  YLD9  0.228244
    CRUDE12  YLD10  0.339715  YLD11  0.375085
    CRUDE12  YLD12  0.25667  YLD13  0.459562
    CRUDE12  YLD14  0.238193  YLD15  0.341704
    CRUDE12  YLD16  0.396526  YLD17  0.185019
    CRUDE12  YLD18  0.167221  YLD19  0.223381
    CRUDE12  YLD20  0.421357  YLD21  0.447895
    CRUDE12  YLD22  0.361025  YLD23  0.440115
    CRUDE12  YLD24  0.319981  YLD25  0.456347
    CRUDE12  YLD26  0.322484  YLD27  0.379572
    CRUDE12  YLD28  0.43772  YLD29  0.264436
    CRUDE12  YLD30  0.535773  YLD31  0.432394
    CRUDE12  YLD32  0.316105  YLD33  0.340819
    CRUDE12  YLD34  0.452402  YLD35  0.368963
    CRUDE12  YLD36  0.427353  YLD37  0.206608
    CRUDE12  YLD38  0.260094  YLD39  0.242137
    CRUDE12  YLD40  0.463815  YLD41  0.509447
    CRUDE12  YLD42  0.466281  YLD43  0.21986
    CRUDE12  YLD44  0.19083  YLD45  0.336915
    CRUDE12  YLD46  0.43417  YLD47  0.413928
    CRUDE12  YLD48  0.546213  YLD49  0.289212
    CRUDE12  YLD50  0.503248  YLD51  0.468683
    CRUDE12  YLD52  0.201311  YLD53  0.426267
    CRUDE12  YLD54  0.443787  YLD55  0.340037
    CRUDE12  YLD56  0.537263  YLD57  0.264266
    CRUDE12  YLD58  0.327626  YLD59  0.459014
    CRUDE12  YLD60  0.399893  YLD61  0.429883
    CRUDE12  YLD62  0.544926  YLD63  0.314594
    CRUDE12  YLD64  0.540249  YLD65  0.479524
    CRUDE12  YLD66  0.414626  YLD67  0.295423
    CRUDE12  YLD68  0.423344  YLD69  0.370682
    CRUDE12  YLD70  0.244368  YLD71  0.244207
    CRUDE12  YLD72  0.306856  YLD73  0.179623
    CRUDE12  YLD74  0.180534  YLD75  0.307002
    CRUDE12  YLD76  0.293071  YLD77  0.257693
    CRUDE12  YLD78  0.387066  YLD79  0.497589
    CRUDE12  YLD80  0.444398  CAP  1
    CRUDE12  SULF  -0.834075
    CRUDE13  COST  -34.5303  YLD1  0.217872
    CRUDE13  YLD2  0.444499  YLD3  0.53506
    CRUDE13  YLD4  0.482257  YLD5  0.230344
    CRUDE13  YLD6  0.155867  YLD7  0.48008
    CRUDE13  YLD8  0.413024  YLD9  0.224689
    CRUDE13  YLD10  0.386347  YLD11  0.326489
    CRUDE13  YLD12  0.439943  YLD13  0.291041
    CRUDE13  YLD14  0.44029  YLD15  0.222689
    CRUDE13  YLD16  0.248514  YLD17  0.26312
    CRUDE13  YLD18  0.462386  YLD19  0.387657
    CRUDE13  YLD20  0.387108  YLD21  0.314961
    CRUDE13  YLD22  0.218639  YLD23  0.294158
    CRUDE13  YLD24  0.303153  YLD25  0.181685
    CRUDE13  YLD26  0.377719  YLD27  0.290311
    CRUDE13  YLD28  0.397499  YLD29  0.439107
    CRUDE13  YLD30  0.437148  YLD31  0.245284
    CRUDE13  YLD32  0.263419  YLD33  0.48396
    CRUDE13  YLD34  0.330926  YLD35  0.175701
    CRUDE13  YLD36  0.218104  YLD37  0.502988
    CRUDE13  YLD38  0.180081  YLD39  0.374403
    CRUDE13  YLD40  0.187319  YLD41  0.526454
    CRUDE13  YLD42  0.154759  YLD43  0.489517
    CRUDE13  YLD44  0.390564  YLD45  0.379461
    CRUDE13  YLD46  0.217733  YLD47  0.27763
    CRUDE13  YLD48  0.470699  YLD49  0.344723
    CRUDE13  YLD50  0.380817  YLD51  0.390056
    CRUDE13  YLD52  0.239856  YLD53  0.487115
    CRUDE13  YLD54  0.338237  YLD55  0.239575
    CRUDE13  YLD56  0.469549  YLD57  0.495907
    CRUDE13  YLD58  0.175729  YLD59  0.279872
    CRUDE13  YLD60  0.505695  YLD61  0.187586
    CRUDE13  YLD62  0.373954  YLD63  0.436041
    CRUDE13  YLD64  0.495  YLD65  0.405262
    CRUDE13  YLD66  0.425433  YLD67  0.547899
    CRUDE13  YLD68  0.439696  YLD69  0.276699
    CRUDE13  YLD70  0.299668  YLD71  0.247776
    CRUDE13  YLD72  0.487656  YLD73  0.342703
    CRUDE13  YLD74  0.41213  YLD75  0.507713
    CRUDE13  YLD76  0.450652  YLD77  0.411417
    CRUDE13  YLD78  0.344483  YLD79  0.366667
    CRUDE13  YLD80  0.458173  CAP  1
    CRUDE13  SULF  0.438454
    CRUDE14  COST  -49.1231  YLD1  0.408739
    CRUDE14  YLD2  0.361936  YLD3  0.527764
    CRUDE14  YLD4  0.198136  YLD5  0.427278
    CRUDE14  YLD6  0.384825  YLD7  0.416523
    CRUDE14  YLD8  0.274372  YLD9  0.187614
    CRUDE14  YLD10  0.364803  YLD11  0.392302
    CRUDE14  YLD12  0.501059  YLD13  0.479915
    CRUDE14  YLD14  0.3969  YLD15  0.447233
    CRUDE14  YLD16  0.426272  YLD17  0.317433
    CRUDE14  YLD18  0.309291  YLD19  0.31455
    CRUDE14  YLD20  0.209344  YLD21  0.228302
    CRUDE14  YLD22  0.216984  YLD23  0.184828
    CRUDE14  YLD24  0.43763  YLD25  0.168823
    CRUDE14  YLD26  0.150831  YLD27  0.483077
    CRUDE14  YLD28  0.182672  YLD29  0.528123
    CRUDE14  YLD30  0.54705  YLD31  0.30547
    CRUDE14  YLD32  0.263551  YLD33  0.452355
    CRUDE14  YLD34  0.167268  YLD35  0.407111
    CRUDE14  YLD36  0.258683  YLD37  0.382958
    CRUDE14  YLD38  0.433114  YLD39  0.203796
    CRUDE14  YLD40  0.35835  YLD41  0.496991
    CRUDE14  YLD42  0.267262  YLD43  0.269278
    CRUDE14  YLD44  0.499529  YLD45  0.327922
    CRUDE14  YLD46  0.482796  YLD47  0.456872
    CRUDE14  YLD48  0.449311  YLD49  0.541431
    CRUDE14  YLD50  0.291608  YLD51  0.434372
    CRUDE14  YLD52  0.474442  YLD53  0.342616
    CRUDE14  YLD54  0.23456  YLD55  0.491258
    CRUDE14  YLD56  0.204649  YLD57  0.504048
    CRUDE14  YLD58  0.46828  YLD59  0.446208
    CRUDE14  YLD60  0.233931  YLD61  0.39843
    CRUDE14  YLD62  0.428256  YLD63  0.344806
    CRUDE14  YLD64  0.473919  YLD65  0.17497
    CRUDE14  YLD66  0.498632  YLD67  0.378485
    CRUDE14  YLD68  0.508161  YLD69  0.200538
    CRUDE14  YLD70  0.223041  YLD71  0.396692
    CRUDE14  YLD72  0.472749  YLD73  0.508297
    CRUDE14  YLD74  0.345373  YLD75  0.488703
    CRUDE14  YLD76  0.398187  YLD77  0.26639
    CRUDE14  YLD78  0.44551  YLD79  0.28091
    CRUDE14  YLD80  0.242439  CAP  1
    CRUDE14  SULF  1.64244
    CRUDE15  COST  -53.3381  YLD1  0.305307
    CRUDE15  YLD2  0.432892  YLD3  0.206433
    CRUDE15  YLD4  0.168778  YLD5  0.478576
    CRUDE15  YLD6  0.217378  YLD7  0.198705
    CRUDE15  YLD8  0.446939  YLD9  0.292668
    CRUDE15  YLD10  0.491654  YLD11  0.517494
    CRUDE15  YLD12  0.166663  YLD13  0.356264
    CRUDE15  YLD14  0.445763  YLD15  0.489171
    CRUDE15  YLD16  0.388711  YLD17  0.267007
    CRUDE15  YLD18  0.327562  YLD19  0.200555
    CRUDE15  YLD20  0.218834  YLD21  0.35527
    CRUDE15  YLD22  0.335037  YLD23  0.23086
    CRUDE15  YLD24  0.369007  YLD25  0.157779
    CRUDE15  YLD26  0.254284  YLD27  0.347363
    CRUDE15  YLD28  0.23709  YLD29  0.516831
    CRUDE15  YLD30  0.429335  YLD31  0.327481
    CRUDE15  YLD32  0.342917  YLD33  0.343361
    CRUDE15  YLD34  0.27384  YLD35  0.385074
    CRUDE15  YLD36  0.235091  YLD37  0.200738
    CRUDE15  YLD38  0.343205  YLD39  0.278074
    CRUDE15  YLD40  0.484554  YLD41  0.26502
    CRUDE15  YLD42  0.15237  YLD43  0.389426
    CRUDE15  YLD44  0.19793  YLD45  0.417395
    CRUDE15  YLD46  0.378739  YLD47  0.232766
    CRUDE15  YLD48  0.467624  YLD49  0.536177
    CRUDE15  YLD50  0.478364  YLD51  0.271523
    CRUDE15  YLD52  0.501407  YLD53  0.362557
    CRUDE15  YLD54  0.364652  YLD55  0.251614
    CRUDE15  YLD56  0.289054  YLD57  0.167974
    CRUDE15  YLD58  0.246321  YLD59  0.494921
    CRUDE15  YLD60  0.542751  YLD61  0.516651
    CRUDE15  YLD62  0.197361  YLD63  0.320134
    CRUDE15  YLD64  0.201207  YLD65  0.410938
    CRUDE15  YLD66  0.163529  YLD67  0.339045
    CRUDE15  YLD68  0.454273  YLD69  0.343618
    CRUDE15  YLD70  0.17916  YLD71  0.277481
    CRUDE15  YLD72  0.399918  YLD73  0.225269
    CRUDE15  YLD74  0.204752  YLD75  0.24665
    CRUDE15  YLD76  0.333918  YLD77  0.384701
    CRUDE15  YLD78  0.4449  YLD79  0.430694
    CRUDE15  YLD80  0.511377  CAP  1
    CRUDE15  SULF  1.23558
    CRUDE16  COST  -64.0154  YLD1  0.241758
    CRUDE16  YLD2  0.457112  YLD3  0.312557
    CRUDE16  YLD4  0.303636  YLD5  0.166473
    CRUDE16  YLD6  0.40703  YLD7  0.341294
    CRUDE16  YLD8  0.476047  YLD9  0.452993
    CRUDE16  YLD10  0.169799  YLD11  0.294907
    CRUDE16  YLD12  0.309059  YLD13  0.335317
    CRUDE16  YLD14  0.235867  YLD15  0.368234
    CRUDE16  YLD16  0.35063  YLD17  0.282882
    CRUDE16  YLD18  0.507438  YLD19  0.161138
    CRUDE16  YLD20  0.501508  YLD21  0.202202
    CRUDE16  YLD22  0.163307  YLD23  0.368196
    CRUDE16  YLD24  0.527511  YLD25  0.225518
    CRUDE16  YLD26  0.357312  YLD27  0.514653
    CRUDE16  YLD28  0.250136  YLD29  0.38337
    CRUDE16  YLD30  0.267518  YLD31  0.506526
    CRUDE16  YLD32  0.437832  YLD33  0.194654
    CRUDE16  YLD34  0.278044  YLD35  0.508317
    CRUDE16  YLD36  0.391434  YLD37  0.33477
    CRUDE16  YLD38  0.508602  YLD39  0.515378
    CRUDE16  YLD40  0.482077  YLD41  0.283235
    CRUDE16  YLD42  0.300481  YLD43  0.351137
    CRUDE16  YLD44  0.330436  YLD45  0.401968
    CRUDE16  YLD46  0.383556  YLD47  0.510094
    CRUDE16  YLD48  0.537569  YLD49  0.316504
    CRUDE16  YLD50  0.463005  YLD51  0.353793
    CRUDE16  YLD52  0.178581  YLD53  0.271099
    CRUDE16  YLD54  0.533193  YLD55  0.27264
    CRUDE16  YLD56  0.536056  YLD57  0.217236
    CRUDE16  YLD58  0.334211  YLD59  0.28811
    CRUDE16  YLD60  0.430781  YLD61  0.269652
    CRUDE16  YLD62  0.250262  YLD63  0.3202
    CRUDE16  YLD64  0.452075  YLD65  0.514632
    CRUDE16  YLD66  0.311732  YLD67  0.348374
    CRUDE16  YLD68  0.169298  YLD69  0.360105
    CRUDE16  YLD70  0.240037  YLD71  0.420865
    CRUDE16  YLD72  0.257747  YLD73  0.282476
    CRUDE16  YLD74  0.52435  YLD75  0.426698
    CRUDE16  YLD76  0.227508  YLD77  0.392012
    CRUDE16  YLD78  0.321051  YLD79  0.325621
    CRUDE16  YLD80  0.188913  CAP  1
    CRUDE16  SULF  -0.115572
    CRUDE17  COST  -30.6632  YLD1  0.256375
    CRUDE17  YLD2  0.184916  YLD3  0.279596
    CRUDE17  YLD4  0.164693  YLD5  0.418154
    CRUDE17  YLD6  0.453738  YLD7  0.352443
    CRUDE17  YLD8  0.395991  YLD9  0.260577
    CRUDE17  YLD10  0.483327  YLD11  0.440287
    CRUDE17  YLD12  0.454924  YLD13  0.168161
    CRUDE17  YLD14  0.415998  YLD15  0.542683
    CRUDE17  YLD16  0.540475  YLD17  0.26751
    CRUDE17  YLD18  0.413222  YLD19  0.399093
    CRUDE17  YLD20  0.373341  YLD21  0.326216
    CRUDE17  YLD22  0.198755  YLD23  0.232823
    CRUDE17  YLD24  0.250356  YLD25  0.315763
    CRUDE17  YLD26  0.438886  YLD27  0.521206
    CRUDE17  YLD28  0.48269  YLD29  0.335044
    CRUDE17  YLD30  0.418821  YLD31  0.314532
    CRUDE17  YLD32  0.293547  YLD33  0.196161
    CRUDE17  YLD34  0.485341  YLD35  0.411275
    CRUDE17  YLD36  0.351448  YLD37  0.487917
    CRUDE17  YLD38  0.543072  YLD39  0.31369
    CRUDE17  YLD40  0.532453  YLD41  0.320618
    CRUDE17  YLD42  0.175264  YLD43  0.170753
    CRUDE17  YLD44  0.514352  YLD45  0.157134
    CRUDE17  YLD46  0.23391  YLD47  0.359193
    CRUDE17  YLD48  0.379311  YLD49  0.2562
    CRUDE17  YLD50  0.367673  YLD51  0.44887
    CRUDE17  YLD52  0.162984  YLD53  0.347847
    CRUDE17  YLD54  0.38541  YLD55  0.483711
    CRUDE17  YLD56  0.345882  YLD57  0.196989
    CRUDE17  YLD58  0.342248  YLD59  0.285958
    CRUDE17  YLD60  0.348449  YLD61  0.40065
    CRUDE17  YLD62  0.205896  YLD63  0.498751
    CRUDE17  YLD64  0.235816  YLD65  0.301778
    CRUDE17  YLD66  0.463894  YLD67  0.473673
    CRUDE17  YLD68  0.298649  YLD69  0.430779
    CRUDE17  YLD70  0.363454  YLD71  0.529156
    CRUDE17  YLD72  0.263614  YLD73  0.308449
    CRUDE17  YLD74  0.532267  YLD75  0.176069
    CRUDE17  YLD76  0.271416  YLD77  0.198736
    CRUDE17  YLD78  0.199776  YLD79  0.265102
    CRUDE17  YLD80  0.251445  CAP  1
    CRUDE17  SULF  1.50705
    CRUDE18  COST  -58.1644  YLD1  0.294138
    CRUDE18  YLD2  0.352442  YLD3  0.18477
    CRUDE18  YLD4  0.532908  YLD5  0.53062
    CRUDE18  YLD6  0.350178  YLD7  0.243021
    CRUDE18  YLD8  0.425154  YLD9  0.27494
    CRUDE18  YLD10  0.48757  YLD11  0.507781
    CRUDE18  YLD12  0.331968  YLD13  0.266012
    CRUDE18  YLD14  0.349216  YLD15  0.330191
    CRUDE18  YLD16  0.423382  YLD17  0.1666
    CRUDE18  YLD18  0.153224  YLD19  0.472703
    CRUDE18  YLD20  0.497975  YLD21  0.276922
    CRUDE18  YLD22  0.316345  YLD23  0.367589
    CRUDE18  YLD24  0.190225  YLD25  0.52433
    CRUDE18  YLD26  0.219663  YLD27  0.216168
    CRUDE18  YLD28  0.33528  YLD29  0.47732
    CRUDE18  YLD30  0.430863  YLD31  0.20809
    CRUDE18  YLD32  0.394017  YLD33  0.470616
    CRUDE18  YLD34  0.411692  YLD35  0.289621
    CRUDE18  YLD36  0.496832  YLD37  0.509025
    CRUDE18  YLD38  0.309644  YLD39  0.449293
    CRUDE18  YLD40  0.429309  YLD41  0.205719
    CRUDE18  YLD42  0.515404  YLD43  0.526893
    CRUDE18  YLD44  0.47572  YLD45  0.366465
    CRUDE18  YLD46  0.179643  YLD47  0.195802
    CRUDE18  YLD48  0.238098  YLD49  0.271037
    CRUDE18  YLD50  0.211745  YLD51  0.335025
    CRUDE18  YLD52  0.447823  YLD53  0.202793
    CRUDE18  YLD54  0.154419  YLD55  0.273517
    CRUDE18  YLD56  0.194655  YLD57  0.221877
    CRUDE18  YLD58  0.374285  YLD59  0.509981
    CRUDE18  YLD60  0.322368  YLD61  0.478532
    CRUDE18  YLD62  0.306068  YLD63  0.30809
    CRUDE18  YLD64  0.540956  YLD65  0.485253
    CRUDE18  YLD66  0.475947  YLD67  0.286271
    CRUDE18  YLD68  0.259209  YLD69  0.537975
    CRUDE18  YLD70  0.428298  YLD71  0.405391
    CRUDE18  YLD72  0.199601  YLD73  0.384488
    CRUDE18  YLD74  0.492643  YLD75  0.535274
    CRUDE18  YLD76  0.398378  YLD77  0.369453
    CRUDE18  YLD78  0.36207  YLD79  0.210908
    CRUDE18  YLD80  0.415209  CAP  1
    CRUDE18  SULF  -0.330345
    CRUDE19  COST  -30.7983  YLD1  0.25398
    CRUDE19  YLD2  0.522806  YLD3  0.403296
    CRUDE19  YLD4  0.480482  YLD5  0.199688
    CRUDE19  YLD6  0.366945  YLD7  0.181986
    CRUDE19  YLD8  0.300104  YLD9  0.40707
    CRUDE19  YLD10  0.263963  YLD11  0.332392
    CRUDE19  YLD12  0.256901  YLD13  0.522404
    CRUDE19  YLD14  0.44713  YLD15  0.355347
    CRUDE19  YLD16  0.300176  YLD17  0.404838
    CRUDE19  YLD18  0.52727  YLD19  0.486806
    CRUDE19  YLD20  0.298619  YLD21  0.514784
    CRUDE19  YLD22  0.175252  YLD23  0.24264
    CRUDE19  YLD24  0.307305  YLD25  0.332824
    CRUDE19  YLD26  0.368752  YLD27  0.150929
    CRUDE19  YLD28  0.344731  YLD29  0.423331
    CRUDE19  YLD30  0.298691  YLD31  0.359726
    CRUDE19  YLD32  0.302994  YLD33  0.361756
    CRUDE19  YLD34  0.260172  YLD35  0.53649
    CRUDE19  YLD36  0.531069  YLD37  0.25586
    CRUDE19  YLD38  0.316176  YLD39  0.195385
    CRUDE19  YLD40  0.233108  YLD41  0.158909
    CRUDE19  YLD42  0.316272  YLD43  0.36089
    CRUDE19  YLD44  0.357867  YLD45  0.185395
    CRUDE19  YLD46  0.33589  YLD47  0.310338
    CRUDE19  YLD48  0.494884  YLD49  0.257513
    CRUDE19  YLD50  0.250395  YLD51  0.390554
    CRUDE19  YLD52  0.203341  YLD53  0.532332
    CRUDE19  YLD54  0.173884  YLD55  0.314066
    CRUDE19  YLD56  0.333442  YLD57  0.538075
    CRUDE19  YLD58  0.477151  YLD59  0.169916
    CRUDE19  YLD60  0.531746  YLD61  0.354723
    CRUDE19  YLD62  0.263654  YLD63  0.283359
    CRUDE19  YLD64  0.170836  YLD65  0.275264
    CRUDE19  YLD66  0.520933  YLD67  0.305664
    CRUDE19  YLD68  0.304453  YLD69  0.323978
    CRUDE19  YLD70  0.459608  YLD71  0.450663
    CRUDE19  YLD72  0.518741  YLD73  0.517702
    CRUDE19  YLD74  0.487547  YLD75  0.289596
    CRUDE19  YLD76  0.320423  YLD77  0.154775
    CRUDE19  YLD78  0.302588  YLD79  0.36115
    CRUDE19  YLD80  0.419486  CAP  1
    CRUDE19  SULF  -0.84027
    CRUDE20  COST  -42.0513  YLD1  0.331296
    CRUDE20  YLD2  0.278257  YLD3  0.444362
    CRUDE20  YLD4  0.470308  YLD5  0.508489
    CRUDE20  YLD6  0.530591  YLD7  0.460689
    CRUDE20  YLD8  0.365478  YLD9  0.228336
    CRUDE20  YLD10  0.335141  YLD11  0.327382
    CRUDE20  YLD12  0.237922  YLD13  0.30673
    CRUDE20  YLD14  0.280818  YLD15  0.545687
    CRUDE20  YLD16  0.470029  YLD17  0.388917
    CRUDE20  YLD18  0.244858  YLD19  0.343085
    CRUDE20  YLD20  0.39576  YLD21  0.174371
    CRUDE20  YLD22  0.308702  YLD23  0.48957
    CRUDE20  YLD24  0.396685  YLD25  0.266102
    CRUDE20  YLD26  0.435784  YLD27  0.543572
    CRUDE20  YLD28  0.523957  YLD29  0.223426
    CRUDE20  YLD30  0.157086  YLD31  0.535183
    CRUDE20  YLD32  0.271809  YLD33  0.342636
    CRUDE20  YLD34  0.537096  YLD35  0.470648
    CRUDE20  YLD36  0.311944  YLD37  0.434506
    CRUDE20  YLD38  0.313185  YLD39  0.249026
    CRUDE20  YLD40  0.158112  YLD41  0.497649
    CRUDE20  YLD42  0.333798  YLD43  0.280023
    CRUDE20  YLD44  0.458629  YLD45  0.160553
    CRUDE20  YLD46  0.396245  YLD47  0.232704
    CRUDE20  YLD48  0.447092  YLD49  0.362898
    CRUDE20  YLD50  0.445394  YLD51  0.465891
    CRUDE20  YLD52  0.203199  YLD53  0.470144
    CRUDE20  YLD54  0.547145  YLD55  0.289066
    CRUDE20  YLD56  0.428797  YLD57  0.370662
    CRUDE20  YLD58  0.426752  YLD59  0.290076
    CRUDE20  YLD60  0.23229  YLD61  0.437192
    CRUDE20  YLD62  0.443169  YLD63  0.285414
    CRUDE20  YLD64  0.290855  YLD65  0.378041
    CRUDE20  YLD66  0.431118  YLD67  0.452349
    CRUDE20  YLD68  0.21403  YLD69  0.312414
    CRUDE20  YLD70  0.167174  YLD71  0.450632
    CRUDE20  YLD72  0.219173  YLD73  0.307816
    CRUDE20  YLD74  0.189469  YLD75  0.482737
    CRUDE20  YLD76  0.505755  YLD77  0.350484
    CRUDE20  YLD78  0.205169  YLD79  0.387701
    CRUDE20  YLD80  0.27533  CAP  1
    CRUDE20  SULF  0.65255
    CRUDE21  COST  -60.4998  YLD1  0.162926
    CRUDE21  YLD2  0.387553  YLD3  0.489251
    CRUDE21  YLD4  0.401911  YLD5  0.387911
    CRUDE21  YLD6  0.488867  YLD7  0.198814
    CRUDE21  YLD8  0.359664  YLD9  0.508783
    CRUDE21  YLD10  0.325415  YLD11  0.390847
    CRUDE21  YLD12  0.202607  YLD13  0.36868
    CRUDE21  YLD14  0.506023  YLD15  0.242619
    CRUDE21  YLD16  0.503833  YLD17  0.411353
    CRUDE21  YLD18  0.193046  YLD19  0.460982
    CRUDE21  YLD20  0.359465  YLD21  0.427607
    CRUDE21  YLD22  0.339603  YLD23  0.308909
    CRUDE21  YLD24  0.49432  YLD25  0.374774
    CRUDE21  YLD26  0.327851  YLD27  0.512455
    CRUDE21  YLD28  0.404834  YLD29  0.478368
    CRUDE21  YLD30  0.43128  YLD31  0.393074
    CRUDE21  YLD32  0.159944  YLD33  0.422227
    CRUDE21  YLD34  0.278617  YLD35  0.402167
    CRUDE21  YLD36  0.35254  YLD37  0.189994
    CRUDE21  YLD38  0.279822  YLD39  0.472938
    CRUDE21  YLD40  0.341766  YLD41  0.371651
    CRUDE21  YLD42  0.28994  YLD43  0.213251
    CRUDE21  YLD44  0.359078  YLD45  0.466479
    CRUDE21  YLD46  0.188019  YLD47  0.229874
    CRUDE21  YLD48  0.315723  YLD49  0.392744
    CRUDE21  YLD50  0.472433  YLD51  0.236088
    CRUDE21  YLD52  0.158947  YLD53  0.417189
    CRUDE21  YLD54  0.178779  YLD55  0.19656
    CRUDE21  YLD56  0.549019  YLD57  0.337245
    CRUDE21  YLD58  0.415225  YLD59  0.197469
    CRUDE21  YLD60  0.274673  YLD61  0.274404
    CRUDE21  YLD62  0.193484  YLD63  0.22864
    CRUDE21  YLD64  0.321459  YLD65  0.40937
    CRUDE21  YLD66  0.248062  YLD67  0.179193
    CRUDE21  YLD68  0.189082  YLD69  0.297972
    CRUDE21  YLD70  0.321194  YLD71  0.282281
    CRUDE21  YLD72  0.379155  YLD73  0.177661
    CRUDE21  YLD74  0.547368  YLD75  0.277373
    CRUDE21  YLD76  0.243936  YLD77  0.429009
    CRUDE21  YLD78  0.542727  YLD79  0.377514
    CRUDE21  YLD80  0.430608  CAP  1
    CRUDE21  SULF  1.14732
    CRUDE22  COST  -38.6682  YLD1  0.261905
    CRUDE22  YLD2  0.297692  YLD3  0.199111
    CRUDE22  YLD4  0.23653  YLD5  0.396642
    CRUDE22  YLD6  0.515695  YLD7  0.387716
    CRUDE22  YLD8  0.489219  YLD9  0.358076
    CRUDE22  YLD10  0.237404  YLD11  0.386563
    CRUDE22  YLD12  0.492852  YLD13  0.362809
    CRUDE22  YLD14  0.183721  YLD15  0.527018
    CRUDE22  YLD16  0.200088  YLD17  0.226924
    CRUDE22  YLD18  0.457251  YLD19  0.419139
    CRUDE22  YLD20  0.277649  YLD21  0.2231
    CRUDE22  YLD22  0.330507  YLD23  0.24822
    CRUDE22  YLD24  0.288479  YLD25  0.194774
    CRUDE22  YLD26  0.160832  YLD27  0.172178
    CRUDE22  YLD28  0.509467  YLD29  0.321554
    CRUDE22  YLD30  0.15868  YLD31  0.543355
    CRUDE22  YLD32  0.151566  YLD33  0.493537
    CRUDE22  YLD34  0.549294  YLD35  0.26717
    CRUDE22  YLD36  0.538607  YLD37  0.163418
    CRUDE22  YLD38  0.462675  YLD39  0.455197
    CRUDE22  YLD40  0.355482  YLD41  0.393489
    CRUDE22  YLD42  0.401002  YLD43  0.285411
    CRUDE22  YLD44  0.213237  YLD45  0.25346
    CRUDE22  YLD46  0.530214  YLD47  0.352548
    CRUDE22  YLD48  0.339428  YLD49  0.345512
    CRUDE22  YLD50  0.261706  YLD51  0.176372
    CRUDE22  YLD52  0.169923  YLD53  0.365278
    CRUDE22  YLD54  0.168418  YLD55  0.165558
    CRUDE22  YLD56  0.279562  YLD57  0.543787
    CRUDE22  YLD58  0.360698  YLD59  0.161592
    CRUDE22  YLD60  0.273117  YLD61  0.272423
    CRUDE22  YLD62  0.450824  YLD63  0.494276
    CRUDE22  YLD64  0.479681  YLD65  0.421198
    CRUDE22  YLD66  0.352266  YLD67  0.496068
    CRUDE22  YLD68  0.358394  YLD69  0.48077
    CRUDE22  YLD70  0.198885  YLD71  0.155983
    CRUDE22  YLD72  0.383741  YLD73  0.28918
    CRUDE22  YLD74  0.310152  YLD75  0.403108
    CRUDE22  YLD76  0.179229  YLD77  0.179133
    CRUDE22  YLD78  0.297902  YLD79  0.196619
    CRUDE22  YLD80  0.305172  CAP  1
    CRUDE22  SULF  -0.31172
    CRUDE23  COST  -39.1118  YLD1  0.314483
    CRUDE23  YLD2  0.331707  YLD3  0.500578
    CRUDE23  YLD4  0.357304  YLD5  0.395178
    CRUDE23  YLD6  0.475507  YLD7  0.52458
    CRUDE23  YLD8  0.485986  YLD9  0.329041
    CRUDE23  YLD10  0.308719  YLD11  0.472636
    CRUDE23  YLD12  0.380142  YLD13  0.386172
    CRUDE23  YLD14  0.472876  YLD15  0.167135
    CRUDE23  YLD16  0.230221  YLD17  0.268262
    CRUDE23  YLD18  0.350191  YLD19  0.439702
    CRUDE23  YLD20  0.337966  YLD21  0.277618
    CRUDE23  YLD22  0.49767  YLD23  0.47493
    CRUDE23  YLD24  0.411515  YLD25  0.393802
    CRUDE23  YLD26  0.329707  YLD27  0.483214
    CRUDE23  YLD28  0.332604  YLD29  0.225594
    CRUDE23  YLD30  0.402475  YLD31  0.486443
    CRUDE23  YLD32  0.240883  YLD33  0.401549
    CRUDE23  YLD34  0.548465  YLD35  0.299416
    CRUDE23  YLD36  0.260496  YLD37  0.37416
    CRUDE23  YLD38  0.453598  YLD39  0.304462
    CRUDE23  YLD40  0.246105  YLD41  0.520795
    CRUDE23  YLD42  0.463763  YLD43  0.158205
    CRUDE23  YLD44  0.199894  YLD45  0.286262
    CRUDE23  YLD46  0.542166  YLD47  0.418757
    CRUDE23  YLD48  0.314501  YLD49  0.313198
    CRUDE23  YLD50  0.297194  YLD51  0.362729
    CRUDE23  YLD52  0.25547  YLD53  0.466868
    CRUDE23  YLD54  0.29121  YLD55  0.439816
    CRUDE23  YLD56  0.355635  YLD57  0.372782
    CRUDE23  YLD58  0.188382  YLD59  0.195148
    CRUDE23  YLD60  0.265603  YLD61  0.417034
    CRUDE23  YLD62  0.168282  YLD63  0.208652
    CRUDE23  YLD64  0.456489  YLD65  0.50302
    CRUDE23  YLD66  0.162938  YLD67  0.322081
    CRUDE23  YLD68  0.438153  YLD69  0.212527
    CRUDE23  YLD70  0.32248  YLD71  0.172019
    CRUDE23  YLD72  0.297842  YLD73  0.226034
    CRUDE23  YLD74  0.215248  YLD75  0.543436
    CRUDE23  YLD76  0.385739  YLD77  0.525484
    CRUDE23  YLD78  0.400319  YLD79  0.377995
    CRUDE23  YLD80  0.15007  CAP  1
    CRUDE23  SULF  0.890473
    CRUDE24  COST  -51.2578  YLD1  0.391113
    CRUDE24  YLD2  0.369441  YLD3  0.40717
    CRUDE24  YLD4  0.38891  YLD5  0.269534
    CRUDE24  YLD6  0.193567  YLD7  0.500442
    CRUDE24  YLD8  0.483072  YLD9  0.373128
    CRUDE24  YLD10  0.167755  YLD11  0.340593
    CRUDE24  YLD12  0.180554  YLD13  0.174532
    CRUDE24  YLD14  0.494528  YLD15  0.328555
    CRUDE24  YLD16  0.236491  YLD17  0.397846
    CRUDE24  YLD18  0.323508  YLD19  0.34704
    CRUDE24  YLD20  0.350996  YLD21  0.316206
    CRUDE24  YLD22  0.362025  YLD23  0.287136
    CRUDE24  YLD24  0.290079  YLD25  0.377373
    CRUDE24  YLD26  0.268578  YLD27  0.333122
    CRUDE24  YLD28  0.209775  YLD29  0.262719
    CRUDE24  YLD30  0.215447  YLD31  0.164386
    CRUDE24  YLD32  0.312563  YLD33  0.455139
    CRUDE24  YLD34  0.226484  YLD35  0.417988
    CRUDE24  YLD36  0.466956  YLD37  0.427931
    CRUDE24  YLD38  0.341458  YLD39  0.531759
    CRUDE24  YLD40  0.199879  YLD41  0.416048
    CRUDE24  YLD42  0.409259  YLD43  0.295423
    CRUDE24  YLD44  0.225347  YLD45  0.175634
    CRUDE24  YLD46  0.368183  YLD47  0.514647
    CRUDE24  YLD48  0.521977  YLD49  0.234514
    CRUDE24  YLD50  0.181053  YLD51  0.17485
    CRUDE24  YLD52  0.176002  YLD53  0.347903
    CRUDE24  YLD54  0.537727  YLD55  0.408055
    CRUDE24  YLD56  0.501872  YLD57  0.414447
    CRUDE24  YLD58  0.310803  YLD59  0.322498
    CRUDE24  YLD60  0.337415  YLD61  0.432164
    CRUDE24  YLD62  0.230807  YLD63  0.513444
    CRUDE24  YLD64  0.299997  YLD65  0.243849
    CRUDE24  YLD66  0.408771  YLD67  0.382517
    CRUDE24  YLD68  0.430764  YLD69  0.287525
    CRUDE24  YLD70  0.32359  YLD71  0.262824
    CRUDE24  YLD72  0.291007  YLD73  0.41071
    CRUDE24  YLD74  0.474841  YLD75  0.5007
    CRUDE24  YLD76  0.50442  YLD77  0.333502
    CRUDE24  YLD78  0.346052  YLD79  0.217366
    CRUDE24  YLD80  0.215042  CAP  1
    CRUDE24  SULF  -0.916012
    CRUDE25  COST  -58.385  YLD1  0.258383
    CRUDE25  YLD2  0.369569  YLD3  0.431578
    CRUDE25  YLD4  0.360013  YLD5  0.524081
    CRUDE25  YLD6  0.209597  YLD7  0.261101
    CRUDE25  YLD8  0.154413  YLD9  0.216414
    CRUDE25  YLD10  0.261129  YLD11  0.548449
    CRUDE25  YLD12  0.303032  YLD13  0.294871
    CRUDE25  YLD14  0.476901  YLD15  0.178001
    CRUDE25  YLD16  0.426485  YLD17  0.389851
    CRUDE25  YLD18  0.249801  YLD19  0.403365
    CRUDE25  YLD20  0.230308  YLD21  0.513206
    CRUDE25  YLD22  0.337192  YLD23  0.194595
    CRUDE25  YLD24  0.396888  YLD25  0.466797
    CRUDE25  YLD26  0.52186  YLD27  0.253585
    CRUDE25  YLD28  0.521974  YLD29  0.257011
    CRUDE25  YLD30  0.376241  YLD31  0.41336
    CRUDE25  YLD32  0.490504  YLD33  0.456108
    CRUDE25  YLD34  0.275096  YLD35  0.178792
    CRUDE25  YLD36  0.240096  YLD37  0.468315
    CRUDE25  YLD38  0.167864  YLD39  0.514257
    CRUDE25  YLD40  0.384483  YLD41  0.426341
    CRUDE25  YLD42  0.449283  YLD43  0.362594
    CRUDE25  YLD44  0.290369  YLD45  0.2218
    CRUDE25  YLD46  0.530028  YLD47  0.350865
    CRUDE25  YLD48  0.287413  YLD49  0.343002
    CRUDE25  YLD50  0.435385  YLD51  0.456623
    CRUDE25  YLD52  0.297552  YLD53  0.26999
    CRUDE25  YLD54  0.27747  YLD55  0.262946
    CRUDE25  YLD56  0.292107  YLD57  0.283108
    CRUDE25  YLD58  0.532927  YLD59  0.424782
    CRUDE25  YLD60  0.545672  YLD61  0.524804
    CRUDE25  YLD62  0.466786  YLD63  0.263387
    CRUDE25  YLD64  0.376224  YLD65  0.254948
    CRUDE25  YLD66  0.371718  YLD67  0.45299
    CRUDE25  YLD68  0.330378  YLD69  0.439988
    CRUDE25  YLD70  0.349285  YLD71  0.425817
    CRUDE25  YLD72  0.417435  YLD73  0.161705
    CRUDE25  YLD74  0.240292  YLD75  0.214146
    CRUDE25  YLD76  0.295896  YLD77  0.525367
    CRUDE25  YLD78  0.207131  YLD79  0.415486
    CRUDE25  YLD80  0.503047  CAP  1
    CRUDE25  SULF  -1.49889
    CRUDE26  COST  -72.1142  YLD1  0.203274
    CRUDE26  YLD2  0.230692  YLD3  0.51425
    CRUDE26  YLD4  0.254093  YLD5  0.52894
    CRUDE26  YLD6  0.36065  YLD7  0.490579
    CRUDE26  YLD8  0.449818  YLD9  0.395389
    CRUDE26  YLD10  0.476673  YLD11  0.173789
    CRUDE26  YLD12  0.297093  YLD13  0.439251
    CRUDE26  YLD14  0.355091  YLD15  0.441694
    CRUDE26  YLD16  0.391216  YLD17  0.352532
    CRUDE26  YLD18  0.368989  YLD19  0.47221
    CRUDE26  YLD20  0.276004  YLD21  0.247031
    CRUDE26  YLD22  0.314284  YLD23  0.378164
    CRUDE26  YLD24  0.503923  YLD25  0.544675
    CRUDE26  YLD26  0.199845  YLD27  0.501499
    CRUDE26  YLD28  0.333482  YLD29  0.357683
    CRUDE26  YLD30  0.351565  YLD31  0.264707
    CRUDE26  YLD32  0.469394  YLD33  0.292505
    CRUDE26  YLD34  0.344418  YLD35  0.252672
    CRUDE26  YLD36  0.422584  YLD37  0.286086
    CRUDE26  YLD38  0.273824  YLD39  0.53492
    CRUDE26  YLD40  0.455702  YLD41  0.464787
    CRUDE26  YLD42  0.512389  YLD43  0.498746
    CRUDE26  YLD44  0.522212  YLD45  0.456242
    CRUDE26  YLD46  0.221778  YLD47  0.536336
    CRUDE26  YLD48  0.535394  YLD49  0.286441
    CRUDE26  YLD50  0.151431  YLD51  0.437685
    CRUDE26  YLD52  0.48311  YLD53  0.21415
    CRUDE26  YLD54  0.313954  YLD55  0.26824
    CRUDE26  YLD56  0.193705  YLD57  0.302846
    CRUDE26  YLD58  0.548219  YLD59  0.265713
    CRUDE26  YLD60  0.505515  YLD61  0.239935
    CRUDE26  YLD62  0.447111  YLD63  0.509771
    CRUDE26  YLD64  0.484238  YLD65  0.431616
    CRUDE26  YLD66  0.416735  YLD67  0.256421
    CRUDE26  YLD68  0.358912  YLD69  0.156278
    CRUDE26  YLD70  0.507132  YLD71  0.512673
    CRUDE26  YLD72  0.305319  YLD73  0.266772
    CRUDE26  YLD74  0.36047  YLD75  0.368995
    CRUDE26  YLD76  0.409085  YLD77  0.192959
    CRUDE26  YLD78  0.172217  YLD79  0.321754
    CRUDE26  YLD80  0.239078  CAP  1
    CRUDE26  SULF  -0.118031
    CRUDE27  COST  -49.7575  YLD1  0.18048
    CRUDE27  YLD2  0.423829  YLD3  0.399905
    CRUDE27  YLD4  0.356099  YLD5  0.400122
    CRUDE27  YLD6  0.248428  YLD7  0.150133
    CRUDE27  YLD8  0.453471  YLD9  0.29524
    CRUDE27  YLD10  0.263825  YLD11  0.151267
    CRUDE27  YLD12  0.222696  YLD13  0.230224
    CRUDE27  YLD14  0.325354  YLD15  0.393364
    CRUDE27  YLD16  0.397597  YLD17  0.290165
    CRUDE27  YLD18  0.259754  YLD19  0.309154
    CRUDE27  YLD20  0.466564  YLD21  0.186524
    CRUDE27  YLD22  0.477049  YLD23  0.382626
    CRUDE27  YLD24  0.242543  YLD25  0.250349
    CRUDE27  YLD26  0.41099  YLD27  0.228667
    CRUDE27  YLD28  0.222653  YLD29  0.243748
    CRUDE27  YLD30  0.155405  YLD31  0.373847
    CRUDE27  YLD32  0.256866  YLD33  0.259633
    CRUDE27  YLD34  0.41564  YLD35  0.43556
    CRUDE27  YLD36  0.251446  YLD37  0.15261
    CRUDE27  YLD38  0.266921  YLD39  0.321166
    CRUDE27  YLD40  0.547262  YLD41  0.196539
    CRUDE27  YLD42  0.495419  YLD43  0.42495
    CRUDE27  YLD44  0.469871  YLD45  0.347412
    CRUDE27  YLD46  0.160168  YLD47  0.526654
    CRUDE27  YLD48  0.514109  YLD49  0.366638
    CRUDE27  YLD50  0.168617  YLD51  0.502685
    CRUDE27  YLD52  0.280528  YLD53  0.409034
    CRUDE27  YLD54  0.403631  YLD55  0.528002
    CRUDE27  YLD56  0.529574  YLD57  0.387764
    CRUDE27  YLD58  0.442199  YLD59  0.48987
    CRUDE27  YLD60  0.28118  YLD61  0.337287
    CRUDE27  YLD62  0.34053  YLD63  0.466328
    CRUDE27  YLD64  0.15728  YLD65  0.220878
    CRUDE27  YLD66  0.522056  YLD67  0.506126
    CRUDE27  YLD68  0.356531  YLD69  0.265752
    CRUDE27  YLD70  0.472038  YLD71  0.533519
    CRUDE27  YLD72  0.252046  YLD73  0.368069
    CRUDE27  YLD74  0.201206  YLD75  0.289413
    CRUDE27  YLD76  0.242565  YLD77  0.529961
    CRUDE27  YLD78  0.400308  YLD79  0.489515
    CRUDE27  YLD80  0.195164  CAP  1
    CRUDE27  SULF  1.45575
    CRUDE28  COST  -66.3636  YLD1  0.526213
    CRUDE28  YLD2  0.185147  YLD3  0.284346
    CRUDE28  YLD4  0.346475  YLD5  0.463369
    CRUDE28  YLD6  0.340678  YLD7  0.157075
    CRUDE28  YLD8  0.421352  YLD9  0.508875
    CRUDE28  YLD10  0.477283  YLD11  0.406079
    CRUDE28  YLD12  0.324203  YLD13  0.231431
    CRUDE28  YLD14  0.548505  YLD15  0.432654
    CRUDE28  YLD16  0.526309  YLD17  0.515172
    CRUDE28  YLD18  0.510633  YLD19  0.472392
    CRUDE28  YLD20  0.516315  YLD21  0.277476
    CRUDE28  YLD22  0.508023  YLD23  0.435878
    CRUDE28  YLD24  0.311697  YLD25  0.353863
    CRUDE28  YLD26  0.171088  YLD27  0.52892
    CRUDE28  YLD28  0.270958  YLD29  0.199427
    CRUDE28  YLD30  0.295146  YLD31  0.261738
    CRUDE28  YLD32  0.247816  YLD33  0.470466
    CRUDE28  YLD34  0.361219  YLD35  0.342007
    CRUDE28  YLD36  0.503493  YLD37  0.341808
    CRUDE28  YLD38  0.474435  YLD39  0.228989
    CRUDE28  YLD40  0.453321  YLD41  0.294065
    CRUDE28  YLD42  0.419623  YLD43  0.194633
    CRUDE28  YLD44  0.323121  YLD45  0.502267
    CRUDE28  YLD46  0.165764  YLD47  0.496025
    CRUDE28  YLD48  0.402208  YLD49  0.420076
    CRUDE28  YLD50  0.151738  YLD51  0.405825
    CRUDE28  YLD52  0.441134  YLD53  0.52177
    CRUDE28  YLD54  0.159645  YLD55  0.545068
    CRUDE28  YLD56  0.345376  YLD57  0.177914
    CRUDE28  YLD58  0.241006  YLD59  0.325046
    CRUDE28  YLD60  0.319148  YLD61  0.250205
    CRUDE28  YLD62  0.169993  YLD63  0.382795
    CRUDE28  YLD64  0.470871  YLD65  0.335708
    CRUDE28  YLD66  0.424911  YLD67  0.54169
    CRUDE28  YLD68  0.426628  YLD69  0.406579
    CRUDE28  YLD70  0.404688  YLD71  0.160339
    CRUDE28  YLD72  0.309653  YLD73  0.260934
    CRUDE28  YLD74  0.339858  YLD75  0.323736
    CRUDE28  YLD76  0.373389  YLD77  0.193679
    CRUDE28  YLD78  0.248809  YLD79  0.461306
    CRUDE28  YLD80  0.42288  CAP  1
    CRUDE28  SULF  -0.524635
    CRUDE29  COST  -58.5222  YLD1  0.316656
    CRUDE29  YLD2  0.20553  YLD3  0.480043
    CRUDE29  YLD4  0.548534  YLD5  0.394903
    CRUDE29  YLD6  0.307746  YLD7  0.391021
    CRUDE29  YLD8  0.452506  YLD9  0.217542
    CRUDE29  YLD10  0.36264  YLD11  0.269374
    CRUDE29  YLD12  0.28284  YLD13  0.154036
    CRUDE29  YLD14  0.241669  YLD15  0.299792
    CRUDE29  YLD16  0.460365  YLD17  0.285908
    CRUDE29  YLD18  0.236082  YLD19  0.386807
    CRUDE29  YLD20  0.293918  YLD21  0.19187
    CRUDE29  YLD22  0.491297  YLD23  0.246088
    CRUDE29  YLD24  0.547306  YLD25  0.513546
    CRUDE29  YLD26  0.328468  YLD27  0.232249
    CRUDE29  YLD28  0.170321  YLD29  0.199476
    CRUDE29  YLD30  0.390436  YLD31  0.289548
    CRUDE29  YLD32  0.240929  YLD33  0.300872
    CRUDE29  YLD34  0.537777  YLD35  0.310957
    CRUDE29  YLD36  0.374591  YLD37  0.156341
    CRUDE29  YLD38  0.18503  YLD39  0.400663
    CRUDE29  YLD40  0.467453  YLD41  0.537283
    CRUDE29  YLD42  0.235855  YLD43  0.209099
    CRUDE29  YLD44  0.347231  YLD45  0.308897
    CRUDE29  YLD46  0.385005  YLD47  0.349991
    CRUDE29  YLD48  0.381929  YLD49  0.403325
    CRUDE29  YLD50  0.408128  YLD51  0.176879
    CRUDE29  YLD52  0.187564  YLD53  0.211447
    CRUDE29  YLD54  0.509105  YLD55  0.339374
    CRUDE29  YLD56  0.351113  YLD57  0.252353
    CRUDE29  YLD58  0.190756  YLD59  0.537291
    CRUDE29  YLD60  0.417792  YLD61  0.182037
    CRUDE29  YLD62  0.393957  YLD63  0.417788
    CRUDE29  YLD64  0.528758  YLD65  0.158014
    CRUDE29  YLD66  0.27818  YLD67  0.34771
    CRUDE29  YLD68  0.16917  YLD69  0.224381
    CRUDE29  YLD70  0.504163  YLD71  0.546035
    CRUDE29  YLD72  0.473065  YLD73  0.370398
    CRUDE29  YLD74  0.373257  YLD75  0.284073
    CRUDE29  YLD76  0.464717  YLD77  0.334598
    CRUDE29  YLD78  0.247462  YLD79  0.439753
    CRUDE29  YLD80  0.326283  CAP  1
    CRUDE29  SULF  0.116533
    CRUDE30  COST  -78.0586  YLD1  0.382465
    CRUDE30  YLD2  0.151084  YLD3  0.295224
    CRUDE30  YLD4  0.508974  YLD5  0.343759
    CRUDE30  YLD6  0.369766  YLD7  0.295919
    CRUDE30  YLD8  0.486788  YLD9  0.35282
    CRUDE30  YLD10  0.501945  YLD11  0.246153
    CRUDE30  YLD12  0.286721  YLD13  0.324993
    CRUDE30  YLD14  0.36875  YLD15  0.297793
    CRUDE30  YLD16  0.201175  YLD17  0.332248
    CRUDE30  YLD18  0.503742  YLD19  0.21636
    CRUDE30  YLD20  0.272789  YLD21  0.201439
    CRUDE30  YLD22  0.419419  YLD23  0.327509
    CRUDE30  YLD24  0.497423  YLD25  0.464076
    CRUDE30  YLD26  0.371592  YLD27  0.395473
    CRUDE30  YLD28  0.33732  YLD29  0.38331
    CRUDE30  YLD30  0.489443  YLD31  0.519267
    CRUDE30  YLD32  0.285695  YLD33  0.511334
    CRUDE30  YLD34  0.439596  YLD35  0.210583
    CRUDE30  YLD36  0.224373  YLD37  0.186794
    CRUDE30  YLD38  0.47227  YLD39  0.423909
    CRUDE30  YLD40  0.396584  YLD41  0.519172
    CRUDE30  YLD42  0.405081  YLD43  0.321249
    CRUDE30  YLD44  0.256244  YLD45  0.25748
    CRUDE30  YLD46  0.174657  YLD47  0.206362
    CRUDE30  YLD48  0.298036  YLD49  0.334996
    CRUDE30  YLD50  0.316955  YLD51  0.251261
    CRUDE30  YLD52  0.41375  YLD53  0.222007
    CRUDE30  YLD54  0.357777  YLD55  0.470981
    CRUDE30  YLD56  0.39848  YLD57  0.228725
    CRUDE30  YLD58  0.315906  YLD59  0.531662
    CRUDE30  YLD60  0.156861  YLD61  0.311292
    CRUDE30  YLD62  0.31269  YLD63  0.280338
    CRUDE30  YLD64  0.162826  YLD65  0.206392
    CRUDE30  YLD66  0.229495  YLD67  0.524775
    CRUDE30  YLD68  0.433958  YLD69  0.271084
    CRUDE30  YLD70  0.421387  YLD71  0.278999
    CRUDE30  YLD72  0.536591  YLD73  0.195885
    CRUDE30  YLD74  0.32837  YLD75  0.284384
    CRUDE30  YLD76  0.496813  YLD77  0.525197
    CRUDE30  YLD78  0.53279  YLD79  0.430295
    CRUDE30  YLD80  0.468636  CAP  1
    CRUDE30  SULF  1.18474
    CRUDE31  COST  -67.366  YLD1  0.517671
    CRUDE31  YLD2  0.196678  YLD3  0.163691
    CRUDE31  YLD4  0.335352  YLD5  0.414328
    CRUDE31  YLD6  0.44875  YLD7  0.304584
    CRUDE31  YLD8  0.338128  YLD9  0.389245
    CRUDE31  YLD10  0.379912  YLD11  0.27476
    CRUDE31  YLD12  0.445611  YLD13  0.503094
    CRUDE31  YLD14  0.41827  YLD15  0.168128
    CRUDE31  YLD16  0.289003  YLD17  0.421246
    CRUDE31  YLD18  0.373762  YLD19  0.159874
    CRUDE31  YLD20  0.228079  YLD21  0.37954
    CRUDE31  YLD22  0.204945  YLD23  0.262947
    CRUDE31  YLD24  0.375856  YLD25  0.344963
    CRUDE31  YLD26  0.269182  YLD27  0.239235
    CRUDE31  YLD28  0.491251  YLD29  0.443904
    CRUDE31  YLD30  0.505457  YLD31  0.232657
    CRUDE31  YLD32  0.349279  YLD33  0.177876
    CRUDE31  YLD34  0.234818  YLD35  0.32674
    CRUDE31  YLD36  0.239748  YLD37  0.280676
    CRUDE31  YLD38  0.417673  YLD39  0.200177
    CRUDE31  YLD40  0.544369  YLD41  0.50363
    CRUDE31  YLD42  0.352433  YLD43  0.228283
    CRUDE31  YLD44  0.431741  YLD45  0.28904
    CRUDE31  YLD46  0.533418  YLD47  0.237162
    CRUDE31  YLD48  0.157335  YLD49  0.372421
    CRUDE31  YLD50  0.269019  YLD51  0.473173
    CRUDE31  YLD52  0.276699  YLD53  0.323442
    CRUDE31  YLD54  0.336724  YLD55  0.444674
    CRUDE31  YLD56  0.151415  YLD57  0.156357
    CRUDE31  YLD58  0.492629  YLD59  0.45931
    CRUDE31  YLD60  0.478061  YLD61  0.299632
    CRUDE31  YLD62  0.276611  YLD63  0.379691
    CRUDE31  YLD64  0.168232  YLD65  0.421539
    CRUDE31  YLD66  0.491854  YLD67  0.150451
    CRUDE31  YLD68  0.38288  YLD69  0.344418
    CRUDE31  YLD70  0.477542  YLD71  0.487182
    CRUDE31  YLD72  0.40438  YLD73  0.527122
    CRUDE31  YLD74  0.177795  YLD75  0.367021
    CRUDE31  YLD76  0.192048  YLD77  0.243083
    CRUDE31  YLD78  0.334709  YLD79  0.374195
    CRUDE31  YLD80  0.494578  CAP  1
    CRUDE31  SULF  0.178764
    CRUDE32  COST  -59.3376  YLD1  0.183099
    CRUDE32  YLD2  0.339266  YLD3  0.482262
    CRUDE32  YLD4  0.399175  YLD5  0.371201
    CRUDE32  YLD6  0.436196  YLD7  0.375776
    CRUDE32  YLD8  0.35082  YLD9  0.163353
    CRUDE32  YLD10  0.161867  YLD11  0.252419
    CRUDE32  YLD12  0.239305  YLD13  0.17076
    CRUDE32  YLD14  0.430347  YLD15  0.289978
    CRUDE32  YLD16  0.324157  YLD17  0.367209
    CRUDE32  YLD18  0.481395  YLD19  0.295101
    CRUDE32  YLD20  0.421396  YLD21  0.174361
    CRUDE32  YLD22  0.260748  YLD23  0.182381
    CRUDE32  YLD24  0.356651  YLD25  0.528149
    CRUDE32  YLD26  0.33203  YLD27  0.368267
    CRUDE32  YLD28  0.523432  YLD29  0.278613
    CRUDE32  YLD30  0.34354  YLD31  0.499644
    CRUDE32  YLD32  0.325467  YLD33  0.173287
    CRUDE32  YLD34  0.192039  YLD35  0.458277
    CRUDE32  YLD36  0.34754  YLD37  0.324869
    CRUDE32  YLD38  0.442977  YLD39  0.464593
    CRUDE32  YLD40  0.405983  YLD41  0.330835
    CRUDE32  YLD42  0.436888  YLD43  0.16114
    CRUDE32  YLD44  0.471106  YLD45  0.435109
    CRUDE32  YLD46  0.206773  YLD47  0.409068
    CRUDE32  YLD48  0.201049  YLD49  0.263942
    CRUDE32  YLD50  0.51508  YLD51  0.216853
    CRUDE32  YLD52  0.449901  YLD53  0.47276
    CRUDE32  YLD54  0.494291  YLD55  0.268927
    CRUDE32  YLD56  0.522452  YLD57  0.364761
    CRUDE32  YLD58  0.438746  YLD59  0.522962
    CRUDE32  YLD60  0.501919  YLD61  0.258174
    CRUDE32  YLD62  0.406164  YLD63  0.266961
    CRUDE32  YLD64  0.287806  YLD65  0.448985
    CRUDE32  YLD66  0.227733  YLD67  0.507695
    CRUDE32  YLD68  0.229243  YLD69  0.318809
    CRUDE32  YLD70  0.375511  YLD71  0.222118
    CRUDE32  YLD72  0.46284  YLD73  0.266363
    CRUDE32  YLD74  0.343976  YLD75  0.226786
    CRUDE32  YLD76  0.29255  YLD77  0.163914
    CRUDE32  YLD78  0.16177  YLD79  0.174445
    CRUDE32  YLD80  0.488396  CAP  1
    CRUDE32  SULF  1.58312
    CRUDE33  COST  -60.3517  YLD1  0.500665
    CRUDE33  YLD2  0.392441  YLD3  0.288077
    CRUDE33  YLD4  0.449149  YLD5  0.38899
    CRUDE33  YLD6  0.358494  YLD7  0.226713
    CRUDE33  YLD8  0.199886  YLD9  0.295477
    CRUDE33  YLD10  0.420168  YLD11  0.162316
    CRUDE33  YLD12  0.406744  YLD13  0.226447
    CRUDE33  YLD14  0.23161  YLD15  0.521715
    CRUDE33  YLD16  0.308385  YLD17  0.288754
    CRUDE33  YLD18  0.435138  YLD19  0.368679
    CRUDE33  YLD20  0.27924  YLD21  0.162372
    CRUDE33  YLD22  0.168425  YLD23  0.500646
    CRUDE33  YLD24  0.26384  YLD25  0.172895
    CRUDE33  YLD26  0.215422  YLD27  0.42359
    CRUDE33  YLD28  0.523041  YLD29  0.16386
    CRUDE33  YLD30  0.441369  YLD31  0.162183
    CRUDE33  YLD32  0.237309  YLD33  0.520802
    CRUDE33  YLD34  0.425361  YLD35  0.255605
    CRUDE33  YLD36  0.534641  YLD37  0.261788
    CRUDE33  YLD38  0.322885  YLD39  0.157224
    CRUDE33  YLD40  0.494101  YLD41  0.492877
    CRUDE33  YLD42  0.483173  YLD43  0.472006
    CRUDE33  YLD44  0.245562  YLD45  0.372002
    CRUDE33  YLD46  0.271889  YLD47  0.318702
    CRUDE33  YLD48  0.451693  YLD49  0.159696
    CRUDE33  YLD50  0.227121  YLD51  0.429392
    CRUDE33  YLD52  0.204501  YLD53  0.267569
    CRUDE33  YLD54  0.531231  YLD55  0.173425
    CRUDE33  YLD56  0.29458  YLD57  0.374421
    CRUDE33  YLD58  0.503557  YLD59  0.432838
    CRUDE33  YLD60  0.49288  YLD61  0.268798
    CRUDE33  YLD62  0.324646  YLD63  0.310909
    CRUDE33  YLD64  0.185108  YLD65  0.196128
    CRUDE33  YLD66  0.214644  YLD67  0.274418
    CRUDE33  YLD68  0.169624  YLD69  0.192411
    CRUDE33  YLD70  0.360087  YLD71  0.175159
    CRUDE33  YLD72  0.36313  YLD73  0.5192
    CRUDE33  YLD74  0.337577  YLD75  0.364958
    CRUDE33  YLD76  0.405858  YLD77  0.467244
    CRUDE33  YLD78  0.285937  YLD79  0.412196
    CRUDE33  YLD80  0.275204  CAP  1
    CRUDE33  SULF  -0.691423
    CRUDE34  COST  -44.8137  YLD1  0.370635
    CRUDE34  YLD2  0.467716  YLD3  0.459534
    CRUDE34  YLD4  0.163946  YLD5  0.463533
    CRUDE34  YLD6  0.478957  YLD7  0.234702
    CRUDE34  YLD8  0.30415  YLD9  0.443054
    CRUDE34  YLD10  0.167941  YLD11  0.538613
    CRUDE34  YLD12  0.37826  YLD13  0.274034
    CRUDE34  YLD14  0.411598  YLD15  0.301691
    CRUDE34  YLD16  0.417723  YLD17  0.324258
    CRUDE34  YLD18  0.428678  YLD19  0.485928
    CRUDE34  YLD20  0.5451  YLD21  0.435766
    CRUDE34  YLD22  0.52233  YLD23  0.441548
    CRUDE34  YLD24  0.356884  YLD25  0.522399
    CRUDE34  YLD26  0.27165  YLD27  0.226091
    CRUDE34  YLD28  0.200092  YLD29  0.20089
    CRUDE34  YLD30  0.276582  YLD31  0.186351
    CRUDE34  YLD32  0.202181  YLD33  0.409382
    CRUDE34  YLD34  0.213381  YLD35  0.152159
    CRUDE34  YLD36  0.457857  YLD37  0.382746
    CRUDE34  YLD38  0.42189  YLD39  0.343091
    CRUDE34  YLD40  0.528314  YLD41  0.169358
    CRUDE34  YLD42  0.447089  YLD43  0.157809
    CRUDE34  YLD44  0.166729  YLD45  0.511676
    CRUDE34  YLD46  0.479007  YLD47  0.208721
    CRUDE34  YLD48  0.338616  YLD49  0.400008
    CRUDE34  YLD50  0.305747  YLD51  0.462104
    CRUDE34  YLD52  0.509153  YLD53  0.251565
    CRUDE34  YLD54  0.31937  YLD55  0.207023
    CRUDE34  YLD56  0.308773  YLD57  0.303576
    CRUDE34  YLD58  0.396311  YLD59  0.508233
    CRUDE34  YLD60  0.300022  YLD61  0.294165
    CRUDE34  YLD62  0.186968  YLD63  0.455865
    CRUDE34  YLD64  0.34171  YLD65  0.241084
    CRUDE34  YLD66  0.232645  YLD67  0.274598
    CRUDE34  YLD68  0.193411  YLD69  0.525294
    CRUDE34  YLD70  0.439639  YLD71  0.301342
    CRUDE34  YLD72  0.399929  YLD73  0.280334
    CRUDE34  YLD74  0.254648  YLD75  0.261586
    CRUDE34  YLD76  0.163889  YLD77  0.388353
    CRUDE34  YLD78  0.383797  YLD79  0.336769
    CRUDE34  YLD80  0.352218  CAP  1
    CRUDE34  SULF  -1.05684
    CRUDE35  COST  -30.7818  YLD1  0.215934
    CRUDE35  YLD2  0.19268  YLD3  0.295103
    CRUDE35  YLD4  0.507969  YLD5  0.342362
    CRUDE35  YLD6  0.322345  YLD7  0.343841
    CRUDE35  YLD8  0.407346  YLD9  0.478151
    CRUDE35  YLD10  0.330239  YLD11  0.238298
    CRUDE35  YLD12  0.377237  YLD13  0.44269
    CRUDE35  YLD14  0.477348  YLD15  0.482547
    CRUDE35  YLD16  0.506757  YLD17  0.467792
    CRUDE35  YLD18  0.279738  YLD19  0.200994
    CRUDE35  YLD20  0.280274  YLD21  0.294659
    CRUDE35  YLD22  0.414319  YLD23  0.270585
    CRUDE35  YLD24  0.489273  YLD25  0.170203
    CRUDE35  YLD26  0.398443  YLD27  0.358354
    CRUDE35  YLD28  0.302822  YLD29  0.515878
    CRUDE35  YLD30  0.286875  YLD31  0.49187
    CRUDE35  YLD32  0.155031  YLD33  0.30184
    CRUDE35  YLD34  0.465071  YLD35  0.417402
    CRUDE35  YLD36  0.345324  YLD37  0.17214
    CRUDE35  YLD38  0.393612  YLD39  0.282407
    CRUDE35  YLD40  0.521943  YLD41  0.209407
    CRUDE35  YLD42  0.488624  YLD43  0.482276
    CRUDE35  YLD44  0.399556  YLD45  0.390868
    CRUDE35  YLD46  0.237496  YLD47  0.341598
    CRUDE35  YLD48  0.209935  YLD49  0.251027
    CRUDE35  YLD50  0.526125  YLD51  0.282045
    CRUDE35  YLD52  0.247031  YLD53  0.397987
    CRUDE35  YLD54  0.218976  YLD55  0.485318
    CRUDE35  YLD56  0.219644  YLD57  0.257491
    CRUDE35  YLD58  0.202131  YLD59  0.244589
    CRUDE35  YLD60  0.3348  YLD61  0.545535
    CRUDE35  YLD62  0.51638  YLD63  0.247573
    CRUDE35  YLD64  0.441484  YLD65  0.189562
    CRUDE35  YLD66  0.353536  YLD67  0.241236
    CRUDE35  YLD68  0.359877  YLD69  0.167717
    CRUDE35  YLD70  0.157876  YLD71  0.49357
    CRUDE35  YLD72  0.545235  YLD73  0.462736
    CRUDE35  YLD74  0.518641  YLD75  0.265593
    CRUDE35  YLD76  0.426246  YLD77  0.355568
    CRUDE35  YLD78  0.281427  YLD79  0.337822
    CRUDE35  YLD80  0.410057  CAP  1
    CRUDE35  SULF  -0.204995
    CRUDE36  COST  -49.7441  YLD1  0.314502
    CRUDE36  YLD2  0.490291  YLD3  0.494427
    CRUDE36  YLD4  0.494051  YLD5  0.166302
    CRUDE36  YLD6  0.508686  YLD7  0.451701
    CRUDE36  YLD8  0.46216  YLD9  0.275265
    CRUDE36  YLD10  0.521771  YLD11  0.443612
    CRUDE36  YLD12  0.415203  YLD13  0.406254
    CRUDE36  YLD14  0.170007  YLD15  0.48693
    CRUDE36  YLD16  0.272421  YLD17  0.261252
    CRUDE36  YLD18  0.243559  YLD19  0.470083
    CRUDE36  YLD20  0.307654  YLD21  0.20015
    CRUDE36  YLD22  0.448545  YLD23  0.389749
    CRUDE36  YLD24  0.42407  YLD25  0.368922
    CRUDE36  YLD26  0.27072  YLD27  0.337624
    CRUDE36  YLD28  0.161292  YLD29  0.347417
    CRUDE36  YLD30  0.227785  YLD31  0.402222
    CRUDE36  YLD32  0.211585  YLD33  0.452024
    CRUDE36  YLD34  0.274415  YLD35  0.539051
    CRUDE36  YLD36  0.285088  YLD37  0.207832
    CRUDE36  YLD38  0.457592  YLD39  0.446121
    CRUDE36  YLD40  0.302566  YLD41  0.315587
    CRUDE36  YLD42  0.175547  YLD43  0.207642
    CRUDE36  YLD44  0.375005  YLD45  0.347207
    CRUDE36  YLD46  0.247187  YLD47  0.156972
    CRUDE36  YLD48  0.255584  YLD49  0.417581
    CRUDE36  YLD50  0.320843  YLD51  0.278919
    CRUDE36  YLD52  0.291255  YLD53  0.364246
    CRUDE36  YLD54  0.476284  YLD55  0.442486
    CRUDE36  YLD56  0.301261  YLD57  0.410824
    CRUDE36  YLD58  0.195918  YLD59  0.288168
    CRUDE36  YLD60  0.154955  YLD61  0.463183
    CRUDE36  YLD62  0.461397  YLD63  0.485538
    CRUDE36  YLD64  0.37676  YLD65  0.323365
    CRUDE36  YLD66  0.199675  YLD67  0.276806
    CRUDE36  YLD68  0.453363  YLD69  0.449897
    CRUDE36  YLD70  0.426151  YLD71  0.23833
    CRUDE36  YLD72  0.325368  YLD73  0.248475
    CRUDE36  YLD74  0.317117  YLD75  0.445499
    CRUDE36  YLD76  0.361214  YLD77  0.163737
    CRUDE36  YLD78  0.160741  YLD79  0.301609
    CRUDE36  YLD80  0.278793  CAP  1
    CRUDE36  SULF  -0.633709
    CRUDE37  COST  -30.704  YLD1  0.461041
    CRUDE37  YLD2  0.44839  YLD3  0.237804
    CRUDE37  YLD4  0.332973  YLD5  0.2156
    CRUDE37  YLD6  0.178512  YLD7  0.397799
    CRUDE37  YLD8  0.236884  YLD9  0.469437
    CRUDE37  YLD10  0.216082  YLD11  0.455039
    CRUDE37  YLD12  0.369353  YLD13  0.316378
    CRUDE37  YLD14  0.514609  YLD15  0.299296
    CRUDE37  YLD16  0.370751  YLD17  0.206902
    CRUDE37  YLD18  0.234354  YLD19  0.495204
    CRUDE37  YLD20  0.391334  YLD21  0.251445
    CRUDE37  YLD22  0.274629  YLD23  0.230506
    CRUDE37  YLD24  0.266018  YLD25  0.506176
    CRUDE37  YLD26  0.509897  YLD27  0.178415
    CRUDE37  YLD28  0.492066  YLD29  0.331429
    CRUDE37  YLD30  0.374779  YLD31  0.448894
    CRUDE37  YLD32  0.432143  YLD33  0.418931
    CRUDE37  YLD34  0.280757  YLD35  0.392731
    CRUDE37  YLD36  0.369707  YLD37  0.428103
    CRUDE37  YLD38  0.328708  YLD39  0.275104
    CRUDE37  YLD40  0.181465  YLD41  0.343357
    CRUDE37  YLD42  0.162648  YLD43  0.539871
    CRUDE37  YLD44  0.310852  YLD45  0.464301
    CRUDE37  YLD46  0.406924  YLD47  0.443558
    CRUDE37  YLD48  0.529135  YLD49  0.448803
    CRUDE37  YLD50  0.371877  YLD51  0.373121
    CRUDE37  YLD52  0.530072  YLD53  0.174088
    CRUDE37  YLD54  0.311304  YLD55  0.415734
    CRUDE37  YLD56  0.471577  YLD57  0.203864
    CRUDE37  YLD58  0.169201  YLD59  0.451172
    CRUDE37  YLD60  0.309758  YLD61  0.17856
    CRUDE37  YLD62  0.172551  YLD63  0.300353
    CRUDE37  YLD64  0.228573  YLD65  0.200446
    CRUDE37  YLD66  0.525247  YLD67  0.235394
    CRUDE37  YLD68  0.283863  YLD69  0.178569
    CRUDE37  YLD70  0.523807  YLD71  0.211583
    CRUDE37  YLD72  0.176502  YLD73  0.417908
    CRUDE37  YLD74  0.495646  YLD75  0.161837
    CRUDE37  YLD76  0.265427  YLD77  0.411293
    CRUDE37  YLD78  0.327725  YLD79  0.521628
    CRUDE37  YLD80  0.16644  CAP  1
    CRUDE37  SULF  -0.94604
    CRUDE38  COST  -65.5671  YLD1  0.342148
    CRUDE38  YLD2  0.313407  YLD3  0.539819
    CRUDE38  YLD4  0.306468  YLD5  0.325443
    CRUDE38  YLD6  0.531864  YLD7  0.268942
    CRUDE38  YLD8  0.205129  YLD9  0.537102
    CRUDE38  YLD10  0.305949  YLD11  0.521703
    CRUDE38  YLD12  0.501702  YLD13  0.453628
    CRUDE38  YLD14  0.161802  YLD15  0.402795
    CRUDE38  YLD16  0.465764  YLD17  0.275265
    CRUDE38  YLD18  0.492877  YLD19  0.210275
    CRUDE38  YLD20  0.470674  YLD21  0.406835
    CRUDE38  YLD22  0.488261  YLD23  0.506095
    CRUDE38  YLD24  0.230586  YLD25  0.255088
    CRUDE38  YLD26  0.401363  YLD27  0.477323
    CRUDE38  YLD28  0.293502  YLD29  0.16522
    CRUDE38  YLD30  0.275826  YLD31  0.233767
    CRUDE38  YLD32  0.247455  YLD33  0.36248
    CRUDE38  YLD34  0.154319  YLD35  0.197969
    CRUDE38  YLD36  0.449344  YLD37  0.206856
    CRUDE38  YLD38  0.33913  YLD39  0.480723
    CRUDE38  YLD40  0.218749  YLD41  0.255403
    CRUDE38  YLD42  0.2534  YLD43  0.39155
    CRUDE38  YLD44  0.407558  YLD45  0.529014
    CRUDE38  YLD46  0.260434  YLD47  0.179433
    CRUDE38  YLD48  0.296853  YLD49  0.516371
    CRUDE38  YLD50  0.182135  YLD51  0.494515
    CRUDE38  YLD52  0.381393  YLD53  0.182596
    CRUDE38  YLD54  0.524218  YLD55  0.20226
    CRUDE38  YLD56  0.469997  YLD57  0.357446
    CRUDE38  YLD58  0.376832  YLD59  0.319824
    CRUDE38  YLD60  0.334171  YLD61  0.498965
    CRUDE38  YLD62  0.360026  YLD63  0.362868
    CRUDE38  YLD64  0.411925  YLD65  0.324918
    CRUDE38  YLD66  0.536501  YLD67  0.512348
    CRUDE38  YLD68  0.30165  YLD69  0.336918
    CRUDE38  YLD70  0.435577  YLD71  0.513922
    CRUDE38  YLD72  0.532803  YLD73  0.279486
    CRUDE38  YLD74  0.193866  YLD75  0.302378
    CRUDE38  YLD76  0.475862  YLD77  0.218649
    CRUDE38  YLD78  0.192363  YLD79  0.249781
    CRUDE38  YLD80  0.348266  CAP  1
    CRUDE38  SULF  1.00536
    CRUDE39  COST  -60.298  YLD1  0.544114
    CRUDE39  YLD2  0.523175  YLD3  0.461904
    CRUDE39  YLD4  0.259184  YLD5  0.439931
    CRUDE39  YLD6  0.411877  YLD7  0.322135
    CRUDE39  YLD8  0.415217  YLD9  0.49275
    CRUDE39  YLD10  0.441944  YLD11  0.16222
    CRUDE39  YLD12  0.420232  YLD13  0.393852
    CRUDE39  YLD14  0.292388  YLD15  0.188149
    CRUDE39  YLD16  0.316487  YLD17  0.489814
    CRUDE39  YLD18  0.478171  YLD19  0.490638
    CRUDE39  YLD20  0.337807  YLD21  0.260215
    CRUDE39  YLD22  0.253841  YLD23  0.195963
    CRUDE39  YLD24  0.256083  YLD25  0.338899
    CRUDE39  YLD26  0.32546  YLD27  0.284273
    CRUDE39  YLD28  0.402447  YLD29  0.441455
    CRUDE39  YLD30  0.183748  YLD31  0.364833
    CRUDE39  YLD32  0.337441  YLD33  0.189549
    CRUDE39  YLD34  0.430405  YLD35  0.278293
    CRUDE39  YLD36  0.463571  YLD37  0.40591
    CRUDE39  YLD38  0.40743  YLD39  0.387981
    CRUDE39  YLD40  0.173689  YLD41  0.292591
    CRUDE39  YLD42  0.510266  YLD43  0.443993
    CRUDE39  YLD44  0.370245  YLD45  0.292338
    CRUDE39  YLD46  0.236979  YLD47  0.401645
    CRUDE39  YLD48  0.513073  YLD49  0.533249
    CRUDE39  YLD50  0.466067  YLD51  0.239562
    CRUDE39  YLD52  0.296309  YLD53  0.407205
    CRUDE39  YLD54  0.52996  YLD55  0.405972
    CRUDE39  YLD56  0.524319  YLD57  0.45723
    CRUDE39  YLD58  0.247154  YLD59  0.484931
    CRUDE39  YLD60  0.51279  YLD61  0.403321
    CRUDE39  YLD62  0.183351  YLD63  0.526784
    CRUDE39  YLD64  0.423942  YLD65  0.442839
    CRUDE39  YLD66  0.539521  YLD67  0.509609
    CRUDE39  YLD68  0.523659  YLD69  0.220165
    CRUDE39  YLD70  0.164717  YLD71  0.525335
    CRUDE39  YLD72  0.467225  YLD73  0.353664
    CRUDE39  YLD74  0.277551  YLD75  0.313014
    CRUDE39  YLD76  0.26602  YLD77  0.522479
    CRUDE39  YLD78  0.397664  YLD79  0.276638
    CRUDE39  YLD80  0.155127  CAP  1
    CRUDE39  SULF  1.45457
    CRUDE40  COST  -62.5539  YLD1  0.300696
    CRUDE40  YLD2  0.546372  YLD3  0.195695
    CRUDE40  YLD4  0.340671  YLD5  0.387311
    CRUDE40  YLD6  0.30203  YLD7  0.218266
    CRUDE40  YLD8  0.150752  YLD9  0.197058
    CRUDE40  YLD10  0.502903  YLD11  0.498819
    CRUDE40  YLD12  0.368785  YLD13  0.508416
    CRUDE40  YLD14  0.156325  YLD15  0.191471
    CRUDE40  YLD16  0.217247  YLD17  0.185596
    CRUDE40  YLD18  0.326229  YLD19  0.546581
    CRUDE40  YLD20  0.319062  YLD21  0.347808
    CRUDE40  YLD22  0.150658  YLD23  0.151535
    CRUDE40  YLD24  0.217904  YLD25  0.279732
    CRUDE40  YLD26  0.165503  YLD27  0.379833
    CRUDE40  YLD28  0.435959  YLD29  0.361227
    CRUDE40  YLD30  0.424002  YLD31  0.444888
    CRUDE40  YLD32  0.38652  YLD33  0.474872
    CRUDE40  YLD34  0.195308  YLD35  0.497057
    CRUDE40  YLD36  0.279844  YLD37  0.171874
    CRUDE40  YLD38  0.193231  YLD39  0.467557
    CRUDE40  YLD40  0.192159  YLD41  0.21511
    CRUDE40  YLD42  0.479464  YLD43  0.194193
    CRUDE40  YLD44  0.250233  YLD45  0.24995
    CRUDE40  YLD46  0.251671  YLD47  0.467204
    CRUDE40  YLD48  0.271854  YLD49  0.15421
    CRUDE40  YLD50  0.319104  YLD51  0.526503
    CRUDE40  YLD52  0.529841  YLD53  0.336049
    CRUDE40  YLD54  0.195932  YLD55  0.458861
    CRUDE40  YLD56  0.311292  YLD57  0.215719
    CRUDE40  YLD58  0.443753  YLD59  0.501056
    CRUDE40  YLD60  0.507595  YLD61  0.506238
    CRUDE40  YLD62  0.484916  YLD63  0.422502
    CRUDE40  YLD64  0.522978  YLD65  0.423355
    CRUDE40  YLD66  0.16565  YLD67  0.190885
    CRUDE40  YLD68  0.235205  YLD69  0.206439
    CRUDE40  YLD70  0.301154  YLD71  0.155019
    CRUDE40  YLD72  0.309324  YLD73  0.419526
    CRUDE40  YLD74  0.220532  YLD75  0.344044
    CRUDE40  YLD76  0.546566  YLD77  0.424291
    CRUDE40  YLD78  0.397835  YLD79  0.535216
    CRUDE40  YLD80  0.530258  CAP  1
    CRUDE40  SULF  1.41715
    CRUDE41  COST  -72.5019  YLD1  0.449831
    CRUDE41  YLD2  0.232001  YLD3  0.376311
    CRUDE41  YLD4  0.167751  YLD5  0.410118
    CRUDE41  YLD6  0.228862  YLD7  0.179852
    CRUDE41  YLD8  0.221349  YLD9  0.445892
    CRUDE41  YLD10  0.418377  YLD11  0.36089
    CRUDE41  YLD12  0.481905  YLD13  0.477211
    CRUDE41  YLD14  0.180858  YLD15  0.169463
    CRUDE41  YLD16  0.33998  YLD17  0.546678
    CRUDE41  YLD18  0.202962  YLD19  0.440736
    CRUDE41  YLD20  0.548255  YLD21  0.198678
    CRUDE41  YLD22  0.300566  YLD23  0.350803
    CRUDE41  YLD24  0.188256  YLD25  0.530858
    CRUDE41  YLD26  0.349819  YLD27  0.355914
    CRUDE41  YLD28  0.321938  YLD29  0.230832
    CRUDE41  YLD30  0.433101  YLD31  0.400926
    CRUDE41  YLD32  0.504736  YLD33  0.496409
    CRUDE41  YLD34  0.459152  YLD35  0.243027
    CRUDE41  YLD36  0.438464  YLD37  0.312953
    CRUDE41  YLD38  0.324498  YLD39  0.545736
    CRUDE41  YLD40  0.22386  YLD41  0.345654
    CRUDE41  YLD42  0.423091  YLD43  0.494842
    CRUDE41  YLD44  0.309092  YLD45  0.396487
    CRUDE41  YLD46  0.346259  YLD47  0.203058
    CRUDE41  YLD48  0.367288  YLD49  0.54615
    CRUDE41  YLD50  0.470206  YLD51  0.389647
    CRUDE41  YLD52  0.281631  YLD53  0.538391
    CRUDE41  YLD54  0.532622  YLD55  0.494241
    CRUDE41  YLD56  0.433489  YLD57  0.451304
    CRUDE41  YLD58  0.4245  YLD59  0.269892
    CRUDE41  YLD60  0.536439  YLD61  0.286684
    CRUDE41  YLD62  0.395206  YLD63  0.408242
    CRUDE41  YLD64  0.208719  YLD65  0.262184
    CRUDE41  YLD66  0.528479  YLD67  0.207143
    CRUDE41  YLD68  0.1915  YLD69  0.200359
    CRUDE41  YLD70  0.473833  YLD71  0.440974
    CRUDE41  YLD72  0.542958  YLD73  0.385553
    CRUDE41  YLD74  0.313364  YLD75  0.417604
    CRUDE41  YLD76  0.476548  YLD77  0.432814
    CRUDE41  YLD78  0.165104  YLD79  0.474061
    CRUDE41  YLD80  0.468673  CAP  1
    CRUDE41  SULF  -0.119033
    CRUDE42  COST  -34.7705  YLD1  0.307196
    CRUDE42  YLD2  0.301691  YLD3  0.544147
    CRUDE42  YLD4  0.490877  YLD5  0.341712
    CRUDE42  YLD6  0.341673  YLD7  0.463078
    CRUDE42  YLD8  0.161629  YLD9  0.277867
    CRUDE42  YLD10  0.253269  YLD11  0.403018
    CRUDE42  YLD12  0.392459  YLD13  0.251125
    CRUDE42  YLD14  0.514467  YLD15  0.382406
    CRUDE42  YLD16  0.172089  YLD17  0.366401
    CRUDE42  YLD18  0.302901  YLD19  0.463908
    CRUDE42  YLD20  0.154197  YLD21  0.385237
    CRUDE42  YLD22  0.378305  YLD23  0.383251
    CRUDE42  YLD24  0.317654  YLD25  0.479458
    CRUDE42  YLD26  0.45591  YLD27  0.355304
    CRUDE42  YLD28  0.272577  YLD29  0.19403
    CRUDE42  YLD30  0.293997  YLD31  0.33868
    CRUDE42  YLD32  0.505542  YLD33  0.218867
    CRUDE42  YLD34  0.346747  YLD35  0.393078
    CRUDE42  YLD36  0.413116  YLD37  0.220964
    CRUDE42  YLD38  0.53878  YLD39  0.421663
    CRUDE42  YLD40  0.286438  YLD41  0.467537
    CRUDE42  YLD42  0.430303  YLD43  0.485677
    CRUDE42  YLD44  0.321245  YLD45  0.349549
    CRUDE42  YLD46  0.53644  YLD47  0.357455
    CRUDE42  YLD48  0.158191  YLD49  0.423207
    CRUDE42  YLD50  0.251519  YLD51  0.546851
    CRUDE42  YLD52  0.187948  YLD53  0.421413
    CRUDE42  YLD54  0.297308  YLD55  0.155293
    CRUDE42  YLD56  0.352895  YLD57  0.454318
    CRUDE42  YLD58  0.277244  YLD59  0.47938
    CRUDE42  YLD60  0.504042  YLD61  0.335808
    CRUDE42  YLD62  0.21898  YLD63  0.434643
    CRUDE42  YLD64  0.426934  YLD65  0.419505
    CRUDE42  YLD66  0.548966  YLD67  0.494807
    CRUDE42  YLD68  0.287364  YLD69  0.331115
    CRUDE42  YLD70  0.533443  YLD71  0.273683
    CRUDE42  YLD72  0.288214  YLD73  0.380512
    CRUDE42  YLD74  0.194655  YLD75  0.297875
    CRUDE42  YLD76  0.433192  YLD77  0.243032
    CRUDE42  YLD78  0.266267  YLD79  0.155635
    CRUDE42  YLD80  0.226804  CAP  1
    CRUDE42  SULF  -0.37852
    CRUDE43  COST  -63.4421  YLD1  0.481666
    CRUDE43  YLD2  0.52058  YLD3  0.338426
    CRUDE43  YLD4  0.164169  YLD5  0.396297
    CRUDE43  YLD6  0.227823  YLD7  0.256155
    CRUDE43  YLD8  0.216754  YLD9  0.545366
    CRUDE43  YLD10  0.419843  YLD11  0.407788
    CRUDE43  YLD12  0.266458  YLD13  0.258575
    CRUDE43  YLD14  0.291944  YLD15  0.320428
    CRUDE43  YLD16  0.526953  YLD17  0.543938
    CRUDE43  YLD18  0.397737  YLD19  0.547766
    CRUDE43  YLD20  0.508026  YLD21  0.276431
    CRUDE43  YLD22  0.341482  YLD23  0.381586
    CRUDE43  YLD24  0.19532  YLD25  0.433601
    CRUDE43  YLD26  0.256223  YLD27  0.192889
    CRUDE43  YLD28  0.534885  YLD29  0.303355
    CRUDE43  YLD30  0.180689  YLD31  0.533914
    CRUDE43  YLD32  0.448293  YLD33  0.490205
    CRUDE43  YLD34  0.463712  YLD35  0.311068
    CRUDE43  YLD36  0.533645  YLD37  0.193855
    CRUDE43  YLD38  0.165021  YLD39  0.54398
    CRUDE43  YLD40  0.367416  YLD41  0.414544
    CRUDE43  YLD42  0.440668  YLD43  0.411197
    CRUDE43  YLD44  0.502099  YLD45  0.545674
    CRUDE43  YLD46  0.482895  YLD47  0.461627
    CRUDE43  YLD48  0.35875  YLD49  0.40741
    CRUDE43  YLD50  0.318992  YLD51  0.185845
    CRUDE43  YLD52  0.54874  YLD53  0.154029
    CRUDE43  YLD54  0.408501  YLD55  0.42379
    CRUDE43  YLD56  0.471609  YLD57  0.173971
    CRUDE43  YLD58  0.220721  YLD59  0.211706
    CRUDE43  YLD60  0.15328  YLD61  0.508491
    CRUDE43  YLD62  0.158297  YLD63  0.517245
    CRUDE43  YLD64  0.514571  YLD65  0.521085
    CRUDE43  YLD66  0.526972  YLD67  0.309575
    CRUDE43  YLD68  0.448369  YLD69  0.356194
    CRUDE43  YLD70  0.298065  YLD71  0.299882
    CRUDE43  YLD72  0.298848  YLD73  0.176272
    CRUDE43  YLD74  0.326414  YLD75  0.235255
    CRUDE43  YLD76  0.174539  YLD77  0.502302
    CRUDE43  YLD78  0.315475  YLD79  0.512443
    CRUDE43  YLD80  0.265029  CAP  1
    CRUDE43  SULF  0.595324
    CRUDE44  COST  -59.5649  YLD1  0.377633
    CRUDE44  YLD2  0.438639  YLD3  0.222843
    CRUDE44  YLD4  0.281621  YLD5  0.281607
    CRUDE44  YLD6  0.216533  YLD7  0.221107
    CRUDE44  YLD8  0.222528  YLD9  0.344144
    CRUDE44  YLD10  0.268691  YLD11  0.477919
    CRUDE44  YLD12  0.232838  YLD13  0.200143
    CRUDE44  YLD14  0.319909  YLD15  0.369213
    CRUDE44  YLD16  0.179928  YLD17  0.525599
    CRUDE44  YLD18  0.331761  YLD19  0.392193
    CRUDE44  YLD20  0.209656  YLD21  0.400787
    CRUDE44  YLD22  0.49483  YLD23  0.171805
    CRUDE44  YLD24  0.218765  YLD25  0.385051
    CRUDE44  YLD26  0.472709  YLD27  0.319393
    CRUDE44  YLD28  0.535795  YLD29  0.484865
    CRUDE44  YLD30  0.320519  YLD31  0.420463
    CRUDE44  YLD32  0.164063  YLD33  0.501139
    CRUDE44  YLD34  0.383571  YLD35  0.233137
    CRUDE44  YLD36  0.522436  YLD37  0.376813
    CRUDE44  YLD38  0.276402  YLD39  0.161535
    CRUDE44  YLD40  0.434673  YLD41  0.193117
    CRUDE44  YLD42  0.527041  YLD43  0.35091
    CRUDE44  YLD44  0.534362  YLD45  0.334945
    CRUDE44  YLD46  0.263844  YLD47  0.254253
    CRUDE44  YLD48  0.404777  YLD49  0.156085
    CRUDE44  YLD50  0.46462  YLD51  0.200625
    CRUDE44  YLD52  0.257138  YLD53  0.342408
    CRUDE44  YLD54  0.1639  YLD55  0.157639
    CRUDE44  YLD56  0.435017  YLD57  0.157514
    CRUDE44  YLD58  0.19096  YLD59  0.283679
    CRUDE44  YLD60  0.406584  YLD61  0.259029
    CRUDE44  YLD62  0.162632  YLD63  0.249405
    CRUDE44  YLD64  0.350626  YLD65  0.28901
    CRUDE44  YLD66  0.418376  YLD67  0.217709
    CRUDE44  YLD68  0.400431  YLD69  0.203354
    CRUDE44  YLD70  0.486478  YLD71  0.337641
    CRUDE44  YLD72  0.393893  YLD73  0.249631
    CRUDE44  YLD74  0.291548  YLD75  0.503949
    CRUDE44  YLD76  0.511724  YLD77  0.365093
    CRUDE44  YLD78  0.370106  YLD79  0.240659
    CRUDE44  YLD80  0.543135  CAP  1
    CRUDE44  SULF  -0.695638
    CRUDE45  COST  -58.0622  YLD1  0.175405
    CRUDE45  YLD2  0.169238  YLD3  0.343911
    CRUDE45  YLD4  0.522636  YLD5  0.338073
    CRUDE45  YLD6  0.396941  YLD7  0.426647
    CRUDE45  YLD8  0.305069  YLD9  0.198974
    CRUDE45  YLD10  0.437372  YLD11  0.283363
    CRUDE45  YLD12  0.210931  YLD13  0.284786
    CRUDE45  YLD14  0.236138  YLD15  0.358429
    CRUDE45  YLD16  0.325383  YLD17  0.331125
    CRUDE45  YLD18  0.462076  YLD19  0.273155
    CRUDE45  YLD20  0.46437  YLD21  0.473358
    CRUDE45  YLD22  0.192162  YLD23  0.275618
    CRUDE45  YLD24  0.36893  YLD25  0.478237
    CRUDE45  YLD26  0.250723  YLD27  0.330947
    CRUDE45  YLD28  0.265775  YLD29  0.496118
    CRUDE45  YLD30  0.326934  YLD31  0.5131
    CRUDE45  YLD32  0.380028  YLD33  0.369771
    CRUDE45  YLD34  0.182973  YLD35  0.475363
    CRUDE45  YLD36  0.465752  YLD37  0.521334
    CRUDE45  YLD38  0.275644  YLD39  0.285256
    CRUDE45  YLD40  0.234371  YLD41  0.345033
    CRUDE45  YLD42  0.482876  YLD43  0.438596
    CRUDE45  YLD44  0.507201  YLD45  0.179733
    CRUDE45  YLD46  0.295349  YLD47  0.215167
    CRUDE45  YLD48  0.243722  YLD49  0.494493
    CRUDE45  YLD50  0.539551  YLD51  0.480657
    CRUDE45  YLD52  0.490503  YLD53  0.315779
    CRUDE45  YLD54  0.505554  YLD55  0.432749
    CRUDE45  YLD56  0.297161  YLD57  0.539574
    CRUDE45  YLD58  0.444926  YLD59  0.357186
    CRUDE45  YLD60  0.177295  YLD61  0.5162
    CRUDE45  YLD62  0.352946  YLD63  0.395296
    CRUDE45  YLD64  0.29472  YLD65  0.281648
    CRUDE45  YLD66  0.430492  YLD67  0.354268
    CRUDE45  YLD68  0.316318  YLD69  0.541758
    CRUDE45  YLD70  0.495524  YLD71  0.320716
    CRUDE45  YLD72  0.259739  YLD73  0.378736
    CRUDE45  YLD74  0.239326  YLD75  0.542415
    CRUDE45  YLD76  0.466022  YLD77  0.492834
    CRUDE45  YLD78  0.268425  YLD79  0.432373
    CRUDE45  YLD80  0.299419  CAP  1
    CRUDE45  SULF  -0.338561
    CRUDE46  COST  -78.5856  YLD1  0.164729
    CRUDE46  YLD2  0.462606  YLD3  0.354983
    CRUDE46  YLD4  0.444085  YLD5  0.447712
    CRUDE46  YLD6  0.359234  YLD7  0.397221
    CRUDE46  YLD8  0.310931  YLD9  0.440074
    CRUDE46  YLD10  0.531613  YLD11  0.44322
    CRUDE46  YLD12  0.509782  YLD13  0.549818
    CRUDE46  YLD14  0.388838  YLD15  0.290081
    CRUDE46  YLD16  0.361953  YLD17  0.229396
    CRUDE46  YLD18  0.549049  YLD19  0.485012
    CRUDE46  YLD20  0.397173  YLD21  0.394659
    CRUDE46  YLD22  0.371529  YLD23  0.34968
    CRUDE46  YLD24  0.21584  YLD25  0.306907
    CRUDE46  YLD26  0.479499  YLD27  0.443457
    CRUDE46  YLD28  0.34185  YLD29  0.391139
    CRUDE46  YLD30  0.417468  YLD31  0.441908
    CRUDE46  YLD32  0.464633  YLD33  0.412472
    CRUDE46  YLD34  0.456261  YLD35  0.447133
    CRUDE46  YLD36  0.439358  YLD37  0.171915
    CRUDE46  YLD38  0.403386  YLD39  0.193141
    CRUDE46  YLD40  0.419009  YLD41  0.429059
    CRUDE46  YLD42  0.399356  YLD43  0.152371
    CRUDE46  YLD44  0.437671  YLD45  0.540948
    CRUDE46  YLD46  0.335805  YLD47  0.284728
    CRUDE46  YLD48  0.381575  YLD49  0.208197
    CRUDE46  YLD50  0.17385  YLD51  0.495902
    CRUDE46  YLD52  0.216216  YLD53  0.192686
    CRUDE46  YLD54  0.406639  YLD55  0.404249
    CRUDE46  YLD56  0.28467  YLD57  0.227353
    CRUDE46  YLD58  0.330176  YLD59  0.240578
    CRUDE46  YLD60  0.259038  YLD61  0.4814
    CRUDE46  YLD62  0.443749  YLD63  0.310158
    CRUDE46  YLD64  0.2183  YLD65  0.378575
    CRUDE46  YLD66  0.198901  YLD67  0.316667
    CRUDE46  YLD68  0.535901  YLD69  0.253106
    CRUDE46  YLD70  0.199315  YLD71  0.35599
    CRUDE46  YLD72  0.429429  YLD73  0.157327
    CRUDE46  YLD74  0.406872  YLD75  0.158006
    CRUDE46  YLD76  0.24161  YLD77  0.258379
    CRUDE46  YLD78  0.265099  YLD79  0.371229
    CRUDE46  YLD80  0.463489  CAP  1
    CRUDE46  SULF  1.1992
    CRUDE47  COST  -66.0865  YLD1  0.203541
    CRUDE47  YLD2  0.481176  YLD3  0.446675
    CRUDE47  YLD4  0.262556  YLD5  0.498733
    CRUDE47  YLD6  0.418038  YLD7  0.403276
    CRUDE47  YLD8  0.499705  YLD9  0.279204
    CRUDE47  YLD10  0.438557  YLD11  0.361431
    CRUDE47  YLD12  0.434054  YLD13  0.3123
    CRUDE47  YLD14  0.387921  YLD15  0.420989
    CRUDE47  YLD16  0.544122  YLD17  0.215954
    CRUDE47  YLD18  0.226453  YLD19  0.395794
    CRUDE47  YLD20  0.286739  YLD21  0.268299
    CRUDE47  YLD22  0.355192  YLD23  0.236632
    CRUDE47  YLD24  0.175552  YLD25  0.329021
    CRUDE47  YLD26  0.184107  YLD27  0.486008
    CRUDE47  YLD28  0.539138  YLD29  0.441015
    CRUDE47  YLD30  0.276167  YLD31  0.444185
    CRUDE47  YLD32  0.156915  YLD33  0.302895
    CRUDE47  YLD34  0.17792  YLD35  0.414636
    CRUDE47  YLD36  0.259617  YLD37  0.318622
    CRUDE47  YLD38  0.19232  YLD39  0.254922
    CRUDE47  YLD40  0.431704  YLD41  0.361958
    CRUDE47  YLD42  0.416286  YLD43  0.386976
    CRUDE47  YLD44  0.383997  YLD45  0.487435
    CRUDE47  YLD46  0.541572  YLD47  0.37188
    CRUDE47  YLD48  0.408867  YLD49  0.484932
    CRUDE47  YLD50  0.474982  YLD51  0.328183
    CRUDE47  YLD52  0.442542  YLD53  0.519284
    CRUDE47  YLD54  0.407422  YLD55  0.209339
    CRUDE47  YLD56  0.250977  YLD57  0.478856
    CRUDE47  YLD58  0.279412  YLD59  0.381707
    CRUDE47  YLD60  0.381323  YLD61  0.542223
    CRUDE47  YLD62  0.198336  YLD63  0.154742
    CRUDE47  YLD64  0.496715  YLD65  0.248201
    CRUDE47  YLD66  0.499719  YLD67  0.237665
    CRUDE47  YLD68  0.443999  YLD69  0.333537
    CRUDE47  YLD70  0.488315  YLD71  0.382945
    CRUDE47  YLD72  0.21114  YLD73  0.250258
    CRUDE47  YLD74  0.530365  YLD75  0.368587
    CRUDE47  YLD76  0.306899  YLD77  0.452185
    CRUDE47  YLD78  0.543206  YLD79  0.364725
    CRUDE47  YLD80  0.328726  CAP  1
    CRUDE47  SULF  -0.82347
    CRUDE48  COST  -42.8034  YLD1  0.155469
    CRUDE48  YLD2  0.450201  YLD3  0.429538
    CRUDE48  YLD4  0.25106  YLD5  0.323462
    CRUDE48  YLD6  0.521842  YLD7  0.241558
    CRUDE48  YLD8  0.354044  YLD9  0.548831
    CRUDE48  YLD10  0.495152  YLD11  0.467358
    CRUDE48  YLD12  0.524951  YLD13  0.238195
    CRUDE48  YLD14  0.29888  YLD15  0.453401
    CRUDE48  YLD16  0.216409  YLD17  0.245996
    CRUDE48  YLD18  0.33386  YLD19  0.382478
    CRUDE48  YLD20  0.49955  YLD21  0.252297
    CRUDE48  YLD22  0.262557  YLD23  0.49905
    CRUDE48  YLD24  0.276956  YLD25  0.442001
    CRUDE48  YLD26  0.496473  YLD27  0.367993
    CRUDE48  YLD28  0.151947  YLD29  0.196062
    CRUDE48  YLD30  0.42304  YLD31  0.182007
    CRUDE48  YLD32  0.369874  YLD33  0.262717
    CRUDE48  YLD34  0.341481  YLD35  0.244535
    CRUDE48  YLD36  0.488386  YLD37  0.433014
    CRUDE48  YLD38  0.401418  YLD39  0.485555
    CRUDE48  YLD40  0.373449  YLD41  0.30667
    CRUDE48  YLD42  0.235496  YLD43  0.488962
    CRUDE48  YLD44  0.425705  YLD45  0.2213
    CRUDE48  YLD46  0.218956  YLD47  0.380112
    CRUDE48  YLD48  0.424754  YLD49  0.156225
    CRUDE48  YLD50  0.270276  YLD51  0.435628
    CRUDE48  YLD52  0.35978  YLD53  0.472005
    CRUDE48  YLD54  0.51087  YLD55  0.456449
    CRUDE48  YLD56  0.380606  YLD57  0.37474
    CRUDE48  YLD58  0.492661  YLD59  0.381478
    CRUDE48  YLD60  0.430246  YLD61  0.279703
    CRUDE48  YLD62  0.238514  YLD63  0.20012
    CRUDE48  YLD64  0.307699  YLD65  0.410632
    CRUDE48  YLD66  0.173856  YLD67  0.438301
    CRUDE48  YLD68  0.174745  YLD69  0.236508
    CRUDE48  YLD70  0.2797  YLD71  0.336238
    CRUDE48  YLD72  0.19321  YLD73  0.241674
    CRUDE48  YLD74  0.232845  YLD75  0.286681
    CRUDE48  YLD76  0.257453  YLD77  0.379827
    CRUDE48  YLD78  0.166745  YLD79  0.437169
    CRUDE48  YLD80  0.495638  CAP  1
    CRUDE48  SULF  -1.46879
    CRUDE49  COST  -65.5331  YLD1  0.180144
    CRUDE49  YLD2  0.469815  YLD3  0.31102
    CRUDE49  YLD4  0.152033  YLD5  0.167465
    CRUDE49  YLD6  0.362904  YLD7  0.243058
    CRUDE49  YLD8  0.439362  YLD9  0.541913
    CRUDE49  YLD10  0.150842  YLD11  0.546218
    CRUDE49  YLD12  0.391317  YLD13  0.454993
    CRUDE49  YLD14  0.283214  YLD15  0.155851
    CRUDE49  YLD16  0.195773  YLD17  0.434053
    CRUDE49  YLD18  0.322394  YLD19  0.251454
    CRUDE49  YLD20  0.155163  YLD21  0.280968
    CRUDE49  YLD22  0.478891  YLD23  0.184844
    CRUDE49  YLD24  0.238128  YLD25  0.293102
    CRUDE49  YLD26  0.349675  YLD27  0.184713
    CRUDE49  YLD28  0.315071  YLD29  0.38525
    CRUDE49  YLD30  0.498595  YLD31  0.293786
    CRUDE49  YLD32  0.493106  YLD33  0.438793
    CRUDE49  YLD34  0.21894  YLD35  0.189143
    CRUDE49  YLD36  0.321002  YLD37  0.335075
    CRUDE49  YLD38  0.188016  YLD39  0.162929
    CRUDE49  YLD40  0.511447  YLD41  0.398766
    CRUDE49  YLD42  0.412928  YLD43  0.29276
    CRUDE49  YLD44  0.525644  YLD45  0.511842
    CRUDE49  YLD46  0.292993  YLD47  0.202351
    CRUDE49  YLD48  0.460561  YLD49  0.408386
    CRUDE49  YLD50  0.370297  YLD51  0.497023
    CRUDE49  YLD52  0.542363  YLD53  0.242034
    CRUDE49  YLD54  0.353339  YLD55  0.177339
    CRUDE49  YLD56  0.535537  YLD57  0.255789
    CRUDE49  YLD58  0.387445  YLD59  0.232761
    CRUDE49  YLD60  0.411853  YLD61  0.244301
    CRUDE49  YLD62  0.280904  YLD63  0.279997
    CRUDE49  YLD64  0.519953  YLD65  0.482905
    CRUDE49  YLD66  0.277092  YLD67  0.402516
    CRUDE49  YLD68  0.447853  YLD69  0.347569
    CRUDE49  YLD70  0.387295  YLD71  0.430625
    CRUDE49  YLD72  0.363951  YLD73  0.249942
    CRUDE49  YLD74  0.434716  YLD75  0.260796
    CRUDE49  YLD76  0.543766  YLD77  0.169368
    CRUDE49  YLD78  0.545618  YLD79  0.232873
    CRUDE49  YLD80  0.431501  CAP  1
    CRUDE49  SULF  -1.23628
    CRUDE50  COST  -51.9668  YLD1  0.426686
    CRUDE50  YLD2  0.480053  YLD3  0.237209
    CRUDE50  YLD4  0.428286  YLD5  0.214669
    CRUDE50  YLD6  0.382373  YLD7  0.238321
    CRUDE50  YLD8  0.191655  YLD9  0.412454
    CRUDE50  YLD10  0.437029  YLD11  0.23026
    CRUDE50  YLD12  0.33936  YLD13  0.366988
    CRUDE50  YLD14  0.503986  YLD15  0.232897
    CRUDE50  YLD16  0.153482  YLD17  0.25918
    CRUDE50  YLD18  0.271797  YLD19  0.452534
    CRUDE50  YLD20  0.240676  YLD21  0.215848
    CRUDE50  YLD22  0.451139  YLD23  0.344954
    CRUDE50  YLD24  0.356122  YLD25  0.17556
    CRUDE50  YLD26  0.268615  YLD27  0.24474
    CRUDE50  YLD28  0.190183  YLD29  0.416786
    CRUDE50  YLD30  0.244994  YLD31  0.493348
    CRUDE50  YLD32  0.339641  YLD33  0.49475
    CRUDE50  YLD34  0.450934  YLD35  0.380464
    CRUDE50  YLD36  0.258896  YLD37  0.472598
    CRUDE50  YLD38  0.187981  YLD39  0.358073
    CRUDE50  YLD40  0.194398  YLD41  0.537455
    CRUDE50  YLD42  0.319872  YLD43  0.193316
    CRUDE50  YLD44  0.249999  YLD45  0.286267
    CRUDE50  YLD46  0.44177  YLD47  0.333028
    CRUDE50  YLD48  0.274536  YLD49  0.323921
    CRUDE50  YLD50  0.266037  YLD51  0.167251
    CRUDE50  YLD52  0.371132  YLD53  0.252392
    CRUDE50  YLD54  0.314207  YLD55  0.48056
    CRUDE50  YLD56  0.230027  YLD57  0.201988
    CRUDE50  YLD58  0.357201  YLD59  0.468257
    CRUDE50  YLD60  0.169623  YLD61  0.282347
    CRUDE50  YLD62  0.237231  YLD63  0.376
    CRUDE50  YLD64  0.489103  YLD65  0.333727
    CRUDE50  YLD66  0.546461  YLD67  0.189865
    CRUDE50  YLD68  0.159615  YLD69  0.452407
    CRUDE50  YLD70  0.365585  YLD71  0.437441
    CRUDE50  YLD72  0.372197  YLD73  0.364244
    CRUDE50  YLD74  0.446952  YLD75  0.284283
    CRUDE50  YLD76  0.491679  YLD77  0.312137
    CRUDE50  YLD78  0.169101  YLD79  0.21361
    CRUDE50  YLD80  0.159164  CAP  1
    CRUDE50  SULF  -0.936547
    CRUDE51  COST  -74.7882  YLD1  0.363739
    CRUDE51  YLD2  0.224562  YLD3  0.408022
    CRUDE51  YLD4  0.169513  YLD5  0.158344
    CRUDE51  YLD6  0.185851  YLD7  0.219501
    CRUDE51  YLD8  0.240176  YLD9  0.201931
    CRUDE51  YLD10  0.481835  YLD11  0.547859
    CRUDE51  YLD12  0.173887  YLD13  0.209841
    CRUDE51  YLD14  0.303314  YLD15  0.435294
    CRUDE51  YLD16  0.212229  YLD17  0.28657
    CRUDE51  YLD18  0.229238  YLD19  0.182667
    CRUDE51  YLD20  0.376757  YLD21  0.222469
    CRUDE51  YLD22  0.443144  YLD23  0.426566
    CRUDE51  YLD24  0.190947  YLD25  0.179734
    CRUDE51  YLD26  0.256045  YLD27  0.215974
    CRUDE51  YLD28  0.353663  YLD29  0.230285
    CRUDE51  YLD30  0.541568  YLD31  0.243042
    CRUDE51  YLD32  0.151642  YLD33  0.411631
    CRUDE51  YLD34  0.514636  YLD35  0.371471
    CRUDE51  YLD36  0.303664  YLD37  0.221858
    CRUDE51  YLD38  0.441273  YLD39  0.376851
    CRUDE51  YLD40  0.220849  YLD41  0.187963
    CRUDE51  YLD42  0.211185  YLD43  0.318351
    CRUDE51  YLD44  0.364048  YLD45  0.300845
    CRUDE51  YLD46  0.535577  YLD47  0.257313
    CRUDE51  YLD48  0.377111  YLD49  0.230307
    CRUDE51  YLD50  0.395378  YLD51  0.37958
    CRUDE51  YLD52  0.160006  YLD53  0.162807
    CRUDE51  YLD54  0.496452  YLD55  0.254772
    CRUDE51  YLD56  0.188101  YLD57  0.348671
    CRUDE51  YLD58  0.447352  YLD59  0.402658
    CRUDE51  YLD60  0.191442  YLD61  0.53186
    CRUDE51  YLD62  0.306535  YLD63  0.50259
    CRUDE51  YLD64  0.300656  YLD65  0.421803
    CRUDE51  YLD66  0.318931  YLD67  0.520155
    CRUDE51  YLD68  0.410129  YLD69  0.358441
    CRUDE51  YLD70  0.415222  YLD71  0.326144
    CRUDE51  YLD72  0.192662  YLD73  0.382784
    CRUDE51  YLD74  0.349248  YLD75  0.405551
    CRUDE51  YLD76  0.52209  YLD77  0.223564
    CRUDE51  YLD78  0.265337  YLD79  0.410765
    CRUDE51  YLD80  0.267756  CAP  1
    CRUDE51  SULF  -0.0334982
    CRUDE52  COST  -58.1638  YLD1  0.449964
    CRUDE52  YLD2  0.244277  YLD3  0.318682
    CRUDE52  YLD4  0.363041  YLD5  0.411305
    CRUDE52  YLD6  0.437054  YLD7  0.412289
    CRUDE52  YLD8  0.431177  YLD9  0.424744
    CRUDE52  YLD10  0.166223  YLD11  0.185925
    CRUDE52  YLD12  0.418657  YLD13  0.302276
    CRUDE52  YLD14  0.3474  YLD15  0.304648
    CRUDE52  YLD16  0.232909  YLD17  0.329512
    CRUDE52  YLD18  0.176277  YLD19  0.519715
    CRUDE52  YLD20  0.290617  YLD21  0.466276
    CRUDE52  YLD22  0.500477  YLD23  0.2547
    CRUDE52  YLD24  0.450708  YLD25  0.196145
    CRUDE52  YLD26  0.322804  YLD27  0.199846
    CRUDE52  YLD28  0.159868  YLD29  0.502062
    CRUDE52  YLD30  0.304547  YLD31  0.196202
    CRUDE52  YLD32  0.154405  YLD33  0.354636
    CRUDE52  YLD34  0.37165  YLD35  0.225354
    CRUDE52  YLD36  0.484374  YLD37  0.533838
    CRUDE52  YLD38  0.279654  YLD39  0.37446
    CRUDE52  YLD40  0.321466  YLD41  0.306006
    CRUDE52  YLD42  0.472561  YLD43  0.440842
    CRUDE52  YLD44  0.425843  YLD45  0.512557
    CRUDE52  YLD46  0.21227  YLD47  0.48681
    CRUDE52  YLD48  0.542632  YLD49  0.193025
    CRUDE52  YLD50  0.291521  YLD51  0.491392
    CRUDE52  YLD52  0.391551  YLD53  0.268687
    CRUDE52  YLD54  0.446968  YLD55  0.425541
    CRUDE52  YLD56  0.19776  YLD57  0.312942
    CRUDE52  YLD58  0.476233  YLD59  0.277104
    CRUDE52  YLD60  0.201435  YLD61  0.283229
    CRUDE52  YLD62  0.373846  YLD63  0.466446
    CRUDE52  YLD64  0.379566  YLD65  0.410754
    CRUDE52  YLD66  0.202462  YLD67  0.373388
    CRUDE52  YLD68  0.234193  YLD69  0.26426
    CRUDE52  YLD70  0.446186  YLD71  0.206985
    CRUDE52  YLD72  0.535671  YLD73  0.513599
    CRUDE52  YLD74  0.509067  YLD75  0.226286
    CRUDE52  YLD76  0.46551  YLD77  0.293669
    CRUDE52  YLD78  0.347476  YLD79  0.266232
    CRUDE52  YLD80  0.373197  CAP  1
    CRUDE52  SULF  0.692983
    CRUDE53  COST  -36.9666  YLD1  0.515266
    CRUDE53  YLD2  0.403503  YLD3  0.20291
    CRUDE53  YLD4  0.534849  YLD5  0.282926
    CRUDE53  YLD6  0.309962  YLD7  0.489206
    CRUDE53  YLD8  0.171122  YLD9  0.187212
    CRUDE53  YLD10  0.498639  YLD11  0.150927
    CRUDE53  YLD12  0.382884  YLD13  0.315788
    CRUDE53  YLD14  0.263322  YLD15  0.414994
    CRUDE53  YLD16  0.402232  YLD17  0.515293
    CRUDE53  YLD18  0.504848  YLD19  0.280329
    CRUDE53  YLD20  0.394151  YLD21  0.303893
    CRUDE53  YLD22  0.439114  YLD23  0.399696
    CRUDE53  YLD24  0.512493  YLD25  0.497873
    CRUDE53  YLD26  0.54962  YLD27  0.29636
    CRUDE53  YLD28  0.312759  YLD29  0.227999
    CRUDE53  YLD30  0.256903  YLD31  0.280442
    CRUDE53  YLD32  0.316654  YLD33  0.21357
    CRUDE53  YLD34  0.360859  YLD35  0.172499
    CRUDE53  YLD36  0.209453  YLD37  0.304065
    CRUDE53  YLD38  0.540969  YLD39  0.340119
    CRUDE53  YLD40  0.200685  YLD41  0.312642
    CRUDE53  YLD42  0.354099  YLD43  0.19292
    CRUDE53  YLD44  0.421699  YLD45  0.362046
    CRUDE53  YLD46  0.240952  YLD47  0.27543
    CRUDE53  YLD48  0.509258  YLD49  0.326051
    CRUDE53  YLD50  0.283446  YLD51  0.309262
    CRUDE53  YLD52  0.208127  YLD53  0.383849
    CRUDE53  YLD54  0.52959  YLD55  0.519476
    CRUDE53  YLD56  0.463239  YLD57  0.429554
    CRUDE53  YLD58  0.424429  YLD59  0.242874
    CRUDE53  YLD60  0.186566  YLD61  0.376085
    CRUDE53  YLD62  0.423975  YLD63  0.371333
    CRUDE53  YLD64  0.16087  YLD65  0.165466
    CRUDE53  YLD66  0.537718  YLD67  0.250082
    CRUDE53  YLD68  0.428577  YLD69  0.249359
    CRUDE53  YLD70  0.326352  YLD71  0.406256
    CRUDE53  YLD72  0.379315  YLD73  0.304412
    CRUDE53  YLD74  0.536556  YLD75  0.515144
    CRUDE53  YLD76  0.332539  YLD77  0.303341
    CRUDE53  YLD78  0.207319  YLD79  0.53958
    CRUDE53  YLD80  0.52047  CAP  1
    CRUDE53  SULF  0.392357
    CRUDE54  COST  -56.9921  YLD1  0.38406
    CRUDE54  YLD2  0.513146  YLD3  0.510229
    CRUDE54  YLD4  0.193788  YLD5  0.366991
    CRUDE54  YLD6  0.54069  YLD7  0.439727
    CRUDE54  YLD8  0.344639  YLD9  0.161746
    CRUDE54  YLD10  0.252678  YLD11  0.167665
    CRUDE54  YLD12  0.546084  YLD13  0.451532
    CRUDE54  YLD14  0.464708  YLD15  0.288785
    CRUDE54  YLD16  0.237883  YLD17  0.225757
    CRUDE54  YLD18  0.317939  YLD19  0.20111
    CRUDE54  YLD20  0.159644  YLD21  0.324398
    CRUDE54  YLD22  0.242737  YLD23  0.481754
    CRUDE54  YLD24  0.447374  YLD25  0.338891
    CRUDE54  YLD26  0.238131  YLD27  0.241757
    CRUDE54  YLD28  0.23828  YLD29  0.275391
    CRUDE54  YLD30  0.318604  YLD31  0.238175
    CRUDE54  YLD32  0.212003  YLD33  0.171383
    CRUDE54  YLD34  0.455585  YLD35  0.182283
    CRUDE54  YLD36  0.332463  YLD37  0.286628
    CRUDE54  YLD38  0.164941  YLD39  0.466241
    CRUDE54  YLD40  0.376518  YLD41  0.380787
    CRUDE54  YLD42  0.54097  YLD43  0.232419
    CRUDE54  YLD44  0.250912  YLD45  0.205105
    CRUDE54  YLD46  0.240278  YLD47  0.485482
    CRUDE54  YLD48  0.531066  YLD49  0.199322
    CRUDE54  YLD50  0.165175  YLD51  0.270953
    CRUDE54  YLD52  0.469416  YLD53  0.318337
    CRUDE54  YLD54  0.526049  YLD55  0.285931
    CRUDE54  YLD56  0.290042  YLD57  0.511667
    CRUDE54  YLD58  0.326003  YLD59  0.5015
    CRUDE54  YLD60  0.221294  YLD61  0.311472
    CRUDE54  YLD62  0.53551  YLD63  0.179548
    CRUDE54  YLD64  0.255289  YLD65  0.223367
    CRUDE54  YLD66  0.543656  YLD67  0.232517
    CRUDE54  YLD68  0.273912  YLD69  0.453574
    CRUDE54  YLD70  0.505324  YLD71  0.459183
    CRUDE54  YLD72  0.210414  YLD73  0.520632
    CRUDE54  YLD74  0.294899  YLD75  0.336446
    CRUDE54  YLD76  0.232174  YLD77  0.339971
    CRUDE54  YLD78  0.203939  YLD79  0.330605
    CRUDE54  YLD80  0.190812  CAP  1
    CRUDE54  SULF  -0.932118
    CRUDE55  COST  -77.1427  YLD1  0.440448
    CRUDE55  YLD2  0.276479  YLD3  0.426489
    CRUDE55  YLD4  0.507792  YLD5  0.347311
    CRUDE55  YLD6  0.47927  YLD7  0.466837
    CRUDE55  YLD8  0.389748  YLD9  0.479183
    CRUDE55  YLD10  0.416117  YLD11  0.286713
    CRUDE55  YLD12  0.245664  YLD13  0.158269
    CRUDE55  YLD14  0.308979  YLD15  0.306302
    CRUDE55  YLD16  0.158208  YLD17  0.152011
    CRUDE55  YLD18  0.348758  YLD19  0.326947
    CRUDE55  YLD20  0.196584  YLD21  0.38762
    CRUDE55  YLD22  0.432225  YLD23  0.226135
    CRUDE55  YLD24  0.363131  YLD25  0.435153
    CRUDE55  YLD26  0.191287  YLD27  0.237321
    CRUDE55  YLD28  0.363323  YLD29  0.398223
    CRUDE55  YLD30  0.187759  YLD31  0.520115
    CRUDE55  YLD32  0.41578  YLD33  0.328277
    CRUDE55  YLD34  0.152032  YLD35  0.547108
    CRUDE55  YLD36  0.346943  YLD37  0.499842
    CRUDE55  YLD38  0.328043  YLD39  0.203417
    CRUDE55  YLD40  0.30936  YLD41  0.21087
    CRUDE55  YLD42  0.262672  YLD43  0.209021
    CRUDE55  YLD44  0.384693  YLD45  0.297622
    CRUDE55  YLD46  0.158373  YLD47  0.321426
    CRUDE55  YLD48  0.304455  YLD49  0.344579
    CRUDE55  YLD50  0.208784  YLD51  0.468283
    CRUDE55  YLD52  0.492627  YLD53  0.537702
    CRUDE55  YLD54  0.30293  YLD55  0.351158
    CRUDE55  YLD56  0.239747  YLD57  0.472099
    CRUDE55  YLD58  0.30172  YLD59  0.484297
    CRUDE55  YLD60  0.425395  YLD61  0.308488
    CRUDE55  YLD62  0.522337  YLD63  0.264363
    CRUDE55  YLD64  0.434109  YLD65  0.507412
    CRUDE55  YLD66  0.224817  YLD67  0.204379
    CRUDE55  YLD68  0.499203  YLD69  0.197295
    CRUDE55  YLD70  0.473799  YLD71  0.405244
    CRUDE55  YLD72  0.274577  YLD73  0.410782
    CRUDE55  YLD74  0.410413  YLD75  0.280231
    CRUDE55  YLD76  0.233232  YLD77  0.390116
    CRUDE55  YLD78  0.252525  YLD79  0.194639
    CRUDE55  YLD80  0.390465  CAP  1
    CRUDE55  SULF  0.374036
    CRUDE56  COST  -64.7392  YLD1  0.452832
    CRUDE56  YLD2  0.385323  YLD3  0.423274
    CRUDE56  YLD4  0.54659  YLD5  0.182611
    CRUDE56  YLD6  0.358992  YLD7  0.311919
    CRUDE56  YLD8  0.390858  YLD9  0.233901
    CRUDE56  YLD10  0.470142  YLD11  0.403163
    CRUDE56  YLD12  0.362295  YLD13  0.257608
    CRUDE56  YLD14  0.355444  YLD15  0.213472
    CRUDE56  YLD16  0.480647  YLD17  0.174039
    CRUDE56  YLD18  0.516777  YLD19  0.166988
    CRUDE56  YLD20  0.200838  YLD21  0.385861
    CRUDE56  YLD22  0.273081  YLD23  0.516888
    CRUDE56  YLD24  0.494267  YLD25  0.307164
    CRUDE56  YLD26  0.384014  YLD27  0.171877
    CRUDE56  YLD28  0.548397  YLD29  0.40534
    CRUDE56  YLD30  0.200282  YLD31  0.497187
    CRUDE56  YLD32  0.43352  YLD33  0.16974
    CRUDE56  YLD34  0.517103  YLD35  0.463434
    CRUDE56  YLD36  0.164652  YLD37  0.375547
    CRUDE56  YLD38  0.195254  YLD39  0.274231
    CRUDE56  YLD40  0.263838  YLD41  0.220657
    CRUDE56  YLD42  0.342268  YLD43  0.468779
    CRUDE56  YLD44  0.468365  YLD45  0.438839
    CRUDE56  YLD46  0.391646  YLD47  0.440634
    CRUDE56  YLD48  0.464771  YLD49  0.400087
    CRUDE56  YLD50  0.516831  YLD51  0.284315
    CRUDE56  YLD52  0.342837  YLD53  0.172432
    CRUDE56  YLD54  0.328795  YLD55  0.335247
    CRUDE56  YLD56  0.291138  YLD57  0.259781
    CRUDE56  YLD58  0.458666  YLD59  0.241904
    CRUDE56  YLD60  0.482335  YLD61  0.227351
    CRUDE56  YLD62  0.378051  YLD63  0.296683
    CRUDE56  YLD64  0.421164  YLD65  0.525557
    CRUDE56  YLD66  0.495922  YLD67  0.319855
    CRUDE56  YLD68  0.284766  YLD69  0.297987
    CRUDE56  YLD70  0.464168  YLD71  0.385222
    CRUDE56  YLD72  0.470094  YLD73  0.515064
    CRUDE56  YLD74  0.414885  YLD75  0.456213
    CRUDE56  YLD76  0.210673  YLD77  0.378391
    CRUDE56  YLD78  0.539403  YLD79  0.424326
    CRUDE56  YLD80  0.270871  CAP  1
    CRUDE56  SULF  1.30332
    CRUDE57  COST  -61.2177  YLD1  0.30114
    CRUDE57  YLD2  0.423193  YLD3  0.479034
    CRUDE57  YLD4  0.174607  YLD5  0.311305
    CRUDE57  YLD6  0.199289  YLD7  0.41163
    CRUDE57  YLD8  0.159173  YLD9  0.301611
    CRUDE57  YLD10  0.415066  YLD11  0.177612
    CRUDE57  YLD12  0.410383  YLD13  0.357039
    CRUDE57  YLD14  0.251343  YLD15  0.253292
    CRUDE57  YLD16  0.296238  YLD17  0.511907
    CRUDE57  YLD18  0.460516  YLD19  0.42385
    CRUDE57  YLD20  0.225713  YLD21  0.176951
    CRUDE57  YLD22  0.24687  YLD23  0.371423
    CRUDE57  YLD24  0.427967  YLD25  0.253484
    CRUDE57  YLD26  0.345417  YLD27  0.157068
    CRUDE57  YLD28  0.470214  YLD29  0.429754
    CRUDE57  YLD30  0.315774  YLD31  0.349873
    CRUDE57  YLD32  0.221152  YLD33  0.377734
    CRUDE57  YLD34  0.22898  YLD35  0.518795
    CRUDE57  YLD36  0.228298  YLD37  0.356578
    CRUDE57  YLD38  0.290552  YLD39  0.39629
    CRUDE57  YLD40  0.217996  YLD41  0.264145
    CRUDE57  YLD42  0.329198  YLD43  0.175157
    CRUDE57  YLD44  0.340032  YLD45  0.219674
    CRUDE57  YLD46  0.418281  YLD47  0.354024
    CRUDE57  YLD48  0.397959  YLD49  0.480954
    CRUDE57  YLD50  0.549311  YLD51  0.15127
    CRUDE57  YLD52  0.463289  YLD53  0.386572
    CRUDE57  YLD54  0.252394  YLD55  0.213045
    CRUDE57  YLD56  0.408132  YLD57  0.501573
    CRUDE57  YLD58  0.357163  YLD59  0.164242
    CRUDE57  YLD60  0.313526  YLD61  0.364832
    CRUDE57  YLD62  0.44366  YLD63  0.398687
    CRUDE57  YLD64  0.291348  YLD65  0.462176
    CRUDE57  YLD66  0.306169  YLD67  0.204216
    CRUDE57  YLD68  0.397878  YLD69  0.210593
    CRUDE57  YLD70  0.333299  YLD71  0.241765
    CRUDE57  YLD72  0.359293  YLD73  0.483389
    CRUDE57  YLD74  0.311454  YLD75  0.156539
    CRUDE57  YLD76  0.36866  YLD77  0.165597
    CRUDE57  YLD78  0.302047  YLD79  0.272464
    CRUDE57  YLD80  0.505731  CAP  1
    CRUDE57  SULF  -0.626629
    CRUDE58  COST  -35.2747  YLD1  0.246434
    CRUDE58  YLD2  0.330779  YLD3  0.361865
    CRUDE58  YLD4  0.503163  YLD5  0.238224
    CRUDE58  YLD6  0.493766  YLD7  0.291694
    CRUDE58  YLD8  0.278843  YLD9  0.539383
    CRUDE58  YLD10  0.186914  YLD11  0.152266
    CRUDE58  YLD12  0.407836  YLD13  0.257539
    CRUDE58  YLD14  0.545064  YLD15  0.392165
    CRUDE58  YLD16  0.291479  YLD17  0.409007
    CRUDE58  YLD18  0.202201  YLD19  0.511082
    CRUDE58  YLD20  0.333733  YLD21  0.482616
    CRUDE58  YLD22  0.179201  YLD23  0.269693
    CRUDE58  YLD24  0.15422  YLD25  0.288877
    CRUDE58  YLD26  0.359679  YLD27  0.191107
    CRUDE58  YLD28  0.488257  YLD29  0.194805
    CRUDE58  YLD30  0.454978  YLD31  0.174538
    CRUDE58  YLD32  0.505413  YLD33  0.303092
    CRUDE58  YLD34  0.543648  YLD35  0.228022
    CRUDE58  YLD36  0.480697  YLD37  0.440791
    CRUDE58  YLD38  0.549289  YLD39  0.426381
    CRUDE58  YLD40  0.284135  YLD41  0.532348
    CRUDE58  YLD42  0.198312  YLD43  0.424635
    CRUDE58  YLD44  0.467319  YLD45  0.386092
    CRUDE58  YLD46  0.39101  YLD47  0.398785
    CRUDE58  YLD48  0.183094  YLD49  0.42146
    CRUDE58  YLD50  0.462208  YLD51  0.533829
    CRUDE58  YLD52  0.208044  YLD53  0.493324
    CRUDE58  YLD54  0.414259  YLD55  0.386125
    CRUDE58  YLD56  0.368715  YLD57  0.483357
    CRUDE58  YLD58  0.431754  YLD59  0.471813
    CRUDE58  YLD60  0.427113  YLD61  0.489762
    CRUDE58  YLD62  0.530349  YLD63  0.175969
    CRUDE58  YLD64  0.473443  YLD65  0.518499
    CRUDE58  YLD66  0.302547  YLD67  0.316327
    CRUDE58  YLD68  0.264371  YLD69  0.25319
    CRUDE58  YLD70  0.165029  YLD71  0.408055
    CRUDE58  YLD72  0.225259  YLD73  0.425033
    CRUDE58  YLD74  0.276716  YLD75  0.322741
    CRUDE58  YLD76  0.517987  YLD77  0.450276
    CRUDE58  YLD78  0.376398  YLD79  0.209435
    CRUDE58  YLD80  0.456068  CAP  1
    CRUDE58  SULF  -0.0956559
    CRUDE59  COST  -40.922  YLD1  0.232018
    CRUDE59  YLD2  0.435513  YLD3  0.476022
    CRUDE59  YLD4  0.356432  YLD5  0.31736
    CRUDE59  YLD6  0.469912  YLD7  0.360202
    CRUDE59  YLD8  0.404596  YLD9  0.284736
    CRUDE59  YLD10  0.388529  YLD11  0.524836
    CRUDE59  YLD12  0.374517  YLD13  0.401374
    CRUDE59  YLD14  0.266598  YLD15  0.323265
    CRUDE59  YLD16  0.270992  YLD17  0.259216
    CRUDE59  YLD18  0.376168  YLD19  0.484905
    CRUDE59  YLD20  0.450851  YLD21  0.220931
    CRUDE59  YLD22  0.447611  YLD23  0.322343
    CRUDE59  YLD24  0.307636  YLD25  0.467673
    CRUDE59  YLD26  0.416774  YLD27  0.218879
    CRUDE59  YLD28  0.404106  YLD29  0.489786
    CRUDE59  YLD30  0.510125  YLD31  0.435825
    CRUDE59  YLD32  0.326763  YLD33  0.452876
    CRUDE59  YLD34  0.444502  YLD35  0.534227
    CRUDE59  YLD36  0.482307  YLD37  0.381934
    CRUDE59  YLD38  0.505537  YLD39  0.311659
    CRUDE59  YLD40  0.393184  YLD41  0.443643
    CRUDE59  YLD42  0.320446  YLD43  0.296583
    CRUDE59  YLD44  0.293953  YLD45  0.42811
    CRUDE59  YLD46  0.178529  YLD47  0.308143
    CRUDE59  YLD48  0.479592  YLD49  0.17608
    CRUDE59  YLD50  0.264725  YLD51  0.386849
    CRUDE59  YLD52  0.346831  YLD53  0.342296
    CRUDE59  YLD54  0.295817  YLD55  0.447201
    CRUDE59  YLD56  0.447436  YLD57  0.521654
    CRUDE59  YLD58  0.50616  YLD59  0.396203
    CRUDE59  YLD60  0.230007  YLD61  0.169794
    CRUDE59  YLD62  0.183389  YLD63  0.362077
    CRUDE59  YLD64  0.244334  YLD65  0.272459
    CRUDE59  YLD66  0.255079  YLD67  0.209508
    CRUDE59  YLD68  0.516889  YLD69  0.211073
    CRUDE59  YLD70  0.346903  YLD71  0.283942
    CRUDE59  YLD72  0.19114  YLD73  0.292442
    CRUDE59  YLD74  0.523498  YLD75  0.292121
    CRUDE59  YLD76  0.546719  YLD77  0.529674
    CRUDE59  YLD78  0.431717  YLD79  0.319129
    CRUDE59  YLD80  0.297881  CAP  1
    CRUDE59  SULF  -0.227737
    CRUDE60  COST  -74.164  YLD1  0.250577
    CRUDE60  YLD2  0.509867  YLD3  0.349236
    CRUDE60  YLD4  0.512605  YLD5  0.231431
    CRUDE60  YLD6  0.223834  YLD7  0.342654
    CRUDE60  YLD8  0.2096  YLD9  0.268596
    CRUDE60  YLD10  0.369833  YLD11  0.478771
    CRUDE60  YLD12  0.460771  YLD13  0.342747
    CRUDE60  YLD14  0.458297  YLD15  0.459721
    CRUDE60  YLD16  0.540149  YLD17  0.220877
    CRUDE60  YLD18  0.326901  YLD19  0.200948
    CRUDE60  YLD20  0.512216  YLD21  0.439229
    CRUDE60  YLD22  0.4344  YLD23  0.274877
    CRUDE60  YLD24  0.490381  YLD25  0.400086
    CRUDE60  YLD26  0.256858  YLD27  0.322393
    CRUDE60  YLD28  0.166624  YLD29  0.363139
    CRUDE60  YLD30  0.415927  YLD31  0.399365
    CRUDE60  YLD32  0.207138  YLD33  0.272259
    CRUDE60  YLD34  0.4597  YLD35  0.207062
    CRUDE60  YLD36  0.266966  YLD37  0.215006
    CRUDE60  YLD38  0.16933  YLD39  0.500149
    CRUDE60  YLD40  0.380314  YLD41  0.414677
    CRUDE60  YLD42  0.265021  YLD43  0.452316
    CRUDE60  YLD44  0.525504  YLD45  0.287541
    CRUDE60  YLD46  0.177692  YLD47  0.457283
    CRUDE60  YLD48  0.420841  YLD49  0.272973
    CRUDE60  YLD50  0.310978  YLD51  0.477807
    CRUDE60  YLD52  0.307578  YLD53  0.151185
    CRUDE60  YLD54  0.46444  YLD55  0.51675
    CRUDE60  YLD56  0.28563  YLD57  0.333464
    CRUDE60  YLD58  0.516356  YLD59  0.190353
    CRUDE60  YLD60  0.539312  YLD61  0.505691
    CRUDE60  YLD62  0.152254  YLD63  0.510586
    CRUDE60  YLD64  0.334508  YLD65  0.249084
    CRUDE60  YLD66  0.167884  YLD67  0.412723
    CRUDE60  YLD68  0.462398  YLD69  0.504709
    CRUDE60  YLD70  0.509378  YLD71  0.517824
    CRUDE60  YLD72  0.32231  YLD73  0.246444
    CRUDE60  YLD74  0.465993  YLD75  0.285284
    CRUDE60  YLD76  0.26492  YLD77  0.289473
    CRUDE60  YLD78  0.446889  YLD79  0.535689
    CRUDE60  YLD80  0.216841  CAP  1
    CRUDE60  SULF  -0.531881
    CRUDE61  COST  -36.1044  YLD1  0.259893
    CRUDE61  YLD2  0.399641  YLD3  0.17687
    CRUDE61  YLD4  0.378528  YLD5  0.486181
    CRUDE61  YLD6  0.268111  YLD7  0.220755
    CRUDE61  YLD8  0.428166  YLD9  0.517283
    CRUDE61  YLD10  0.510129  YLD11  0.473673
    CRUDE61  YLD12  0.231992  YLD13  0.294684
    CRUDE61  YLD14  0.320998  YLD15  0.491034
    CRUDE61  YLD16  0.218046  YLD17  0.267707
    CRUDE61  YLD18  0.468884  YLD19  0.200508
    CRUDE61  YLD20  0.484149  YLD21  0.459068
    CRUDE61  YLD22  0.2438  YLD23  0.440044
    CRUDE61  YLD24  0.288344  YLD25  0.525056
    CRUDE61  YLD26  0.514266  YLD27  0.354208
    CRUDE61  YLD28  0.232719  YLD29  0.338529
    CRUDE61  YLD30  0.192088  YLD31  0.538222
    CRUDE61  YLD32  0.455701  YLD33  0.387193
    CRUDE61  YLD34  0.412481  YLD35  0.353633
    CRUDE61  YLD36  0.499959  YLD37  0.419679
    CRUDE61  YLD38  0.375302  YLD39  0.316197
    CRUDE61  YLD40  0.21545  YLD41  0.476783
    CRUDE61  YLD42  0.214128  YLD43  0.535753
    CRUDE61  YLD44  0.363571  YLD45  0.427552
    CRUDE61  YLD46  0.234155  YLD47  0.320076
    CRUDE61  YLD48  0.229567  YLD49  0.265191
    CRUDE61  YLD50  0.445801  YLD51  0.480121
    CRUDE61  YLD52  0.394527  YLD53  0.247121
    CRUDE61  YLD54  0.19862  YLD55  0.490321
    CRUDE61  YLD56  0.330811  YLD57  0.45743
    CRUDE61  YLD58  0.261086  YLD59  0.384943
    CRUDE61  YLD60  0.289999  YLD61  0.416189
    CRUDE61  YLD62  0.16192  YLD63  0.432173
    CRUDE61  YLD64  0.339012  YLD65  0.30372
    CRUDE61  YLD66  0.257204  YLD67  0.464097
    CRUDE61  YLD68  0.247321  YLD69  0.442762
    CRUDE61  YLD70  0.22618  YLD71  0.411488
    CRUDE61  YLD72  0.284966  YLD73  0.238957
    CRUDE61  YLD74  0.195786  YLD75  0.284829
    CRUDE61  YLD76  0.428926  YLD77  0.221899
    CRUDE61  YLD78  0.425216  YLD79  0.314572
    CRUDE61  YLD80  0.154599  CAP  1
    CRUDE61  SULF  -0.426437
    CRUDE62  COST  -75.3414  YLD1  0.232891
    CRUDE62  YLD2  0.365912  YLD3  0.312099
    CRUDE62  YLD4  0.414845  YLD5  0.219677
    CRUDE62  YLD6  0.467363  YLD7  0.304832
    CRUDE62  YLD8  0.44837  YLD9  0.194299
    CRUDE62  YLD10  0.311696  YLD11  0.50377
    CRUDE62  YLD12  0.440251  YLD13  0.529683
    CRUDE62  YLD14  0.232487  YLD15  0.366659
    CRUDE62  YLD16  0.509295  YLD17  0.195919
    CRUDE62  YLD18  0.439693  YLD19  0.475374
    CRUDE62  YLD20  0.228755  YLD21  0.43596
    CRUDE62  YLD22  0.449752  YLD23  0.46852
    CRUDE62  YLD24  0.164086  YLD25  0.421882
    CRUDE62  YLD26  0.324269  YLD27  0.206237
    CRUDE62  YLD28  0.520026  YLD29  0.542439
    CRUDE62  YLD30  0.418808  YLD31  0.373581
    CRUDE62  YLD32  0.46599  YLD33  0.365073
    CRUDE62  YLD34  0.338665  YLD35  0.481878
    CRUDE62  YLD36  0.458713  YLD37  0.203388
    CRUDE62  YLD38  0.409129  YLD39  0.31111
    CRUDE62  YLD40  0.199968  YLD41  0.201031
    CRUDE62  YLD42  0.262862  YLD43  0.195818
    CRUDE62  YLD44  0.388379  YLD45  0.503683
    CRUDE62  YLD46  0.266118  YLD47  0.332985
    CRUDE62  YLD48  0.181895  YLD49  0.516013
    CRUDE62  YLD50  0.537405  YLD51  0.176564
    CRUDE62  YLD52  0.167791  YLD53  0.279508
    CRUDE62  YLD54  0.196561  YLD55  0.354008
    CRUDE62  YLD56  0.190787  YLD57  0.386663
    CRUDE62  YLD58  0.225156  YLD59  0.330873
    CRUDE62  YLD60  0.488347  YLD61  0.396695
    CRUDE62  YLD62  0.37534  YLD63  0.468831
    CRUDE62  YLD64  0.286327  YLD65  0.172137
    CRUDE62  YLD66  0.171511  YLD67  0.369809
    CRUDE62  YLD68  0.529519  YLD69  0.374371
    CRUDE62  YLD70  0.543037  YLD71  0.261272
    CRUDE62  YLD72  0.412367  YLD73  0.53087
    CRUDE62  YLD74  0.197954  YLD75  0.162509
    CRUDE62  YLD76  0.388839  YLD77  0.366001
    CRUDE62  YLD78  0.284771  YLD79  0.288934
    CRUDE62  YLD80  0.398454  CAP  1
    CRUDE62  SULF  -0.704184
    CRUDE63  COST  -62.3845  YLD1  0.501288
    CRUDE63  YLD2  0.325498  YLD3  0.348986
    CRUDE63  YLD4  0.367512  YLD5  0.534312
    CRUDE63  YLD6  0.224091  YLD7  0.535529
    CRUDE63  YLD8  0.542788  YLD9  0.453833
    CRUDE63  YLD10  0.278432  YLD11  0.430014
    CRUDE63  YLD12  0.397894  YLD13  0.402864
    CRUDE63  YLD14  0.469888  YLD15  0.453307
    CRUDE63  YLD16  0.460721  YLD17  0.526613
    CRUDE63  YLD18  0.426162  YLD19  0.519702
    CRUDE63  YLD20  0.32646  YLD21  0.381591
    CRUDE63  YLD22  0.517136  YLD23  0.483175
    CRUDE63  YLD24  0.448472  YLD25  0.378073
    CRUDE63  YLD26  0.201634  YLD27  0.319913
    CRUDE63  YLD28  0.296445  YLD29  0.446151
    CRUDE63  YLD30  0.404171  YLD31  0.284557
    CRUDE63  YLD32  0.405718  YLD33  0.151885
    CRUDE63  YLD34  0.378651  YLD35  0.289921
    CRUDE63  YLD36  0.317163  YLD37  0.472343
    CRUDE63  YLD38  0.233814  YLD39  0.164483
    CRUDE63  YLD40  0.160671  YLD41  0.493733
    CRUDE63  YLD42  0.243301  YLD43  0.275754
    CRUDE63  YLD44  0.162545  YLD45  0.338847
    CRUDE63  YLD46  0.464617  YLD47  0.357071
    CRUDE63  YLD48  0.484809  YLD49  0.497113
    CRUDE63  YLD50  0.332188  YLD51  0.218344
    CRUDE63  YLD52  0.450849  YLD53  0.536398
    CRUDE63  YLD54  0.231782  YLD55  0.437607
    CRUDE63  YLD56  0.179223  YLD57  0.274201
    CRUDE63  YLD58  0.254515  YLD59  0.45982
    CRUDE63  YLD60  0.528147  YLD61  0.40036
    CRUDE63  YLD62  0.455133  YLD63  0.42267
    CRUDE63  YLD64  0.531866  YLD65  0.473949
    CRUDE63  YLD66  0.519749  YLD67  0.422023
    CRUDE63  YLD68  0.292863  YLD69  0.23977
    CRUDE63  YLD70  0.473076  YLD71  0.339171
    CRUDE63  YLD72  0.520099  YLD73  0.53343
    CRUDE63  YLD74  0.519017  YLD75  0.210847
    CRUDE63  YLD76  0.345574  YLD77  0.431965
    CRUDE63  YLD78  0.194691  YLD79  0.327804
    CRUDE63  YLD80  0.31245  CAP  1
    CRUDE63  SULF  -1.6005
    CRUDE64  COST  -47.6284  YLD1  0.4528
    CRUDE64  YLD2  0.380995  YLD3  0.438081
    CRUDE64  YLD4  0.495797  YLD5  0.316363
    CRUDE64  YLD6  0.517101  YLD7  0.249432
    CRUDE64  YLD8  0.233937  YLD9  0.545226
    CRUDE64  YLD10  0.44994  YLD11  0.191762
    CRUDE64  YLD12  0.50843  YLD13  0.201977
    CRUDE64  YLD14  0.283443  YLD15  0.272762
    CRUDE64  YLD16  0.180592  YLD17  0.463682
    CRUDE64  YLD18  0.286218  YLD19  0.334268
    CRUDE64  YLD20  0.229765  YLD21  0.155844
    CRUDE64  YLD22  0.193212  YLD23  0.544307
    CRUDE64  YLD24  0.470815  YLD25  0.394078
    CRUDE64  YLD26  0.44692  YLD27  0.2867
    CRUDE64  YLD28  0.191455  YLD29  0.197202
    CRUDE64  YLD30  0.472306  YLD31  0.357609
    CRUDE64  YLD32  0.491386  YLD33  0.178956
    CRUDE64  YLD34  0.168561  YLD35  0.319931
    CRUDE64  YLD36  0.449363  YLD37  0.545895
    CRUDE64  YLD38  0.208042  YLD39  0.370457
    CRUDE64  YLD40  0.15497  YLD41  0.387933
    CRUDE64  YLD42  0.443629  YLD43  0.47405
    CRUDE64  YLD44  0.218108  YLD45  0.303164
    CRUDE64  YLD46  0.213756  YLD47  0.48273
    CRUDE64  YLD48  0.181561  YLD49  0.298059
    CRUDE64  YLD50  0.481809  YLD51  0.274448
    CRUDE64  YLD52  0.181652  YLD53  0.514709
    CRUDE64  YLD54  0.183717  YLD55  0.470313
    CRUDE64  YLD56  0.334902  YLD57  0.547772
    CRUDE64  YLD58  0.450549  YLD59  0.233634
    CRUDE64  YLD60  0.495886  YLD61  0.268508
    CRUDE64  YLD62  0.29683  YLD63  0.232636
    CRUDE64  YLD64  0.428674  YLD65  0.54367
    CRUDE64  YLD66  0.414688  YLD67  0.525351
    CRUDE64  YLD68  0.410746  YLD69  0.354091
    CRUDE64  YLD70  0.433932  YLD71  0.488633
    CRUDE64  YLD72  0.249092  YLD73  0.439933
    CRUDE64  YLD74  0.182564  YLD75  0.206754
    CRUDE64  YLD76  0.416307  YLD77  0.421562
    CRUDE64  YLD78  0.262687  YLD79  0.154846
    CRUDE64  YLD80  0.275903  CAP  1
    CRUDE64  SULF  -0.596442
    CRUDE65  COST  -38.2328  YLD1  0.168759
    CRUDE65  YLD2  0.292145  YLD3  0.192631
    CRUDE65  YLD4  0.443564  YLD5  0.488498
    CRUDE65  YLD6  0.319811  YLD7  0.203521
    CRUDE65  YLD8  0.480052  YLD9  0.510518
    CRUDE65  YLD10  0.31507  YLD11  0.30964
    CRUDE65  YLD12  0.488878  YLD13  0.374037
    CRUDE65  YLD14  0.496077  YLD15  0.315988
    CRUDE65  YLD16  0.544692  YLD17  0.334956
    CRUDE65  YLD18  0.471985  YLD19  0.349588
    CRUDE65  YLD20  0.255789  YLD21  0.29415
    CRUDE65  YLD22  0.243055  YLD23  0.466514
    CRUDE65  YLD24  0.214237  YLD25  0.526949
    CRUDE65  YLD26  0.407242  YLD27  0.223369
    CRUDE65  YLD28  0.430962  YLD29  0.452616
    CRUDE65  YLD30  0.480099  YLD31  0.541705
    CRUDE65  YLD32  0.444949  YLD33  0.266147
    CRUDE65  YLD34  0.399584  YLD35  0.201274
    CRUDE65  YLD36  0.534534  YLD37  0.300955
    CRUDE65  YLD38  0.511752  YLD39  0.433472
    CRUDE65  YLD40  0.501924  YLD41  0.284132
    CRUDE65  YLD42  0.16231  YLD43  0.256463
    CRUDE65  YLD44  0.403174  YLD45  0.250463
    CRUDE65  YLD46  0.167637  YLD47  0.413752
    CRUDE65  YLD48  0.186542  YLD49  0.178462
    CRUDE65  YLD50  0.540028  YLD51  0.27828
    CRUDE65  YLD52  0.412589  YLD53  0.529668
    CRUDE65  YLD54  0.398013  YLD55  0.347395
    CRUDE65  YLD56  0.270639  YLD57  0.165323
    CRUDE65  YLD58  0.298023  YLD59  0.331263
    CRUDE65  YLD60  0.176827  YLD61  0.316058
    CRUDE65  YLD62  0.368096  YLD63  0.194194
    CRUDE65  YLD64  0.36568  YLD65  0.479612
    CRUDE65  YLD66  0.504649  YLD67  0.405349
    CRUDE65  YLD68  0.447141  YLD69  0.358333
    CRUDE65  YLD70  0.420864  YLD71  0.284186
    CRUDE65  YLD72  0.492094  YLD73  0.503518
    CRUDE65  YLD74  0.425369  YLD75  0.545444
    CRUDE65  YLD76  0.298545  YLD77  0.394844
    CRUDE65  YLD78  0.234118  YLD79  0.203241
    CRUDE65  YLD80  0.544201  CAP  1
    CRUDE65  SULF  0.160275
    CRUDE66  COST  -54.2415  YLD1  0.257469
    CRUDE66  YLD2  0.306593  YLD3  0.206007
    CRUDE66  YLD4  0.358504  YLD5  0.401506
    CRUDE66  YLD6  0.184816  YLD7  0.317432
    CRUDE66  YLD8  0.358119  YLD9  0.410667
    CRUDE66  YLD10  0.408438  YLD11  0.43926
    CRUDE66  YLD12  0.276059  YLD13  0.462293
    CRUDE66  YLD14  0.516103  YLD15  0.435111
    CRUDE66  YLD16  0.258546  YLD17  0.495985
    CRUDE66  YLD18  0.170957  YLD19  0.277305
    CRUDE66  YLD20  0.351419  YLD21  0.391936
    CRUDE66  YLD22  0.450104  YLD23  0.390554
    CRUDE66  YLD24  0.364936  YLD25  0.46528
    CRUDE66  YLD26  0.276297  YLD27  0.152736
    CRUDE66  YLD28  0.269783  YLD29  0.1881
    CRUDE66  YLD30  0.497281  YLD31  0.428545
    CRUDE66  YLD32  0.502882  YLD33  0.502894
    CRUDE66  YLD34  0.400439  YLD35  0.199169
    CRUDE66  YLD36  0.333588  YLD37  0.327902
    CRUDE66  YLD38  0.537527  YLD39  0.195775
    CRUDE66  YLD40  0.168036  YLD41  0.476342
    CRUDE66  YLD42  0.396985  YLD43  0.236048
    CRUDE66  YLD44  0.317948  YLD45  0.391682
    CRUDE66  YLD46  0.307595  YLD47  0.289664
    CRUDE66  YLD48  0.320963  YLD49  0.507643
    CRUDE66  YLD50  0.499389  YLD51  0.413514
    CRUDE66  YLD52  0.157383  YLD53  0.480303
    CRUDE66  YLD54  0.208941  YLD55  0.196171
    CRUDE66  YLD56  0.39512  YLD57  0.214909
    CRUDE66  YLD58  0.219356  YLD59  0.212498
    CRUDE66  YLD60  0.410123  YLD61  0.469716
    CRUDE66  YLD62  0.356547  YLD63  0.481796
    CRUDE66  YLD64  0.354206  YLD65  0.37199
    CRUDE66  YLD66  0.436916  YLD67  0.295663
    CRUDE66  YLD68  0.159161  YLD69  0.386161
    CRUDE66  YLD70  0.38481  YLD71  0.360176
    CRUDE66  YLD72  0.518185  YLD73  0.517598
    CRUDE66  YLD74  0.240703  YLD75  0.158866
    CRUDE66  YLD76  0.527794  YLD77  0.208493
    CRUDE66  YLD78  0.204511  YLD79  0.48987
    CRUDE66  YLD80  0.336457  CAP  1
    CRUDE66  SULF  0.682819
    CRUDE67  COST  -43.4706  YLD1  0.158874
    CRUDE67  YLD2  0.362743  YLD3  0.255474
    CRUDE67  YLD4  0.497264  YLD5  0.44414
    CRUDE67  YLD6  0.476299  YLD7  0.466135
    CRUDE67  YLD8  0.299385  YLD9  0.275624
    CRUDE67  YLD10  0.40858  YLD11  0.262134
    CRUDE67  YLD12  0.260495  YLD13  0.433396
    CRUDE67  YLD14  0.49393  YLD15  0.304485
    CRUDE67  YLD16  0.189433  YLD17  0.249783
    CRUDE67  YLD18  0.21385  YLD19  0.507706
    CRUDE67  YLD20  0.177244  YLD21  0.304981
    CRUDE67  YLD22  0.259803  YLD23  0.285688
    CRUDE67  YLD24  0.226782  YLD25  0.159616
    CRUDE67  YLD26  0.398607  YLD27  0.336807
    CRUDE67  YLD28  0.257543  YLD29  0.160988
    CRUDE67  YLD30  0.315653  YLD31  0.41879
    CRUDE67  YLD32  0.323555  YLD33  0.208806
    CRUDE67  YLD34  0.50648  YLD35  0.397827
    CRUDE67  YLD36  0.245371  YLD37  0.168573
    CRUDE67  YLD38  0.546757  YLD39  0.272173
    CRUDE67  YLD40  0.442488  YLD41  0.471026
    CRUDE67  YLD42  0.454265  YLD43  0.480151
    CRUDE67  YLD44  0.353266  YLD45  0.501941
    CRUDE67  YLD46  0.316557  YLD47  0.418128
    CRUDE67  YLD48  0.203919  YLD49  0.505276
    CRUDE67  YLD50  0.24086  YLD51  0.399253
    CRUDE67  YLD52  0.482755  YLD53  0.290659
    CRUDE67  YLD54  0.213985  YLD55  0.325172
    CRUDE67  YLD56  0.167201  YLD57  0.507017
    CRUDE67  YLD58  0.189354  YLD59  0.533011
    CRUDE67  YLD60  0.198036  YLD61  0.272552
    CRUDE67  YLD62  0.187908  YLD63  0.428202
    CRUDE67  YLD64  0.213718  YLD65  0.268113
    CRUDE67  YLD66  0.202515  YLD67  0.329792
    CRUDE67  YLD68  0.533587  YLD69  0.174034
    CRUDE67  YLD70  0.438268  YLD71  0.421868
    CRUDE67  YLD72  0.510801  YLD73  0.354622
    CRUDE67  YLD74  0.164074  YLD75  0.216829
    CRUDE67  YLD76  0.43218  YLD77  0.48473
    CRUDE67  YLD78  0.159799  YLD79  0.541214
    CRUDE67  YLD80  0.449936  CAP  1
    CRUDE67  SULF  -0.796606
    CRUDE68  COST  -38.4146  YLD1  0.349266
    CRUDE68  YLD2  0.176648  YLD3  0.256599
    CRUDE68  YLD4  0.248114  YLD5  0.45709
    CRUDE68  YLD6  0.299404  YLD7  0.382859
    CRUDE68  YLD8  0.198951  YLD9  0.251729
    CRUDE68  YLD10  0.505216  YLD11  0.424963
    CRUDE68  YLD12  0.542661  YLD13  0.218836
    CRUDE68  YLD14  0.164003  YLD15  0.385402
    CRUDE68  YLD16  0.481726  YLD17  0.436848
    CRUDE68  YLD18  0.284249  YLD19  0.407961
    CRUDE68  YLD20  0.23727  YLD21  0.495392
    CRUDE68  YLD22  0.399866  YLD23  0.367838
    CRUDE68  YLD24  0.437694  YLD25  0.363656
    CRUDE68  YLD26  0.237945  YLD27  0.424261
    CRUDE68  YLD28  0.549191  YLD29  0.31145
    CRUDE68  YLD30  0.429146  YLD31  0.246273
    CRUDE68  YLD32  0.449039  YLD33  0.434358
    CRUDE68  YLD34  0.352263  YLD35  0.420213
    CRUDE68  YLD36  0.526727  YLD37  0.155493
    CRUDE68  YLD38  0.465905  YLD39  0.462503
    CRUDE68  YLD40  0.498794  YLD41  0.488283
    CRUDE68  YLD42  0.342289  YLD43  0.544833
    CRUDE68  YLD44  0.175189  YLD45  0.279865
    CRUDE68  YLD46  0.330363  YLD47  0.406971
    CRUDE68  YLD48  0.515468  YLD49  0.491898
    CRUDE68  YLD50  0.153213  YLD51  0.347836
    CRUDE68  YLD52  0.21988  YLD53  0.512351
    CRUDE68  YLD54  0.155691  YLD55  0.486991
    CRUDE68  YLD56  0.198707  YLD57  0.174225
    CRUDE68  YLD58  0.280925  YLD59  0.461495
    CRUDE68  YLD60  0.152265  YLD61  0.338008
    CRUDE68  YLD62  0.278635  YLD63  0.380025
    CRUDE68  YLD64  0.298875  YLD65  0.229079
    CRUDE68  YLD66  0.526233  YLD67  0.49421
    CRUDE68  YLD68  0.287777  YLD69  0.539161
    CRUDE68  YLD70  0.318762  YLD71  0.451812
    CRUDE68  YLD72  0.530831  YLD73  0.401624
    CRUDE68  YLD74  0.173855  YLD75  0.53967
    CRUDE68  YLD76  0.45168  YLD77  0.320249
    CRUDE68  YLD78  0.52429  YLD79  0.213177
    CRUDE68  YLD80  0.220965  CAP  1
    CRUDE68  SULF  -0.880298
    CRUDE69  COST  -57.9051  YLD1  0.340484
    CRUDE69  YLD2  0.24161  YLD3  0.442874
    CRUDE69  YLD4  0.212936  YLD5  0.351938
    CRUDE69  YLD6  0.3606  YLD7  0.42239
    CRUDE69  YLD8  0.444202  YLD9  0.477702
    CRUDE69  YLD10  0.389477  YLD11  0.159799
    CRUDE69  YLD12  0.360906  YLD13  0.538968
    CRUDE69  YLD14  0.464949  YLD15  0.224149
    CRUDE69  YLD16  0.43267  YLD17  0.492453
    CRUDE69  YLD18  0.180723  YLD19  0.265301
    CRUDE69  YLD20  0.524151  YLD21  0.273521
    CRUDE69  YLD22  0.182466  YLD23  0.166427
    CRUDE69  YLD24  0.25862  YLD25  0.425335
    CRUDE69  YLD26  0.327936  YLD27  0.240511
    CRUDE69  YLD28  0.493256  YLD29  0.547431
    CRUDE69  YLD30  0.2573  YLD31  0.447441
    CRUDE69  YLD32  0.549901  YLD33  0.539347
    CRUDE69  YLD34  0.180858  YLD35  0.460933
    CRUDE69  YLD36  0.391498  YLD37  0.518568
    CRUDE69  YLD38  0.415401  YLD39  0.296368
    CRUDE69  YLD40  0.189223  YLD41  0.196207
    CRUDE69  YLD42  0.522626  YLD43  0.372752
    CRUDE69  YLD44  0.483654  YLD45  0.308494
    CRUDE69  YLD46  0.480761  YLD47  0.522408
    CRUDE69  YLD48  0.338114  YLD49  0.488033
    CRUDE69  YLD50  0.346833  YLD51  0.234505
    CRUDE69  YLD52  0.356199  YLD53  0.542674
    CRUDE69  YLD54  0.462836  YLD55  0.388657
    CRUDE69  YLD56  0.496076  YLD57  0.504728
    CRUDE69  YLD58  0.204455  YLD59  0.444689
    CRUDE69  YLD60  0.170713  YLD61  0.157853
    CRUDE69  YLD62  0.157774  YLD63  0.225713
    CRUDE69  YLD64  0.419109  YLD65  0.295625
    CRUDE69  YLD66  0.509957  YLD67  0.202288
    CRUDE69  YLD68  0.225912  YLD69  0.336176
    CRUDE69  YLD70  0.488115  YLD71  0.219557
    CRUDE69  YLD72  0.486843  YLD73  0.317502
    CRUDE69  YLD74  0.299409  YLD75  0.401303
    CRUDE69  YLD76  0.246969  YLD77  0.238587
    CRUDE69  YLD78  0.518414  YLD79  0.364207
    CRUDE69  YLD80  0.155382  CAP  1
    CRUDE69  SULF  -0.269561
    CRUDE70  COST  -33.2446  YLD1  0.482549
    CRUDE70  YLD2  0.36714  YLD3  0.250292
    CRUDE70  YLD4  0.21416  YLD5  0.36732
    CRUDE70  YLD6  0.194922  YLD7  0.225878
    CRUDE70  YLD8  0.244343  YLD9  0.501929
    CRUDE70  YLD10  0.350861  YLD11  0.272455
    CRUDE70  YLD12  0.512568  YLD13  0.329525
    CRUDE70  YLD14  0.314536  YLD15  0.389909
    CRUDE70  YLD16  0.396888  YLD17  0.292707
    CRUDE70  YLD18  0.243998  YLD19  0.269513
    CRUDE70  YLD20  0.336447  YLD21  0.267414
    CRUDE70  YLD22  0.330881  YLD23  0.44793
    CRUDE70  YLD24  0.276486  YLD25  0.449479
    CRUDE70  YLD26  0.509765  YLD27  0.202723
    CRUDE70  YLD28  0.313175  YLD29  0.219954
    CRUDE70  YLD30  0.549735  YLD31  0.450109
    CRUDE70  YLD32  0.439972  YLD33  0.466227
    CRUDE70  YLD34  0.272478  YLD35  0.372673
    CRUDE70  YLD36  0.192106  YLD37  0.20145
    CRUDE70  YLD38  0.288292  YLD39  0.246641
    CRUDE70  YLD40  0.324521  YLD41  0.537744
    CRUDE70  YLD42  0.433152  YLD43  0.261219
    CRUDE70  YLD44  0.463802  YLD45  0.31265
    CRUDE70  YLD46  0.189202  YLD47  0.486567
    CRUDE70  YLD48  0.37766  YLD49  0.342102
    CRUDE70  YLD50  0.362544  YLD51  0.302793
    CRUDE70  YLD52  0.254597  YLD53  0.290029
    CRUDE70  YLD54  0.474918  YLD55  0.439783
    CRUDE70  YLD56  0.376525  YLD57  0.436089
    CRUDE70  YLD58  0.212549  YLD59  0.426083
    CRUDE70  YLD60  0.51646  YLD61  0.443423
    CRUDE70  YLD62  0.194282  YLD63  0.391338
    CRUDE70  YLD64  0.519828  YLD65  0.416788
    CRUDE70  YLD66  0.28923  YLD67  0.280295
    CRUDE70  YLD68  0.490283  YLD69  0.520613
    CRUDE70  YLD70  0.428538  YLD71  0.376061
    CRUDE70  YLD72  0.387394  YLD73  0.317396
    CRUDE70  YLD74  0.181035  YLD75  0.330267
    CRUDE70  YLD76  0.217433  YLD77  0.184506
    CRUDE70  YLD78  0.170167  YLD79  0.536533
    CRUDE70  YLD80  0.317025  CAP  1
    CRUDE70  SULF  -0.764299
    CRUDE71  COST  -42.3438  YLD1  0.273111
    CRUDE71  YLD2  0.322611  YLD3  0.403239
    CRUDE71  YLD4  0.283604  YLD5  0.355598
    CRUDE71  YLD6  0.151034  YLD7  0.397579
    CRUDE71  YLD8  0.298569  YLD9  0.360174
    CRUDE71  YLD10  0.205549  YLD11  0.369652
    CRUDE71  YLD12  0.215552  YLD13  0.21361
    CRUDE71  YLD14  0.499489  YLD15  0.494605
    CRUDE71  YLD16  0.212392  YLD17  0.452986
    CRUDE71  YLD18  0.48206  YLD19  0.50648
    CRUDE71  YLD20  0.328155  YLD21  0.256399
    CRUDE71  YLD22  0.445637  YLD23  0.328382
    CRUDE71  YLD24  0.487988  YLD25  0.235257
    CRUDE71  YLD26  0.203414  YLD27  0.504817
    CRUDE71  YLD28  0.542104  YLD29  0.419058
    CRUDE71  YLD30  0.220134  YLD31  0.276916
    CRUDE71  YLD32  0.195674  YLD33  0.247178
    CRUDE71  YLD34  0.412252  YLD35  0.408304
    CRUDE71  YLD36  0.379073  YLD37  0.328311
    CRUDE71  YLD38  0.218559  YLD39  0.41888
    CRUDE71  YLD40  0.534921  YLD41  0.53385
    CRUDE71  YLD42  0.449169  YLD43  0.309426
    CRUDE71  YLD44  0.224142  YLD45  0.374325
    CRUDE71  YLD46  0.431577  YLD47  0.408979
    CRUDE71  YLD48  0.521242  YLD49  0.220973
    CRUDE71  YLD50  0.2305  YLD51  0.367438
    CRUDE71  YLD52  0.439059  YLD53  0.254222
    CRUDE71  YLD54  0.214809  YLD55  0.224107
    CRUDE71  YLD56  0.434822  YLD57  0.164674
    CRUDE71  YLD58  0.423554  YLD59  0.319335
    CRUDE71  YLD60  0.513385  YLD61  0.317081
    CRUDE71  YLD62  0.474743  YLD63  0.162529
    CRUDE71  YLD64  0.476586  YLD65  0.328825
    CRUDE71  YLD66  0.194613  YLD67  0.380912
    CRUDE71  YLD68  0.43116  YLD69  0.153923
    CRUDE71  YLD70  0.458501  YLD71  0.51488
    CRUDE71  YLD72  0.313938  YLD73  0.165372
    CRUDE71  YLD74  0.388656  YLD75  0.181504
    CRUDE71  YLD76  0.307736  YLD77  0.316688
    CRUDE71  YLD78  0.219234  YLD79  0.212633
    CRUDE71  YLD80  0.416266  CAP  1
    CRUDE71  SULF  0.695584
    CRUDE72  COST  -65.6135  YLD1  0.476554
    CRUDE72  YLD2  0.283126  YLD3  0.34771
    CRUDE72  YLD4  0.245476  YLD5  0.385223
    CRUDE72  YLD6  0.405194  YLD7  0.2794
    CRUDE72  YLD8  0.175017  YLD9  0.247736
    CRUDE72  YLD10  0.196295  YLD11  0.402836
    CRUDE72  YLD12  0.407128  YLD13  0.222078
    CRUDE72  YLD14  0.405182  YLD15  0.497456
    CRUDE72  YLD16  0.341398  YLD17  0.268029
    CRUDE72  YLD18  0.529301  YLD19  0.155454
    CRUDE72  YLD20  0.155827  YLD21  0.283112
    CRUDE72  YLD22  0.424606  YLD23  0.158009
    CRUDE72  YLD24  0.340529  YLD25  0.496871
    CRUDE72  YLD26  0.304679  YLD27  0.26001
    CRUDE72  YLD28  0.410045  YLD29  0.219358
    CRUDE72  YLD30  0.154046  YLD31  0.343486
    CRUDE72  YLD32  0.357327  YLD33  0.513346
    CRUDE72  YLD34  0.245704  YLD35  0.155407
    CRUDE72  YLD36  0.350232  YLD37  0.476142
    CRUDE72  YLD38  0.181592  YLD39  0.228704
    CRUDE72  YLD40  0.483655  YLD41  0.292988
    CRUDE72  YLD42  0.228773  YLD43  0.218052
    CRUDE72  YLD44  0.403732  YLD45  0.241364
    CRUDE72  YLD46  0.285178  YLD47  0.286603
    CRUDE72  YLD48  0.362105  YLD49  0.340995
    CRUDE72  YLD50  0.26387  YLD51  0.337194
    CRUDE72  YLD52  0.27854  YLD53  0.368767
    CRUDE72  YLD54  0.44581  YLD55  0.535735
    CRUDE72  YLD56  0.486789  YLD57  0.321728
    CRUDE72  YLD58  0.157893  YLD59  0.519313
    CRUDE72  YLD60  0.24033  YLD61  0.360144
    CRUDE72  YLD62  0.481765  YLD63  0.197536
    CRUDE72  YLD64  0.270156  YLD65  0.523624
    CRUDE72  YLD66  0.431662  YLD67  0.420556
    CRUDE72  YLD68  0.184697  YLD69  0.249023
    CRUDE72  YLD70  0.466995  YLD71  0.537344
    CRUDE72  YLD72  0.346675  YLD73  0.323529
    CRUDE72  YLD74  0.408902  YLD75  0.417864
    CRUDE72  YLD76  0.456669  YLD77  0.397189
    CRUDE72  YLD78  0.2058  YLD79  0.224524
    CRUDE72  YLD80  0.352639  CAP  1
    CRUDE72  SULF  -1.11353
    CRUDE73  COST  -79.887  YLD1  0.53719
    CRUDE73  YLD2  0.44222  YLD3  0.379318
    CRUDE73  YLD4  0.522036  YLD5  0.161758
    CRUDE73  YLD6  0.35607  YLD7  0.483721
    CRUDE73  YLD8  0.470547  YLD9  0.195177
    CRUDE73  YLD10  0.211729  YLD11  0.380816
    CRUDE73  YLD12  0.473944  YLD13  0.189294
    CRUDE73  YLD14  0.483457  YLD15  0.439738
    CRUDE73  YLD16  0.462222  YLD17  0.269543
    CRUDE73  YLD18  0.271841  YLD19  0.279091
    CRUDE73  YLD20  0.24896  YLD21  0.372962
    CRUDE73  YLD22  0.476029  YLD23  0.175003
    CRUDE73  YLD24  0.417902  YLD25  0.532337
    CRUDE73  YLD26  0.478457  YLD27  0.239445
    CRUDE73  YLD28  0.446809  YLD29  0.439915
    CRUDE73  YLD30  0.209523  YLD31  0.267841
    CRUDE73  YLD32  0.384939  YLD33  0.187243
    CRUDE73  YLD34  0.262211  YLD35  0.214868
    CRUDE73  YLD36  0.492236  YLD37  0.505728
    CRUDE73  YLD38  0.427319  YLD39  0.508261
    CRUDE73  YLD40  0.345882  YLD41  0.176358
    CRUDE73  YLD42  0.460918  YLD43  0.454755
    CRUDE73  YLD44  0.477326  YLD45  0.478884
    CRUDE73  YLD46  0.273992  YLD47  0.461831
    CRUDE73  YLD48  0.291436  YLD49  0.347839
    CRUDE73  YLD50  0.456061  YLD51  0.200917
    CRUDE73  YLD52  0.439844  YLD53  0.224861
    CRUDE73  YLD54  0.323418  YLD55  0.311632
    CRUDE73  YLD56  0.335534  YLD57  0.451789
    CRUDE73  YLD58  0.197021  YLD59  0.179167
    CRUDE73  YLD60  0.368824  YLD61  0.195876
    CRUDE73  YLD62  0.470779  YLD63  0.274756
    CRUDE73  YLD64  0.323583  YLD65  0.491688
    CRUDE73  YLD66  0.441345  YLD67  0.4554
    CRUDE73  YLD68  0.196818  YLD69  0.191598
    CRUDE73  YLD70  0.186828  YLD71  0.412458
    CRUDE73  YLD72  0.499045  YLD73  0.419396
    CRUDE73  YLD74  0.299387  YLD75  0.205121
    CRUDE73  YLD76  0.525518  YLD77  0.416151
    CRUDE73  YLD78  0.262489  YLD79  0.520727
    CRUDE73  YLD80  0.506187  CAP  1
    CRUDE73  SULF  -0.721843
    CRUDE74  COST  -78.8307  YLD1  0.185363
    CRUDE74  YLD2  0.427487  YLD3  0.485243
    CRUDE74  YLD4  0.192334  YLD5  0.308206
    CRUDE74  YLD6  0.387415  YLD7  0.40172
    CRUDE74  YLD8  0.456635  YLD9  0.184872
    CRUDE74  YLD10  0.218739  YLD11  0.429103
    CRUDE74  YLD12  0.528958  YLD13  0.471407
    CRUDE74  YLD14  0.349773  YLD15  0.448301
    CRUDE74  YLD16  0.27145  YLD17  0.192823
    CRUDE74  YLD18  0.255806  YLD19  0.371743
    CRUDE74  YLD20  0.496517  YLD21  0.432806
    CRUDE74  YLD22  0.500981  YLD23  0.304987
    CRUDE74  YLD24  0.310949  YLD25  0.244686
    CRUDE74  YLD26  0.537796  YLD27  0.492839
    CRUDE74  YLD28  0.162605  YLD29  0.352141
    CRUDE74  YLD30  0.460349  YLD31  0.253482
    CRUDE74  YLD32  0.219684  YLD33  0.337257
    CRUDE74  YLD34  0.478188  YLD35  0.543966
    CRUDE74  YLD36  0.362278  YLD37  0.357759
    CRUDE74  YLD38  0.463889  YLD39  0.192239
    CRUDE74  YLD40  0.455028  YLD41  0.216822
    CRUDE74  YLD42  0.482838  YLD43  0.45939
    CRUDE74  YLD44  0.406342  YLD45  0.268241
    CRUDE74  YLD46  0.523017  YLD47  0.380083
    CRUDE74  YLD48  0.468862  YLD49  0.345973
    CRUDE74  YLD50  0.338139  YLD51  0.409804
    CRUDE74  YLD52  0.263948  YLD53  0.16305
    CRUDE74  YLD54  0.245838  YLD55  0.411454
    CRUDE74  YLD56  0.454424  YLD57  0.38324
    CRUDE74  YLD58  0.487746  YLD59  0.471304
    CRUDE74  YLD60  0.532011  YLD61  0.546686
    CRUDE74  YLD62  0.440727  YLD63  0.327495
    CRUDE74  YLD64  0.183167  YLD65  0.19096
    CRUDE74  YLD66  0.508732  YLD67  0.277283
    CRUDE74  YLD68  0.436077  YLD69  0.457846
    CRUDE74  YLD70  0.172256  YLD71  0.543464
    CRUDE74  YLD72  0.270559  YLD73  0.318793
    CRUDE74  YLD74  0.447151  YLD75  0.418474
    CRUDE74  YLD76  0.320932  YLD77  0.535095
    CRUDE74  YLD78  0.231628  YLD79  0.432275
    CRUDE74  YLD80  0.323592  CAP  1
    CRUDE74  SULF  -0.245798
    CRUDE75  COST  -31.6525  YLD1  0.466727
    CRUDE75  YLD2  0.216692  YLD3  0.311753
    CRUDE75  YLD4  0.429596  YLD5  0.392475
    CRUDE75  YLD6  0.467498  YLD7  0.229543
    CRUDE75  YLD8  0.443446  YLD9  0.437631
    CRUDE75  YLD10  0.405151  YLD11  0.152435
    CRUDE75  YLD12  0.284936  YLD13  0.198812
    CRUDE75  YLD14  0.36401  YLD15  0.373171
    CRUDE75  YLD16  0.274676  YLD17  0.326023
    CRUDE75  YLD18  0.261957  YLD19  0.209287
    CRUDE75  YLD20  0.215851  YLD21  0.415027
    CRUDE75  YLD22  0.459273  YLD23  0.383369
    CRUDE75  YLD24  0.269203  YLD25  0.503046
    CRUDE75  YLD26  0.33157  YLD27  0.476843
    CRUDE75  YLD28  0.198642  YLD29  0.421989
    CRUDE75  YLD30  0.328713  YLD31  0.160358
    CRUDE75  YLD32  0.535157  YLD33  0.505017
    CRUDE75  YLD34  0.383728  YLD35  0.180397
    CRUDE75  YLD36  0.252093  YLD37  0.376013
    CRUDE75  YLD38  0.480581  YLD39  0.43262
    CRUDE75  YLD40  0.483351  YLD41  0.547132
    CRUDE75  YLD42  0.294507  YLD43  0.500048
    CRUDE75  YLD44  0.274159  YLD45  0.432145
    CRUDE75  YLD46  0.249387  YLD47  0.544108
    CRUDE75  YLD48  0.32714  YLD49  0.365509
    CRUDE75  YLD50  0.276942  YLD51  0.179221
    CRUDE75  YLD52  0.450989  YLD53  0.528332
    CRUDE75  YLD54  0.398554  YLD55  0.157549
    CRUDE75  YLD56  0.359834  YLD57  0.524349
    CRUDE75  YLD58  0.487966  YLD59  0.236093
    CRUDE75  YLD60  0.348682  YLD61  0.270987
    CRUDE75  YLD62  0.467325  YLD63  0.198226
    CRUDE75  YLD64  0.190869  YLD65  0.20261
    CRUDE75  YLD66  0.171062  YLD67  0.208344
    CRUDE75  YLD68  0.179913  YLD69  0.27805
    CRUDE75  YLD70  0.470394  YLD71  0.378294
    CRUDE75  YLD72  0.213705  YLD73  0.498964
    CRUDE75  YLD74  0.346017  YLD75  0.541671
    CRUDE75  YLD76  0.459663  YLD77  0.211259
    CRUDE75  YLD78  0.528341  YLD79  0.210787
    CRUDE75  YLD80  0.274401  CAP  1
    CRUDE75  SULF  -0.463485
    CRUDE76  COST  -61.7176  YLD1  0.385982
    CRUDE76  YLD2  0.501452  YLD3  0.458365
    CRUDE76  YLD4  0.225689  YLD5  0.389089
    CRUDE76  YLD6  0.408642  YLD7  0.175847
    CRUDE76  YLD8  0.269777  YLD9  0.318047
    CRUDE76  YLD10  0.446392  YLD11  0.190376
    CRUDE76  YLD12  0.439992  YLD13  0.20005
    CRUDE76  YLD14  0.207755  YLD15  0.383867
    CRUDE76  YLD16  0.151256  YLD17  0.441885
    CRUDE76  YLD18  0.261088  YLD19  0.18684
    CRUDE76  YLD20  0.31605  YLD21  0.473087
    CRUDE76  YLD22  0.418635  YLD23  0.335682
    CRUDE76  YLD24  0.400191  YLD25  0.188792
    CRUDE76  YLD26  0.3528  YLD27  0.329339
    CRUDE76  YLD28  0.403234  YLD29  0.231149
    CRUDE76  YLD30  0.329  YLD31  0.264085
    CRUDE76  YLD32  0.220232  YLD33  0.406506
    CRUDE76  YLD34  0.353411  YLD35  0.421515
    CRUDE76  YLD36  0.420258  YLD37  0.417874
    CRUDE76  YLD38  0.515506  YLD39  0.349819
    CRUDE76  YLD40  0.289211  YLD41  0.375205
    CRUDE76  YLD42  0.235345  YLD43  0.160641
    CRUDE76  YLD44  0.412444  YLD45  0.355286
    CRUDE76  YLD46  0.407013  YLD47  0.249002
    CRUDE76  YLD48  0.277388  YLD49  0.253063
    CRUDE76  YLD50  0.39905  YLD51  0.301278
    CRUDE76  YLD52  0.162242  YLD53  0.520296
    CRUDE76  YLD54  0.221394  YLD55  0.200928
    CRUDE76  YLD56  0.2391  YLD57  0.497058
    CRUDE76  YLD58  0.281697  YLD59  0.279611
    CRUDE76  YLD60  0.307431  YLD61  0.403996
    CRUDE76  YLD62  0.418393  YLD63  0.197976
    CRUDE76  YLD64  0.338092  YLD65  0.420496
    CRUDE76  YLD66  0.206682  YLD67  0.531936
    CRUDE76  YLD68  0.51687  YLD69  0.486197
    CRUDE76  YLD70  0.253754  YLD71  0.327042
    CRUDE76  YLD72  0.206328  YLD73  0.283025
    CRUDE76  YLD74  0.322091  YLD75  0.362789
    CRUDE76  YLD76  0.338163  YLD77  0.544309
    CRUDE76  YLD78  0.183668  YLD79  0.307397
    CRUDE76  YLD80  0.516419  CAP  1
    CRUDE76  SULF  0.644108
    CRUDE77  COST  -56.5467  YLD1  0.342018
    CRUDE77  YLD2  0.348169  YLD3  0.318814
    CRUDE77  YLD4  0.502655  YLD5  0.467182
    CRUDE77  YLD6  0.219909  YLD7  0.167053
    CRUDE77  YLD8  0.219392  YLD9  0.512144
    CRUDE77  YLD10  0.361997  YLD11  0.497578
    CRUDE77  YLD12  0.365525  YLD13  0.490189
    CRUDE77  YLD14  0.463595  YLD15  0.20346
    CRUDE77  YLD16  0.219697  YLD17  0.526088
    CRUDE77  YLD18  0.164372  YLD19  0.476111
    CRUDE77  YLD20  0.155732  YLD21  0.504366
    CRUDE77  YLD22  0.162689  YLD23  0.397682
    CRUDE77  YLD24  0.211943  YLD25  0.172283
    CRUDE77  YLD26  0.378869  YLD27  0.345696
    CRUDE77  YLD28  0.50961  YLD29  0.448251
    CRUDE77  YLD30  0.532009  YLD31  0.371588
    CRUDE77  YLD32  0.221023  YLD33  0.315458
    CRUDE77  YLD34  0.277381  YLD35  0.220433
    CRUDE77  YLD36  0.36703  YLD37  0.534553
    CRUDE77  YLD38  0.501972  YLD39  0.497972
    CRUDE77  YLD40  0.506861  YLD41  0.292649
    CRUDE77  YLD42  0.30402  YLD43  0.374793
    CRUDE77  YLD44  0.234185  YLD45  0.384359
    CRUDE77  YLD46  0.260051  YLD47  0.181862
    CRUDE77  YLD48  0.439292  YLD49  0.296496
    CRUDE77  YLD50  0.411104  YLD51  0.434012
    CRUDE77  YLD52  0.263325  YLD53  0.215062
    CRUDE77  YLD54  0.452753  YLD55  0.462814
    CRUDE77  YLD56  0.285062  YLD57  0.283059
    CRUDE77  YLD58  0.185181  YLD59  0.357772
    CRUDE77  YLD60  0.343299  YLD61  0.382495
    CRUDE77  YLD62  0.417933  YLD63  0.440357
    CRUDE77  YLD64  0.362088  YLD65  0.242307
    CRUDE77  YLD66  0.3893  YLD67  0.180557
    CRUDE77  YLD68  0.446616  YLD69  0.482954
    CRUDE77  YLD70  0.382788  YLD71  0.370635
    CRUDE77  YLD72  0.480798  YLD73  0.203073
    CRUDE77  YLD74  0.312795  YLD75  0.235634
    CRUDE77  YLD76  0.268091  YLD77  0.41187
    CRUDE77  YLD78  0.234668  YLD79  0.172508
    CRUDE77  YLD80  0.312721  CAP  1
    CRUDE77  SULF  -0.124536
    CRUDE78  COST  -57.6447  YLD1  0.318214
    CRUDE78  YLD2  0.446584  YLD3  0.291549
    CRUDE78  YLD4  0.534526  YLD5  0.412004
    CRUDE78  YLD6  0.294309  YLD7  0.298563
    CRUDE78  YLD8  0.405021  YLD9  0.445869
    CRUDE78  YLD10  0.481607  YLD11  0.422699
    CRUDE78  YLD12  0.174252  YLD13  0.287842
    CRUDE78  YLD14  0.317756  YLD15  0.327544
    CRUDE78  YLD16  0.500162  YLD17  0.391519
    CRUDE78  YLD18  0.520767  YLD19  0.507762
    CRUDE78  YLD20  0.341334  YLD21  0.476432
    CRUDE78  YLD22  0.363987  YLD23  0.342118
    CRUDE78  YLD24  0.2992  YLD25  0.20169
    CRUDE78  YLD26  0.522939  YLD27  0.237099
    CRUDE78  YLD28  0.399497  YLD29  0.548248
    CRUDE78  YLD30  0.517854  YLD31  0.15064
    CRUDE78  YLD32  0.516067  YLD33  0.267125
    CRUDE78  YLD34  0.442371  YLD35  0.436687
    CRUDE78  YLD36  0.243218  YLD37  0.391068
    CRUDE78  YLD38  0.549897  YLD39  0.200478
    CRUDE78  YLD40  0.338189  YLD41  0.265281
    CRUDE78  YLD42  0.445843  YLD43  0.235702
    CRUDE78  YLD44  0.277302  YLD45  0.221843
    CRUDE78  YLD46  0.352858  YLD47  0.177957
    CRUDE78  YLD48  0.470642  YLD49  0.323675
    CRUDE78  YLD50  0.457758  YLD51  0.158009
    CRUDE78  YLD52  0.349453  YLD53  0.313096
    CRUDE78  YLD54  0.169046  YLD55  0.537188
    CRUDE78  YLD56  0.34614  YLD57  0.183851
    CRUDE78  YLD58  0.431988  YLD59  0.463062
    CRUDE78  YLD60  0.466086  YLD61  0.464037
    CRUDE78  YLD62  0.416945  YLD63  0.377888
    CRUDE78  YLD64  0.255611  YLD65  0.466412
    CRUDE78  YLD66  0.397653  YLD67  0.188322
    CRUDE78  YLD68  0.284197  YLD69  0.417118
    CRUDE78  YLD70  0.327484  YLD71  0.196285
    CRUDE78  YLD72  0.454594  YLD73  0.474623
    CRUDE78  YLD74  0.322443  YLD75  0.400114
    CRUDE78  YLD76  0.445706  YLD77  0.331692
    CRUDE78  YLD78  0.182289  YLD79  0.323069
    CRUDE78  YLD80  0.257859  CAP  1
    CRUDE78  SULF  0.353679
    CRUDE79  COST  -34.0427  YLD1  0.463867
    CRUDE79  YLD2  0.37926  YLD3  0.533451
    CRUDE79  YLD4  0.336188  YLD5  0.546853
    CRUDE79  YLD6  0.512356  YLD7  0.25634
    CRUDE79  YLD8  0.348467  YLD9  0.226504
    CRUDE79  YLD10  0.546505  YLD11  0.195173
    CRUDE79  YLD12  0.426  YLD13  0.162343
    CRUDE79  YLD14  0.350032  YLD15  0.330311
    CRUDE79  YLD16  0.326699  YLD17  0.495254
    CRUDE79  YLD18  0.235479  YLD19  0.479443
    CRUDE79  YLD20  0.158408  YLD21  0.157578
    CRUDE79  YLD22  0.165079  YLD23  0.414682
    CRUDE79  YLD24  0.233615  YLD25  0.173096
    CRUDE79  YLD26  0.493283  YLD27  0.181321
    CRUDE79  YLD28  0.20361  YLD29  0.41626
    CRUDE79  YLD30  0.274478  YLD31  0.263288
    CRUDE79  YLD32  0.336082  YLD33  0.30004
    CRUDE79  YLD34  0.265087  YLD35  0.432396
    CRUDE79  YLD36  0.379451  YLD37  0.37379
    CRUDE79  YLD38  0.247626  YLD39  0.421158
    CRUDE79  YLD40  0.361123  YLD41  0.252797
    CRUDE79  YLD42  0.317056  YLD43  0.286353
    CRUDE79  YLD44  0.246028  YLD45  0.444009
    CRUDE79  YLD46  0.464517  YLD47  0.406012
    CRUDE79  YLD48  0.466686  YLD49  0.202448
    CRUDE79  YLD50  0.212684  YLD51  0.377993
    CRUDE79  YLD52  0.168024  YLD53  0.482415
    CRUDE79  YLD54  0.533652  YLD55  0.278022
    CRUDE79  YLD56  0.276754  YLD57  0.527703
    CRUDE79  YLD58  0.294053  YLD59  0.485414
    CRUDE79  YLD60  0.340911  YLD61  0.267535
    CRUDE79  YLD62  0.355617  YLD63  0.363497
    CRUDE79  YLD64  0.407113  YLD65  0.386543
    CRUDE79  YLD66  0.163444  YLD67  0.347977
    CRUDE79  YLD68  0.295176  YLD69  0.416313
    CRUDE79  YLD70  0.158816  YLD71  0.310686
    CRUDE79  YLD72  0.349058  YLD73  0.419579
    CRUDE79  YLD74  0.537155  YLD75  0.355172
    CRUDE79  YLD76  0.469281  YLD77  0.505278
    CRUDE79  YLD78  0.542154  YLD79  0.461161
    CRUDE79  YLD80  0.189064  CAP  1
    CRUDE79  SULF  -0.38236
    CRUDE80  COST  -42.108  YLD1  0.405745
    CRUDE80  YLD2  0.549077  YLD3  0.223748
    CRUDE80  YLD4  0.501629  YLD5  0.263542
    CRUDE80  YLD6  0.457978  YLD7  0.408436
    CRUDE80  YLD8  0.221301  YLD9  0.395511
    CRUDE80  YLD10  0.478005  YLD11  0.48683
    CRUDE80  YLD12  0.426039  YLD13  0.170758
    CRUDE80  YLD14  0.464039  YLD15  0.533399
    CRUDE80  YLD16  0.543694  YLD17  0.478998
    CRUDE80  YLD18  0.318002  YLD19  0.509515
    CRUDE80  YLD20  0.477844  YLD21  0.444367
    CRUDE80  YLD22  0.473227  YLD23  0.23765
    CRUDE80  YLD24  0.428318  YLD25  0.488005
    CRUDE80  YLD26  0.21824  YLD27  0.379373
    CRUDE80  YLD28  0.196304  YLD29  0.347392
    CRUDE80  YLD30  0.233623  YLD31  0.502564
    CRUDE80  YLD32  0.175275  YLD33  0.353577
    CRUDE80  YLD34  0.444825  YLD35  0.24368
    CRUDE80  YLD36  0.478614  YLD37  0.155814
    CRUDE80  YLD38  0.455323  YLD39  0.378822
    CRUDE80  YLD40  0.549883  YLD41  0.415661
    CRUDE80  YLD42  0.444661  YLD43  0.463982
    CRUDE80  YLD44  0.37277  YLD45  0.225448
    CRUDE80  YLD46  0.502689  YLD47  0.525704
    CRUDE80  YLD48  0.54107  YLD49  0.332146
    CRUDE80  YLD50  0.446607  YLD51  0.283808
    CRUDE80  YLD52  0.224414  YLD53  0.4144
    CRUDE80  YLD54  0.17875  YLD55  0.164872
    CRUDE80  YLD56  0.284211  YLD57  0.356915
    CRUDE80  YLD58  0.168186  YLD59  0.383493
    CRUDE80  YLD60  0.463311  YLD61  0.452371
    CRUDE80  YLD62  0.295339  YLD63  0.330974
    CRUDE80  YLD64  0.431352  YLD65  0.241932
    CRUDE80  YLD66  0.308773  YLD67  0.477708
    CRUDE80  YLD68  0.352598  YLD69  0.430064
    CRUDE80  YLD70  0.166113  YLD71  0.333362
    CRUDE80  YLD72  0.259949  YLD73  0.246728
    CRUDE80  YLD74  0.422563  YLD75  0.363256
    CRUDE80  YLD76  0.231136  YLD77  0.427792
    CRUDE80  YLD78  0.517365  YLD79  0.371589
    CRUDE80  YLD80  0.467324  CAP  1
    CRUDE80  SULF  1.04814
    CRUDE81  COST  -53.515  YLD1  0.472018
    CRUDE81  YLD2  0.450961  YLD3  0.186135
    CRUDE81  YLD4  0.152058  YLD5  0.29366
    CRUDE81  YLD6  0.372655  YLD7  0.349734
    CRUDE81  YLD8  0.424365  YLD9  0.324202
    CRUDE81  YLD10  0.427953  YLD11  0.246892
    CRUDE81  YLD12  0.522243  YLD13  0.206868
    CRUDE81  YLD14  0.389538  YLD15  0.322435
    CRUDE81  YLD16  0.308283  YLD17  0.219337
    CRUDE81  YLD18  0.153875  YLD19  0.371245
    CRUDE81  YLD20  0.479942  YLD21  0.23336
    CRUDE81  YLD22  0.27829  YLD23  0.195137
    CRUDE81  YLD24  0.527684  YLD25  0.17362
    CRUDE81  YLD26  0.324703  YLD27  0.189338
    CRUDE81  YLD28  0.487674  YLD29  0.51927
    CRUDE81  YLD30  0.489393  YLD31  0.387459
    CRUDE81  YLD32  0.389275  YLD33  0.277618
    CRUDE81  YLD34  0.178041  YLD35  0.257854
    CRUDE81  YLD36  0.161428  YLD37  0.18238
    CRUDE81  YLD38  0.384584  YLD39  0.342036
    CRUDE81  YLD40  0.487321  YLD41  0.317755
    CRUDE81  YLD42  0.195426  YLD43  0.226813
    CRUDE81  YLD44  0.193291  YLD45  0.195389
    CRUDE81  YLD46  0.485479  YLD47  0.150773
    CRUDE81  YLD48  0.464667  YLD49  0.474188
    CRUDE81  YLD50  0.389771  YLD51  0.153533
    CRUDE81  YLD52  0.523815  YLD53  0.307915
    CRUDE81  YLD54  0.381779  YLD55  0.294347
    CRUDE81  YLD56  0.284957  YLD57  0.179759
    CRUDE81  YLD58  0.213131  YLD59  0.311214
    CRUDE81  YLD60  0.322679  YLD61  0.303001
    CRUDE81  YLD62  0.442078  YLD63  0.540617
    CRUDE81  YLD64  0.269646  YLD65  0.341475
    CRUDE81  YLD66  0.383665  YLD67  0.459802
    CRUDE81  YLD68  0.294388  YLD69  0.419506
    CRUDE81  YLD70  0.48085  YLD71  0.489451
    CRUDE81  YLD72  0.421045  YLD73  0.364581
    CRUDE81  YLD74  0.276084  YLD75  0.341243
    CRUDE81  YLD76  0.272068  YLD77  0.289487
    CRUDE81  YLD78  0.436653  YLD79  0.408977
    CRUDE81  YLD80  0.480037  CAP  1
    CRUDE81  SULF  1.64308
    CRUDE82  COST  -49.9412  YLD1  0.51126
    CRUDE82  YLD2  0.432792  YLD3  0.458394
    CRUDE82  YLD4  0.477979  YLD5  0.303539
    CRUDE82  YLD6  0.252258  YLD7  0.256408
    CRUDE82  YLD8  0.546451  YLD9  0.3809
    CRUDE82  YLD10  0.362997  YLD11  0.341304
    CRUDE82  YLD12  0.348925  YLD13  0.235357
    CRUDE82  YLD14  0.230439  YLD15  0.369737
    CRUDE82  YLD16  0.436075  YLD17  0.344327
    CRUDE82  YLD18  0.493182  YLD19  0.474903
    CRUDE82  YLD20  0.465097  YLD21  0.203171
    CRUDE82  YLD22  0.374972  YLD23  0.388574
    CRUDE82  YLD24  0.548204  YLD25  0.258666
    CRUDE82  YLD26  0.3356  YLD27  0.32971
    CRUDE82  YLD28  0.205721  YLD29  0.156341
    CRUDE82  YLD30  0.512408  YLD31  0.393145
    CRUDE82  YLD32  0.390731  YLD33  0.537587
    CRUDE82  YLD34  0.495817  YLD35  0.411908
    CRUDE82  YLD36  0.40234  YLD37  0.380869
    CRUDE82  YLD38  0.254498  YLD39  0.346563
    CRUDE82  YLD40  0.294708  YLD41  0.536164
    CRUDE82  YLD42  0.472405  YLD43  0.405337
    CRUDE82  YLD44  0.523324  YLD45  0.368672
    CRUDE82  YLD46  0.382872  YLD47  0.440308
    CRUDE82  YLD48  0.457973  YLD49  0.481224
    CRUDE82  YLD50  0.173029  YLD51  0.226153
    CRUDE82  YLD52  0.540734  YLD53  0.447668
    CRUDE82  YLD54  0.510878  YLD55  0.156987
    CRUDE82  YLD56  0.199136  YLD57  0.47663
    CRUDE82  YLD58  0.204886  YLD59  0.528601
    CRUDE82  YLD60  0.250802  YLD61  0.314464
    CRUDE82  YLD62  0.269458  YLD63  0.16992
    CRUDE82  YLD64  0.45337  YLD65  0.312431
    CRUDE82  YLD66  0.445165  YLD67  0.52508
    CRUDE82  YLD68  0.463387  YLD69  0.304763
    CRUDE82  YLD70  0.393071  YLD71  0.453459
    CRUDE82  YLD72  0.165373  YLD73  0.310741
    CRUDE82  YLD74  0.443544  YLD75  0.419496
    CRUDE82  YLD76  0.347911  YLD77  0.503634
    CRUDE82  YLD78  0.320389  YLD79  0.280728
    CRUDE82  YLD80  0.163319  CAP  1
    CRUDE82  SULF  1.09201
    CRUDE83  COST  -69.9173  YLD1  0.396905
    CRUDE83  YLD2  0.461429  YLD3  0.1773
    CRUDE83  YLD4  0.24145  YLD5  0.336325
    CRUDE83  YLD6  0.270824  YLD7  0.209695
    CRUDE83  YLD8  0.448888  YLD9  0.445228
    CRUDE83  YLD10  0.329541  YLD11  0.208079
    CRUDE83  YLD12  0.2421  YLD13  0.416058
    CRUDE83  YLD14  0.386093  YLD15  0.363301
    CRUDE83  YLD16  0.262768  YLD17  0.196769
    CRUDE83  YLD18  0.442463  YLD19  0.303617
    CRUDE83  YLD20  0.263346  YLD21  0.405396
    CRUDE83  YLD22  0.261778  YLD23  0.343876
    CRUDE83  YLD24  0.330111  YLD25  0.191503
    CRUDE83  YLD26  0.465638  YLD27  0.526199
    CRUDE83  YLD28  0.358093  YLD29  0.441969
    CRUDE83  YLD30  0.366639  YLD31  0.311346
    CRUDE83  YLD32  0.1758  YLD33  0.523231
    CRUDE83  YLD34  0.349827  YLD35  0.306034
    CRUDE83  YLD36  0.289834  YLD37  0.524496
    CRUDE83  YLD38  0.542762  YLD39  0.438791
    CRUDE83  YLD40  0.154138  YLD41  0.423537
    CRUDE83  YLD42  0.251283  YLD43  0.411826
    CRUDE83  YLD44  0.283405  YLD45  0.433719
    CRUDE83  YLD46  0.249527  YLD47  0.412826
    CRUDE83  YLD48  0.492994  YLD49  0.314626
    CRUDE83  YLD50  0.460978  YLD51  0.526378
    CRUDE83  YLD52  0.4459  YLD53  0.508819
    CRUDE83  YLD54  0.154762  YLD55  0.226949
    CRUDE83  YLD56  0.183857  YLD57  0.497403
    CRUDE83  YLD58  0.385647  YLD59  0.248609
    CRUDE83  YLD60  0.280589  YLD61  0.419085
    CRUDE83  YLD62  0.367161  YLD63  0.222251
    CRUDE83  YLD64  0.232242  YLD65  0.499264
    CRUDE83  YLD66  0.27646  YLD67  0.206641
    CRUDE83  YLD68  0.539895  YLD69  0.423131
    CRUDE83  YLD70  0.359537  YLD71  0.390571
    CRUDE83  YLD72  0.377291  YLD73  0.525544
    CRUDE83  YLD74  0.282107  YLD75  0.378778
    CRUDE83  YLD76  0.224609  YLD77  0.416646
    CRUDE83  YLD78  0.226071  YLD79  0.214558
    CRUDE83  YLD80  0.293458  CAP  1
    CRUDE83  SULF  -1.10485
    CRUDE84  COST  -55.4099  YLD1  0.542185
    CRUDE84  YLD2  0.207251  YLD3  0.484832
    CRUDE84  YLD4  0.513481  YLD5  0.484399
    CRUDE84  YLD6  0.442783  YLD7  0.20088
    CRUDE84  YLD8  0.445995  YLD9  0.472478
    CRUDE84  YLD10  0.183757  YLD11  0.434044
    CRUDE84  YLD12  0.167826  YLD13  0.212931
    CRUDE84  YLD14  0.313053  YLD15  0.404705
    CRUDE84  YLD16  0.295524  YLD17  0.422861
    CRUDE84  YLD18  0.528702  YLD19  0.416507
    CRUDE84  YLD20  0.484895  YLD21  0.277897
    CRUDE84  YLD22  0.463  YLD23  0.160747
    CRUDE84  YLD24  0.251012  YLD25  0.268169
    CRUDE84  YLD26  0.391157  YLD27  0.531134
    CRUDE84  YLD28  0.164845  YLD29  0.505499
    CRUDE84  YLD30  0.401769  YLD31  0.420589
    CRUDE84  YLD32  0.539009  YLD33  0.498269
    CRUDE84  YLD34  0.325403  YLD35  0.227819
    CRUDE84  YLD36  0.267069  YLD37  0.496677
    CRUDE84  YLD38  0.509159  YLD39  0.525097
    CRUDE84  YLD40  0.40047  YLD41  0.466818
    CRUDE84  YLD42  0.249572  YLD43  0.531638
    CRUDE84  YLD44  0.237588  YLD45  0.170014
    CRUDE84  YLD46  0.414493  YLD47  0.442922
    CRUDE84  YLD48  0.150074  YLD49  0.357523
    CRUDE84  YLD50  0.303232  YLD51  0.35846
    CRUDE84  YLD52  0.25088  YLD53  0.520463
    CRUDE84  YLD54  0.349406  YLD55  0.450989
    CRUDE84  YLD56  0.168598  YLD57  0.40577
    CRUDE84  YLD58  0.509247  YLD59  0.471238
    CRUDE84  YLD60  0.181129  YLD61  0.463714
    CRUDE84  YLD62  0.323342  YLD63  0.409003
    CRUDE84  YLD64  0.367701  YLD65  0.162865
    CRUDE84  YLD66  0.343561  YLD67  0.300291
    CRUDE84  YLD68  0.383809  YLD69  0.508963
    CRUDE84  YLD70  0.527741  YLD71  0.288911
    CRUDE84  YLD72  0.30937  YLD73  0.392933
    CRUDE84  YLD74  0.200286  YLD75  0.544798
    CRUDE84  YLD76  0.521534  YLD77  0.429535
    CRUDE84  YLD78  0.238596  YLD79  0.155247
    CRUDE84  YLD80  0.449951  CAP  1
    CRUDE84  SULF  0.693962
    CRUDE85  COST  -72.9179  YLD1  0.393235
    CRUDE85  YLD2  0.231818  YLD3  0.324877
    CRUDE85  YLD4  0.150448  YLD5  0.244317
    CRUDE85  YLD6  0.49047  YLD7  0.495864
    CRUDE85  YLD8  0.530125  YLD9  0.487495
    CRUDE85  YLD10  0.309748  YLD11  0.416742
    CRUDE85  YLD12  0.316257  YLD13  0.19755
    CRUDE85  YLD14  0.33781  YLD15  0.449293
    CRUDE85  YLD16  0.22629  YLD17  0.52996
    CRUDE85  YLD18  0.462646  YLD19  0.545534
    CRUDE85  YLD20  0.367199  YLD21  0.172847
    CRUDE85  YLD22  0.504601  YLD23  0.302193
    CRUDE85  YLD24  0.327132  YLD25  0.186224
    CRUDE85  YLD26  0.411688  YLD27  0.245733
    CRUDE85  YLD28  0.182268  YLD29  0.17467
    CRUDE85  YLD30  0.252766  YLD31  0.225973
    CRUDE85  YLD32  0.367612  YLD33  0.318732
    CRUDE85  YLD34  0.394409  YLD35  0.442672
    CRUDE85  YLD36  0.307035  YLD37  0.543032
    CRUDE85  YLD38  0.201406  YLD39  0.186501
    CRUDE85  YLD40  0.431565  YLD41  0.267097
    CRUDE85  YLD42  0.386152  YLD43  0.460064
    CRUDE85  YLD44  0.34862  YLD45  0.177758
    CRUDE85  YLD46  0.433962  YLD47  0.292162
    CRUDE85  YLD48  0.294973  YLD49  0.16346
    CRUDE85  YLD50  0.282152  YLD51  0.548891
    CRUDE85  YLD52  0.254207  YLD53  0.30154
    CRUDE85  YLD54  0.290003  YLD55  0.524835
    CRUDE85  YLD56  0.194383  YLD57  0.329004
    CRUDE85  YLD58  0.467229  YLD59  0.39482
    CRUDE85  YLD60  0.348952  YLD61  0.416747
    CRUDE85  YLD62  0.260649  YLD63  0.204546
    CRUDE85  YLD64  0.471712  YLD65  0.508338
    CRUDE85  YLD66  0.475622  YLD67  0.262857
    CRUDE85  YLD68  0.328415  YLD69  0.283029
    CRUDE85  YLD70  0.219246  YLD71  0.224814
    CRUDE85  YLD72  0.541144  YLD73  0.213356
    CRUDE85  YLD74  0.340144  YLD75  0.480345
    CRUDE85  YLD76  0.386534  YLD77  0.508556
    CRUDE85  YLD78  0.327216  YLD79  0.478525
    CRUDE85  YLD80  0.528553  CAP  1
    CRUDE85  SULF  -0.526556
    CRUDE86  COST  -41.0121  YLD1  0.404658
    CRUDE86  YLD2  0.435626  YLD3  0.516205
    CRUDE86  YLD4  0.372473  YLD5  0.4604
    CRUDE86  YLD6  0.41857  YLD7  0.247391
    CRUDE86  YLD8  0.231175  YLD9  0.25159
    CRUDE86  YLD10  0.514054  YLD11  0.234445
    CRUDE86  YLD12  0.270767  YLD13  0.455888
    CRUDE86  YLD14  0.161325  YLD15  0.240017
    CRUDE86  YLD16  0.288825  YLD17  0.204836
    CRUDE86  YLD18  0.275483  YLD19  0.240291
    CRUDE86  YLD20  0.299523  YLD21  0.205052
    CRUDE86  YLD22  0.309457  YLD23  0.19245
    CRUDE86  YLD24  0.488908  YLD25  0.417201
    CRUDE86  YLD26  0.54928  YLD27  0.399645
    CRUDE86  YLD28  0.418939  YLD29  0.330026
    CRUDE86  YLD30  0.470321  YLD31  0.477499
    CRUDE86  YLD32  0.373918  YLD33  0.426521
    CRUDE86  YLD34  0.399677  YLD35  0.211659
    CRUDE86  YLD36  0.286809  YLD37  0.361134
    CRUDE86  YLD38  0.160463  YLD39  0.157801
    CRUDE86  YLD40  0.410321  YLD41  0.181675
    CRUDE86  YLD42  0.178047  YLD43  0.471454
    CRUDE86  YLD44  0.260799  YLD45  0.471072
    CRUDE86  YLD46  0.154277  YLD47  0.478199
    CRUDE86  YLD48  0.445041  YLD49  0.419773
    CRUDE86  YLD50  0.32923  YLD51  0.359927
    CRUDE86  YLD52  0.408316  YLD53  0.219424
    CRUDE86  YLD54  0.382133  YLD55  0.18498
    CRUDE86  YLD56  0.287483  YLD57  0.414869
    CRUDE86  YLD58  0.368606  YLD59  0.300758
    CRUDE86  YLD60  0.209244  YLD61  0.509952
    CRUDE86  YLD62  0.539876  YLD63  0.385752
    CRUDE86  YLD64  0.364804  YLD65  0.410833
    CRUDE86  YLD66  0.531558  YLD67  0.494348
    CRUDE86  YLD68  0.23911  YLD69  0.527956
    CRUDE86  YLD70  0.253188  YLD71  0.289106
    CRUDE86  YLD72  0.353024  YLD73  0.350859
    CRUDE86  YLD74  0.45041  YLD75  0.255879
    CRUDE86  YLD76  0.198481  YLD77  0.329366
    CRUDE86  YLD78  0.457289  YLD79  0.404662
    CRUDE86  YLD80  0.301127  CAP  1
    CRUDE86  SULF  0.744573
    CRUDE87  COST  -70.4751  YLD1  0.371926
    CRUDE87  YLD2  0.347593  YLD3  0.438613
    CRUDE87  YLD4  0.452654  YLD5  0.312124
    CRUDE87  YLD6  0.473812  YLD7  0.410684
    CRUDE87  YLD8  0.37622  YLD9  0.162446
    CRUDE87  YLD10  0.473209  YLD11  0.49536
    CRUDE87  YLD12  0.454435  YLD13  0.418422
    CRUDE87  YLD14  0.234012  YLD15  0.36149
    CRUDE87  YLD16  0.368895  YLD17  0.443553
    CRUDE87  YLD18  0.249149  YLD19  0.30596
    CRUDE87  YLD20  0.400132  YLD21  0.150372
    CRUDE87  YLD22  0.495169  YLD23  0.362543
    CRUDE87  YLD24  0.232402  YLD25  0.203331
    CRUDE87  YLD26  0.179984  YLD27  0.339631
    CRUDE87  YLD28  0.425673  YLD29  0.231888
    CRUDE87  YLD30  0.402849  YLD31  0.196676
    CRUDE87  YLD32  0.358046  YLD33  0.511132
    CRUDE87  YLD34  0.202814  YLD35  0.492257
    CRUDE87  YLD36  0.482896  YLD37  0.465172
    CRUDE87  YLD38  0.425332  YLD39  0.472282
    CRUDE87  YLD40  0.537145  YLD41  0.345129
    CRUDE87  YLD42  0.160519  YLD43  0.36264
    CRUDE87  YLD44  0.363962  YLD45  0.473613
    CRUDE87  YLD46  0.325684  YLD47  0.167883
    CRUDE87  YLD48  0.389888  YLD49  0.311842
    CRUDE87  YLD50  0.28847  YLD51  0.367575
    CRUDE87  YLD52  0.19704  YLD53  0.515136
    CRUDE87  YLD54  0.240183  YLD55  0.37316
    CRUDE87  YLD56  0.387549  YLD57  0.432673
    CRUDE87  YLD58  0.318862  YLD59  0.150547
    CRUDE87  YLD60  0.474619  YLD61  0.264064
    CRUDE87  YLD62  0.253501  YLD63  0.377104
    CRUDE87  YLD64  0.513185  YLD65  0.445015
    CRUDE87  YLD66  0.242126  YLD67  0.345342
    CRUDE87  YLD68  0.411373  YLD69  0.155433
    CRUDE87  YLD70  0.452696  YLD71  0.421922
    CRUDE87  YLD72  0.370907  YLD73  0.495023
    CRUDE87  YLD74  0.301064  YLD75  0.440303
    CRUDE87  YLD76  0.223612  YLD77  0.412762
    CRUDE87  YLD78  0.255892  YLD79  0.241728
    CRUDE87  YLD80  0.498821  CAP  1
    CRUDE87  SULF  -0.451622
    CRUDE88  COST  -34.8088  YLD1  0.186401
    CRUDE88  YLD2  0.451854  YLD3  0.394162
    CRUDE88  YLD4  0.253475  YLD5  0.390742
    CRUDE88  YLD6  0.456662  YLD7  0.474274
    CRUDE88  YLD8  0.541859  YLD9  0.445718
    CRUDE88  YLD10  0.236421  YLD11  0.310522
    CRUDE88  YLD12  0.291707  YLD13  0.32413
    CRUDE88  YLD14  0.262415  YLD15  0.480367
    CRUDE88  YLD16  0.546709  YLD17  0.402895
    CRUDE88  YLD18  0.429087  YLD19  0.342019
    CRUDE88  YLD20  0.154936  YLD21  0.511289
    CRUDE88  YLD22  0.25683  YLD23  0.308311
    CRUDE88  YLD24  0.530838  YLD25  0.490738
    CRUDE88  YLD26  0.239204  YLD27  0.500274
    CRUDE88  YLD28  0.286588  YLD29  0.376607
    CRUDE88  YLD30  0.351405  YLD31  0.412401
    CRUDE88  YLD32  0.394293  YLD33  0.490172
    CRUDE88  YLD34  0.452493  YLD35  0.355868
    CRUDE88  YLD36  0.259919  YLD37  0.48616
    CRUDE88  YLD38  0.391652  YLD39  0.193268
    CRUDE88  YLD40  0.495188  YLD41  0.275833
    CRUDE88  YLD42  0.254411  YLD43  0.224712
    CRUDE88  YLD44  0.289404  YLD45  0.248122
    CRUDE88  YLD46  0.487305  YLD47  0.452172
    CRUDE88  YLD48  0.221029  YLD49  0.328191
    CRUDE88  YLD50  0.285314  YLD51  0.306737
    CRUDE88  YLD52  0.529324  YLD53  0.187022
    CRUDE88  YLD54  0.17596  YLD55  0.251552
    CRUDE88  YLD56  0.225259  YLD57  0.507212
    CRUDE88  YLD58  0.397471  YLD59  0.32864
    CRUDE88  YLD60  0.318236  YLD61  0.510247
    CRUDE88  YLD62  0.273717  YLD63  0.538402
    CRUDE88  YLD64  0.1734  YLD65  0.151043
    CRUDE88  YLD66  0.251217  YLD67  0.160739
    CRUDE88  YLD68  0.424231  YLD69  0.289633
    CRUDE88  YLD70  0.460094  YLD71  0.255215
    CRUDE88  YLD72  0.434945  YLD73  0.418599
    CRUDE88  YLD74  0.49767  YLD75  0.23572
    CRUDE88  YLD76  0.531742  YLD77  0.447876
    CRUDE88  YLD78  0.274317  YLD79  0.317374
    CRUDE88  YLD80  0.307488  CAP  1
    CRUDE88  SULF  1.50151
    CRUDE89  COST  -49.8786  YLD1  0.440559
    CRUDE89  YLD2  0.191166  YLD3  0.529723
    CRUDE89  YLD4  0.227253  YLD5  0.403016
    CRUDE89  YLD6  0.209882  YLD7  0.395633
    CRUDE89  YLD8  0.216118  YLD9  0.192537
    CRUDE89  YLD10  0.336643  YLD11  0.267006
    CRUDE89  YLD12  0.529628  YLD13  0.369724
    CRUDE89  YLD14  0.435184  YLD15  0.335246
    CRUDE89  YLD16  0.415681  YLD17  0.383442
    CRUDE89  YLD18  0.295645  YLD19  0.205206
    CRUDE89  YLD20  0.207184  YLD21  0.159847
    CRUDE89  YLD22  0.363864  YLD23  0.395261
    CRUDE89  YLD24  0.286746  YLD25  0.476876
    CRUDE89  YLD26  0.313158  YLD27  0.258572
    CRUDE89  YLD28  0.236244  YLD29  0.409817
    CRUDE89  YLD30  0.174043  YLD31  0.28646
    CRUDE89  YLD32  0.25572  YLD33  0.315731
    CRUDE89  YLD34  0.260371  YLD35  0.19228
    CRUDE89  YLD36  0.443261  YLD37  0.409213
    CRUDE89  YLD38  0.524326  YLD39  0.544679
    CRUDE89  YLD40  0.329533  YLD41  0.230833
    CRUDE89  YLD42  0.365227  YLD43  0.320225
    CRUDE89  YLD44  0.202827  YLD45  0.396091
    CRUDE89  YLD46  0.345835  YLD47  0.256829
    CRUDE89  YLD48  0.271493  YLD49  0.499469
    CRUDE89  YLD50  0.473231  YLD51  0.274016
    CRUDE89  YLD52  0.239925  YLD53  0.438675
    CRUDE89  YLD54  0.400373  YLD55  0.205624
    CRUDE89  YLD56  0.505204  YLD57  0.532345
    CRUDE89  YLD58  0.327525  YLD59  0.260688
    CRUDE89  YLD60  0.456001  YLD61  0.202345
    CRUDE89  YLD62  0.214635  YLD63  0.503355
    CRUDE89  YLD64  0.385326  YLD65  0.401296
    CRUDE89  YLD66  0.525927  YLD67  0.433186
    CRUDE89  YLD68  0.424076  YLD69  0.202839
    CRUDE89  YLD70  0.311959  YLD71  0.320755
    CRUDE89  YLD72  0.343815  YLD73  0.486981
    CRUDE89  YLD74  0.304781  YLD75  0.462939
    CRUDE89  YLD76  0.445267  YLD77  0.331576
    CRUDE89  YLD78  0.389978  YLD79  0.470577
    CRUDE89  YLD80  0.221798  CAP  1
    CRUDE89  SULF  0.106359
    CRUDE90  COST  -71.8855  YLD1  0.368979
    CRUDE90  YLD2  0.364593  YLD3  0.30866
    CRUDE90  YLD4  0.183639  YLD5  0.299139
    CRUDE90  YLD6  0.319578  YLD7  0.493826
    CRUDE90  YLD8  0.430101  YLD9  0.275968
    CRUDE90  YLD10  0.476689  YLD11  0.210932
    CRUDE90  YLD12  0.534924  YLD13  0.274794
    CRUDE90  YLD14  0.154597  YLD15  0.261383
    CRUDE90  YLD16  0.229698  YLD17  0.306048
    CRUDE90  YLD18  0.376486  YLD19  0.182415
    CRUDE90  YLD20  0.446917  YLD21  0.233782
    CRUDE90  YLD22  0.493505  YLD23  0.472241
    CRUDE90  YLD24  0.544321  YLD25  0.155465
    CRUDE90  YLD26  0.289113  YLD27  0.151481
    CRUDE90  YLD28  0.475484  YLD29  0.271049
    CRUDE90  YLD30  0.516374  YLD31  0.449005
    CRUDE90  YLD32  0.264897  YLD33  0.194954
    CRUDE90  YLD34  0.511985  YLD35  0.427629
    CRUDE90  YLD36  0.187624  YLD37  0.2855
    CRUDE90  YLD38  0.243602  YLD39  0.397739
    CRUDE90  YLD40  0.175143  YLD41  0.531057
    CRUDE90  YLD42  0.513047  YLD43  0.369796
    CRUDE90  YLD44  0.256358  YLD45  0.327272
    CRUDE90  YLD46  0.27455  YLD47  0.340735
    CRUDE90  YLD48  0.284717  YLD49  0.334734
    CRUDE90  YLD50  0.199802  YLD51  0.250618
    CRUDE90  YLD52  0.549854  YLD53  0.206199
    CRUDE90  YLD54  0.31674  YLD55  0.237592
    CRUDE90  YLD56  0.473353  YLD57  0.355728
    CRUDE90  YLD58  0.24844  YLD59  0.191739
    CRUDE90  YLD60  0.531784  YLD61  0.413812
    CRUDE90  YLD62  0.479192  YLD63  0.528221
    CRUDE90  YLD64  0.374702  YLD65  0.385394
    CRUDE90  YLD66  0.308364  YLD67  0.305479
    CRUDE90  YLD68  0.160794  YLD69  0.200648
    CRUDE90  YLD70  0.530391  YLD71  0.304708
    CRUDE90  YLD72  0.239827  YLD73  0.25016
    CRUDE90  YLD74  0.289936  YLD75  0.209023
    CRUDE90  YLD76  0.443762  YLD77  0.183381
    CRUDE90  YLD78  0.245092  YLD79  0.36548
    CRUDE90  YLD80  0.151378  CAP  1
    CRUDE90  SULF  0.627557
    CRUDE91  COST  -66.7608  YLD1  0.330364
    CRUDE91  YLD2  0.301529  YLD3  0.531635
    CRUDE91  YLD4  0.280573  YLD5  0.355046
    CRUDE91  YLD6  0.211194  YLD7  0.306957
    CRUDE91  YLD8  0.384324  YLD9  0.151527
    CRUDE91  YLD10  0.176954  YLD11  0.256467
    CRUDE91  YLD12  0.398363  YLD13  0.343
    CRUDE91  YLD14  0.313511  YLD15  0.411884
    CRUDE91  YLD16  0.167985  YLD17  0.292053
    CRUDE91  YLD18  0.152503  YLD19  0.481889
    CRUDE91  YLD20  0.247665  YLD21  0.316505
    CRUDE91  YLD22  0.280353  YLD23  0.269867
    CRUDE91  YLD24  0.485444  YLD25  0.508291
    CRUDE91  YLD26  0.158658  YLD27  0.215024
    CRUDE91  YLD28  0.236841  YLD29  0.333993
    CRUDE91  YLD30  0.396181  YLD31  0.369906
    CRUDE91  YLD32  0.354536  YLD33  0.180252
    CRUDE91  YLD34  0.47714  YLD35  0.357665
    CRUDE91  YLD36  0.530559  YLD37  0.337991
    CRUDE91  YLD38  0.183755  YLD39  0.410347
    CRUDE91  YLD40  0.340424  YLD41  0.327595
    CRUDE91  YLD42  0.488574  YLD43  0.421368
    CRUDE91  YLD44  0.325376  YLD45  0.403078
    CRUDE91  YLD46  0.498719  YLD47  0.479055
    CRUDE91  YLD48  0.377131  YLD49  0.158477
    CRUDE91  YLD50  0.53824  YLD51  0.287368
    CRUDE91  YLD52  0.348294  YLD53  0.305755
    CRUDE91  YLD54  0.398994  YLD55  0.381105
    CRUDE91  YLD56  0.358211  YLD57  0.469398
    CRUDE91  YLD58  0.421679  YLD59  0.180063
    CRUDE91  YLD60  0.489791  YLD61  0.369052
    CRUDE91  YLD62  0.384636  YLD63  0.195441
    CRUDE91  YLD64  0.414141  YLD65  0.364882
    CRUDE91  YLD66  0.437339  YLD67  0.362459
    CRUDE91  YLD68  0.509649  YLD69  0.476172
    CRUDE91  YLD70  0.525302  YLD71  0.456236
    CRUDE91  YLD72  0.364911  YLD73  0.505341
    CRUDE91  YLD74  0.549298  YLD75  0.339422
    CRUDE91  YLD76  0.178999  YLD77  0.458576
    CRUDE91  YLD78  0.383687  YLD79  0.270064
    CRUDE91  YLD80  0.282072  CAP  1
    CRUDE91  SULF  -0.912284
    CRUDE92  COST  -57.0724  YLD1  0.514189
    CRUDE92  YLD2  0.3328  YLD3  0.204001
    CRUDE92  YLD4  0.373938  YLD5  0.315212
    CRUDE92  YLD6  0.244094  YLD7  0.532489
    CRUDE92  YLD8  0.384592  YLD9  0.422668
    CRUDE92  YLD10  0.304957  YLD11  0.158811
    CRUDE92  YLD12  0.521464  YLD13  0.352669
    CRUDE92  YLD14  0.519611  YLD15  0.479507
    CRUDE92  YLD16  0.200543  YLD17  0.1681
    CRUDE92  YLD18  0.174754  YLD19  0.540718
    CRUDE92  YLD20  0.389204  YLD21  0.292629
    CRUDE92  YLD22  0.531617  YLD23  0.534841
    CRUDE92  YLD24  0.473428  YLD25  0.161578
    CRUDE92  YLD26  0.186711  YLD27  0.289809
    CRUDE92  YLD28  0.366811  YLD29  0.261736
    CRUDE92  YLD30  0.227076  YLD31  0.330941
    CRUDE92  YLD32  0.472674  YLD33  0.380826
    CRUDE92  YLD34  0.288506  YLD35  0.269223
    CRUDE92  YLD36  0.398927  YLD37  0.493167
    CRUDE92  YLD38  0.253686  YLD39  0.229557
    CRUDE92  YLD40  0.425698  YLD41  0.219883
    CRUDE92  YLD42  0.346179  YLD43  0.393084
    CRUDE92  YLD44  0.162117  YLD45  0.495152
    CRUDE92  YLD46  0.212352  YLD47  0.258544
    CRUDE92  YLD48  0.482639  YLD49  0.240996
    CRUDE92  YLD50  0.371973  YLD51  0.33394
    CRUDE92  YLD52  0.458572  YLD53  0.314622
    CRUDE92  YLD54  0.234216  YLD55  0.176054
    CRUDE92  YLD56  0.439684  YLD57  0.535804
    CRUDE92  YLD58  0.499298  YLD59  0.289023
    CRUDE92  YLD60  0.530585  YLD61  0.347854
    CRUDE92  YLD62  0.395216  YLD63  0.497259
    CRUDE92  YLD64  0.483363  YLD65  0.464347
    CRUDE92  YLD66  0.394906  YLD67  0.507515
    CRUDE92  YLD68  0.285243  YLD69  0.517347
    CRUDE92  YLD70  0.154964  YLD71  0.503515
    CRUDE92  YLD72  0.527708  YLD73  0.452245
    CRUDE92  YLD74  0.342989  YLD75  0.466242
    CRUDE92  YLD76  0.50812  YLD77  0.169127
    CRUDE92  YLD78  0.304852  YLD79  0.256874
    CRUDE92  YLD80  0.30139  CAP  1
    CRUDE92  SULF  0.693869
    CRUDE93  COST  -41.4275  YLD1  0.269184
    CRUDE93  YLD2  0.391583  YLD3  0.343502
    CRUDE93  YLD4  0.196338  YLD5  0.177653
    CRUDE93  YLD6  0.497704  YLD7  0.203258
    CRUDE93  YLD8  0.429068  YLD9  0.216853
    CRUDE93  YLD10  0.490736  YLD11  0.383303
    CRUDE93  YLD12  0.454342  YLD13  0.304895
    CRUDE93  YLD14  0.194752  YLD15  0.175256
    CRUDE93  YLD16  0.375022  YLD17  0.237163
    CRUDE93  YLD18  0.364147  YLD19  0.31189
    CRUDE93  YLD20  0.304041  YLD21  0.51469
    CRUDE93  YLD22  0.198752  YLD23  0.364254
    CRUDE93  YLD24  0.277162  YLD25  0.245858
    CRUDE93  YLD26  0.422381  YLD27  0.276288
    CRUDE93  YLD28  0.537284  YLD29  0.297756
    CRUDE93  YLD30  0.392554  YLD31  0.217769
    CRUDE93  YLD32  0.169946  YLD33  0.407051
    CRUDE93  YLD34  0.473096  YLD35  0.319016
    CRUDE93  YLD36  0.432687  YLD37  0.269419
    CRUDE93  YLD38  0.157571  YLD39  0.246125
    CRUDE93  YLD40  0.393084  YLD41  0.22946
    CRUDE93  YLD42  0.164821  YLD43  0.307591
    CRUDE93  YLD44  0.458257  YLD45  0.181943
    CRUDE93  YLD46  0.232578  YLD47  0.224083
    CRUDE93  YLD48  0.522997  YLD49  0.340248
    CRUDE93  YLD50  0.22317  YLD51  0.226797
    CRUDE93  YLD52  0.150874  YLD53  0.213503
    CRUDE93  YLD54  0.285497  YLD55  0.323687
    CRUDE93  YLD56  0.296531  YLD57  0.210497
    CRUDE93  YLD58  0.299148  YLD59  0.395903
    CRUDE93  YLD60  0.377175  YLD61  0.274365
    CRUDE93  YLD62  0.478225  YLD63  0.201636
    CRUDE93  YLD64  0.440341  YLD65  0.372348
    CRUDE93  YLD66  0.264235  YLD67  0.252695
    CRUDE93  YLD68  0.447666  YLD69  0.461103
    CRUDE93  YLD70  0.218931  YLD71  0.429748
    CRUDE93  YLD72  0.313964  YLD73  0.441566
    CRUDE93  YLD74  0.472088  YLD75  0.262045
    CRUDE93  YLD76  0.327494  YLD77  0.437166
    CRUDE93  YLD78  0.163747  YLD79  0.237046
    CRUDE93  YLD80  0.528047  CAP  1
    CRUDE93  SULF  -1.02487
    CRUDE94  COST  -79.1084  YLD1  0.359441
    CRUDE94  YLD2  0.350915  YLD3  0.257964
    CRUDE94  YLD4  0.300678  YLD5  0.324866
    CRUDE94  YLD6  0.339157  YLD7  0.19086
    CRUDE94  YLD8  0.521847  YLD9  0.412113
    CRUDE94  YLD10  0.311559  YLD11  0.486892
    CRUDE94  YLD12  0.368744  YLD13  0.512629
    CRUDE94  YLD14  0.35657  YLD15  0.460716
    CRUDE94  YLD16  0.456064  YLD17  0.156071
    CRUDE94  YLD18  0.376429  YLD19  0.18506
    CRUDE94  YLD20  0.491922  YLD21  0.166116
    CRUDE94  YLD22  0.15731  YLD23  0.397316
    CRUDE94  YLD24  0.153511  YLD25  0.162956
    CRUDE94  YLD26  0.50173  YLD27  0.466545
    CRUDE94  YLD28  0.209141  YLD29  0.213816
    CRUDE94  YLD30  0.420985  YLD31  0.404729
    CRUDE94  YLD32  0.391362  YLD33  0.489937
    CRUDE94  YLD34  0.292556  YLD35  0.269335
    CRUDE94  YLD36  0.269216  YLD37  0.519497
    CRUDE94  YLD38  0.164357  YLD39  0.41374
    CRUDE94  YLD40  0.365255  YLD41  0.262284
    CRUDE94  YLD42  0.364101  YLD43  0.256125
    CRUDE94  YLD44  0.39873  YLD45  0.461194
    CRUDE94  YLD46  0.424949  YLD47  0.422525
    CRUDE94  YLD48  0.450037  YLD49  0.319759
    CRUDE94  YLD50  0.202486  YLD51  0.23995
    CRUDE94  YLD52  0.505499  YLD53  0.519073
    CRUDE94  YLD54  0.374673  YLD55  0.204091
    CRUDE94  YLD56  0.164711  YLD57  0.157307
    CRUDE94  YLD58  0.486615  YLD59  0.485008
    CRUDE94  YLD60  0.21613  YLD61  0.351493
    CRUDE94  YLD62  0.287168  YLD63  0.403173
    CRUDE94  YLD64  0.466113  YLD65  0.492839
    CRUDE94  YLD66  0.411425  YLD67  0.246106
    CRUDE94  YLD68  0.453923  YLD69  0.540646
    CRUDE94  YLD70  0.478088  YLD71  0.286641
    CRUDE94  YLD72  0.421856  YLD73  0.288616
    CRUDE94  YLD74  0.471995  YLD75  0.484848
    CRUDE94  YLD76  0.413887  YLD77  0.51435
    CRUDE94  YLD78  0.311081  YLD79  0.479492
    CRUDE94  YLD80  0.232428  CAP  1
    CRUDE94  SULF  0.102678
    CRUDE95  COST  -43.0415  YLD1  0.429057
    CRUDE95  YLD2  0.365944  YLD3  0.365937
    CRUDE95  YLD4  0.153629  YLD5  0.188957
    CRUDE95  YLD6  0.364143  YLD7  0.413477
    CRUDE95  YLD8  0.463033  YLD9  0.546697
    CRUDE95  YLD10  0.181046  YLD11  0.369592
    CRUDE95  YLD12  0.222123  YLD13  0.156425
    CRUDE95  YLD14  0.464609  YLD15  0.478659
    CRUDE95  YLD16  0.526168  YLD17  0.382567
    CRUDE95  YLD18  0.450581  YLD19  0.176325
    CRUDE95  YLD20  0.530966  YLD21  0.354886
    CRUDE95  YLD22  0.511654  YLD23  0.422269
    CRUDE95  YLD24  0.302853  YLD25  0.284337
    CRUDE95  YLD26  0.355691  YLD27  0.422224
    CRUDE95  YLD28  0.526351  YLD29  0.504224
    CRUDE95  YLD30  0.360308  YLD31  0.539908
    CRUDE95  YLD32  0.472711  YLD33  0.267006
    CRUDE95  YLD34  0.190379  YLD35  0.25521
    CRUDE95  YLD36  0.314839  YLD37  0.241923
    CRUDE95  YLD38  0.515943  YLD39  0.513891
    CRUDE95  YLD40  0.337528  YLD41  0.549727
    CRUDE95  YLD42  0.431918  YLD43  0.217292
    CRUDE95  YLD44  0.390544  YLD45  0.347212
    CRUDE95  YLD46  0.290974  YLD47  0.363358
    CRUDE95  YLD48  0.48718  YLD49  0.494148
    CRUDE95  YLD50  0.386604  YLD51  0.258618
    CRUDE95  YLD52  0.258001  YLD53  0.151067
    CRUDE95  YLD54  0.387245  YLD55  0.259071
    CRUDE95  YLD56  0.511733  YLD57  0.497586
    CRUDE95  YLD58  0.322433  YLD59  0.223425
    CRUDE95  YLD60  0.524158  YLD61  0.214709
    CRUDE95  YLD62  0.227453  YLD63  0.438031
    CRUDE95  YLD64  0.265527  YLD65  0.243053
    CRUDE95  YLD66  0.412226  YLD67  0.255277
    CRUDE95  YLD68  0.410222  YLD69  0.236532
    CRUDE95  YLD70  0.284087  YLD71  0.323271
    CRUDE95  YLD72  0.541214  YLD73  0.505063
    CRUDE95  YLD74  0.520548  YLD75  0.40766
    CRUDE95  YLD76  0.533876  YLD77  0.288788
    CRUDE95  YLD78  0.51781  YLD79  0.382744
    CRUDE95  YLD80  0.302892  CAP  1
    CRUDE95  SULF  1.68542
    CRUDE96  COST  -78.271  YLD1  0.468589
    CRUDE96  YLD2  0.344543  YLD3  0.214806
    CRUDE96  YLD4  0.477472  YLD5  0.312008
    CRUDE96  YLD6  0.221378  YLD7  0.527132
    CRUDE96  YLD8  0.172454  YLD9  0.179068
    CRUDE96  YLD10  0.367014  YLD11  0.23771
    CRUDE96  YLD12  0.333439  YLD13  0.462869
    CRUDE96  YLD14  0.527013  YLD15  0.334609
    CRUDE96  YLD16  0.156329  YLD17  0.192341
    CRUDE96  YLD18  0.202786  YLD19  0.506527
    CRUDE96  YLD20  0.503426  YLD21  0.422192
    CRUDE96  YLD22  0.177459  YLD23  0.416693
    CRUDE96  YLD24  0.270724  YLD25  0.355547
    CRUDE96  YLD26  0.365676  YLD27  0.269823
    CRUDE96  YLD28  0.223157  YLD29  0.154004
    CRUDE96  YLD30  0.437241  YLD31  0.480241
    CRUDE96  YLD32  0.212767  YLD33  0.216988
    CRUDE96  YLD34  0.534755  YLD35  0.215443
    CRUDE96  YLD36  0.239511  YLD37  0.449807
    CRUDE96  YLD38  0.290807  YLD39  0.542956
    CRUDE96  YLD40  0.267505  YLD41  0.257205
    CRUDE96  YLD42  0.285666  YLD43  0.427538
    CRUDE96  YLD44  0.36842  YLD45  0.375651
    CRUDE96  YLD46  0.435207  YLD47  0.355762
    CRUDE96  YLD48  0.338038  YLD49  0.366855
    CRUDE96  YLD50  0.4032  YLD51  0.329704
    CRUDE96  YLD52  0.417175  YLD53  0.507523
    CRUDE96  YLD54  0.298926  YLD55  0.226302
    CRUDE96  YLD56  0.201117  YLD57  0.228109
    CRUDE96  YLD58  0.310534  YLD59  0.319858
    CRUDE96  YLD60  0.497402  YLD61  0.297728
    CRUDE96  YLD62  0.229362  YLD63  0.214341
    CRUDE96  YLD64  0.304999  YLD65  0.472393
    CRUDE96  YLD66  0.386977  YLD67  0.285243
    CRUDE96  YLD68  0.307947  YLD69  0.20632
    CRUDE96  YLD70  0.188185  YLD71  0.20734
    CRUDE96  YLD72  0.481969  YLD73  0.405192
    CRUDE96  YLD74  0.183958  YLD75  0.309009
    CRUDE96  YLD76  0.190005  YLD77  0.190825
    CRUDE96  YLD78  0.267245  YLD79  0.433663
    CRUDE96  YLD80  0.160062  CAP  1
    CRUDE96  SULF  0.240148
    CRUDE97  COST  -74.1318  YLD1  0.333739
    CRUDE97  YLD2  0.313582  YLD3  0.486612
    CRUDE97  YLD4  0.201379  YLD5  0.387167
    CRUDE97  YLD6  0.274909  YLD7  0.473553
    CRUDE97  YLD8  0.491091  YLD9  0.180831
    CRUDE97  YLD10  0.494697  YLD11  0.163468
    CRUDE97  YLD12  0.37435  YLD13  0.199753
    CRUDE97  YLD14  0.448711  YLD15  0.543322
    CRUDE97  YLD16  0.359104  YLD17  0.499208
    CRUDE97  YLD18  0.355273  YLD19  0.335526
    CRUDE97  YLD20  0.258248  YLD21  0.522679
    CRUDE97  YLD22  0.546756  YLD23  0.354388
    CRUDE97  YLD24  0.164959  YLD25  0.468658
    CRUDE97  YLD26  0.252037  YLD27  0.333098
    CRUDE97  YLD28  0.376977  YLD29  0.502964
    CRUDE97  YLD30  0.382582  YLD31  0.174003
    CRUDE97  YLD32  0.156009  YLD33  0.301602
    CRUDE97  YLD34  0.411041  YLD35  0.295107
    CRUDE97  YLD36  0.523014  YLD37  0.402224
    CRUDE97  YLD38  0.314324  YLD39  0.229212
    CRUDE97  YLD40  0.260939  YLD41  0.281521
    CRUDE97  YLD42  0.194425  YLD43  0.408159
    CRUDE97  YLD44  0.386125  YLD45  0.411573
    CRUDE97  YLD46  0.213081  YLD47  0.252708
    CRUDE97  YLD48  0.30591  YLD49  0.425854
    CRUDE97  YLD50  0.17121  YLD51  0.411125
    CRUDE97  YLD52  0.472542  YLD53  0.503532
    CRUDE97  YLD54  0.262021  YLD55  0.50319
    CRUDE97  YLD56  0.529175  YLD57  0.166992
    CRUDE97  YLD58  0.16133  YLD59  0.306782
    CRUDE97  YLD60  0.495765  YLD61  0.189472
    CRUDE97  YLD62  0.443048  YLD63  0.403064
    CRUDE97  YLD64  0.400711  YLD65  0.221725
    CRUDE97  YLD66  0.189864  YLD67  0.192942
    CRUDE97  YLD68  0.393354  YLD69  0.358282
    CRUDE97  YLD70  0.464  YLD71  0.217239
    CRUDE97  YLD72  0.413614  YLD73  0.490736
    CRUDE97  YLD74  0.258488  YLD75  0.319367
    CRUDE97  YLD76  0.342911  YLD77  0.243146
    CRUDE97  YLD78  0.279133  YLD79  0.494048
    CRUDE97  YLD80  0.455416  CAP  1
    CRUDE97  SULF  -0.979487
    CRUDE98  COST  -43.9436  YLD1  0.486837
    CRUDE98  YLD2  0.458753  YLD3  0.488563
    CRUDE98  YLD4  0.263337  YLD5  0.381766
    CRUDE98  YLD6  0.242098  YLD7  0.180567
    CRUDE98  YLD8  0.240217  YLD9  0.286152
    CRUDE98  YLD10  0.386114  YLD11  0.235851
    CRUDE98  YLD12  0.495585  YLD13  0.469019
    CRUDE98  YLD14  0.438226  YLD15  0.464683
    CRUDE98  YLD16  0.338347  YLD17  0.359257
    CRUDE98  YLD18  0.227779  YLD19  0.278011
    CRUDE98  YLD20  0.227665  YLD21  0.398148
    CRUDE98  YLD22  0.530559  YLD23  0.321506
    CRUDE98  YLD24  0.352146  YLD25  0.285193
    CRUDE98  YLD26  0.457151  YLD27  0.188224
    CRUDE98  YLD28  0.300803  YLD29  0.378672
    CRUDE98  YLD30  0.529108  YLD31  0.300492
    CRUDE98  YLD32  0.275085  YLD33  0.29143
    CRUDE98  YLD34  0.33244  YLD35  0.250395
    CRUDE98  YLD36  0.345242  YLD37  0.44984
    CRUDE98  YLD38  0.157349  YLD39  0.203648
    CRUDE98  YLD40  0.350093  YLD41  0.413731
    CRUDE98  YLD42  0.261427  YLD43  0.424949
    CRUDE98  YLD44  0.523861  YLD45  0.519049
    CRUDE98  YLD46  0.250908  YLD47  0.163952
    CRUDE98  YLD48  0.307083  YLD49  0.337729
    CRUDE98  YLD50  0.247201  YLD51  0.492458
    CRUDE98  YLD52  0.215659  YLD53  0.276785
    CRUDE98  YLD54  0.25948  YLD55  0.433205
    CRUDE98  YLD56  0.378753  YLD57  0.214038
    CRUDE98  YLD58  0.428112  YLD59  0.355358
    CRUDE98  YLD60  0.42731  YLD61  0.378739
    CRUDE98  YLD62  0.395646  YLD63  0.170984
    CRUDE98  YLD64  0.371385  YLD65  0.475247
    CRUDE98  YLD66  0.548069  YLD67  0.428888
    CRUDE98  YLD68  0.166079  YLD69  0.481615
    CRUDE98  YLD70  0.331833  YLD71  0.215717
    CRUDE98  YLD72  0.444399  YLD73  0.294389
    CRUDE98  YLD74  0.457099  YLD75  0.520397
    CRUDE98  YLD76  0.169845  YLD77  0.374913
    CRUDE98  YLD78  0.176376  YLD79  0.544745
    CRUDE98  YLD80  0.516056  CAP  1
    CRUDE98  SULF  0.708961
    CRUDE99  COST  -72.3331  YLD1  0.457567
    CRUDE99  YLD2  0.154881  YLD3  0.532095
    CRUDE99  YLD4  0.157371  YLD5  0.415049
    CRUDE99  YLD6  0.232474  YLD7  0.261747
    CRUDE99  YLD8  0.300766  YLD9  0.496555
    CRUDE99  YLD10  0.240512  YLD11  0.316449
    CRUDE99  YLD12  0.342533  YLD13  0.396365
    CRUDE99  YLD14  0.480595  YLD15  0.459465
    CRUDE99  YLD16  0.412422  YLD17  0.429876
    CRUDE99  YLD18  0.187278  YLD19  0.340585
    CRUDE99  YLD20  0.339774  YLD21  0.471502
    CRUDE99  YLD22  0.204808  YLD23  0.171513
    CRUDE99  YLD24  0.311213  YLD25  0.432196
    CRUDE99  YLD26  0.450718  YLD27  0.509259
    CRUDE99  YLD28  0.535971  YLD29  0.282663
    CRUDE99  YLD30  0.171479  YLD31  0.520233
    CRUDE99  YLD32  0.385257  YLD33  0.202988
    CRUDE99  YLD34  0.309109  YLD35  0.423374
    CRUDE99  YLD36  0.402179  YLD37  0.324939
    CRUDE99  YLD38  0.258209  YLD39  0.172561
    CRUDE99  YLD40  0.214241  YLD41  0.267585
    CRUDE99  YLD42  0.458636  YLD43  0.299011
    CRUDE99  YLD44  0.153428  YLD45  0.172688
    CRUDE99  YLD46  0.212659  YLD47  0.314108
    CRUDE99  YLD48  0.396415  YLD49  0.325862
    CRUDE99  YLD50  0.468185  YLD51  0.264853
    CRUDE99  YLD52  0.327004  YLD53  0.431714
    CRUDE99  YLD54  0.21988  YLD55  0.497385
    CRUDE99  YLD56  0.272225  YLD57  0.303646
    CRUDE99  YLD58  0.473001  YLD59  0.473835
    CRUDE99  YLD60  0.399967  YLD61  0.188307
    CRUDE99  YLD62  0.232536  YLD63  0.267306
    CRUDE99  YLD64  0.534442  YLD65  0.526185
    CRUDE99  YLD66  0.310167  YLD67  0.232959
    CRUDE99  YLD68  0.454758  YLD69  0.165936
    CRUDE99  YLD70  0.346964  YLD71  0.202235
    CRUDE99  YLD72  0.524593  YLD73  0.208261
    CRUDE99  YLD74  0.375041  YLD75  0.237116
    CRUDE99  YLD76  0.349818  YLD77  0.527064
    CRUDE99  YLD78  0.396019  YLD79  0.249793
    CRUDE99  YLD80  0.245128  CAP  1
    CRUDE99  SULF  1.22365
    CRUDE100  COST  -50.2254  YLD1  0.176494
    CRUDE100  YLD2  0.389377  YLD3  0.211869
    CRUDE100  YLD4  0.322896  YLD5  0.188105
    CRUDE100  YLD6  0.405184  YLD7  0.522128
    CRUDE100  YLD8  0.334693  YLD9  0.236212
    CRUDE100  YLD10  0.303696  YLD11  0.453845
    CRUDE100  YLD12  0.50907  YLD13  0.487311
    CRUDE100  YLD14  0.32848  YLD15  0.449135
    CRUDE100  YLD16  0.373832  YLD17  0.314343
    CRUDE100  YLD18  0.314198  YLD19  0.277322
    CRUDE100  YLD20  0.152934  YLD21  0.18349
    CRUDE100  YLD22  0.365034  YLD23  0.158834
    CRUDE100  YLD24  0.403823  YLD25  0.225002
    CRUDE100  YLD26  0.385346  YLD27  0.52417
    CRUDE100  YLD28  0.259417  YLD29  0.439223
    CRUDE100  YLD30  0.192498  YLD31  0.351217
    CRUDE100  YLD32  0.205313  YLD33  0.418913
    CRUDE100  YLD34  0.279882  YLD35  0.423551
    CRUDE100  YLD36  0.443709  YLD37  0.523056
    CRUDE100  YLD38  0.47189  YLD39  0.497319
    CRUDE100  YLD40  0.286274  YLD41  0.236322
    CRUDE100  YLD42  0.290498  YLD43  0.254963
    CRUDE100  YLD44  0.16912  YLD45  0.161791
    CRUDE100  YLD46  0.531164  YLD47  0.192624
    CRUDE100  YLD48  0.199695  YLD49  0.328515
    CRUDE100  YLD50  0.16985  YLD51  0.223491
    CRUDE100  YLD52  0.347534  YLD53  0.251124
    CRUDE100  YLD54  0.280162  YLD55  0.303385
    CRUDE100  YLD56  0.34821  YLD57  0.237706
    CRUDE100  YLD58  0.415423  YLD59  0.371458
    CRUDE100  YLD60  0.15589  YLD61  0.214138
    CRUDE100  YLD62  0.208026  YLD63  0.518463
    CRUDE100  YLD64  0.224734  YLD65  0.284278
    CRUDE100  YLD66  0.4053  YLD67  0.520458
    CRUDE100  YLD68  0.189835  YLD69  0.548226
    CRUDE100  YLD70  0.224548  YLD71  0.221832
    CRUDE100  YLD72  0.533901  YLD73  0.282935
    CRUDE100  YLD74  0.373846  YLD75  0.427345
    CRUDE100  YLD76  0.250904  YLD77  0.354913
    CRUDE100  YLD78  0.489697  YLD79  0.222361
    CRUDE100  YLD80  0.321598  CAP  1
    CRUDE100  SULF  1.32742
    CRUDE101  COST  -72.5464  YLD1  0.168345
    CRUDE101  YLD2  0.376203  YLD3  0.399333
    CRUDE101  YLD4  0.486049  YLD5  0.410849
    CRUDE101  YLD6  0.252754  YLD7  0.251223
    CRUDE101  YLD8  0.342362  YLD9  0.294151
    CRUDE101  YLD10  0.330049  YLD11  0.225137
    CRUDE101  YLD12  0.41974  YLD13  0.189006
    CRUDE101  YLD14  0.472338  YLD15  0.210243
    CRUDE101  YLD16  0.424816  YLD17  0.374232
    CRUDE101  YLD18  0.215335  YLD19  0.345614
    CRUDE101  YLD20  0.160324  YLD21  0.304376
    CRUDE101  YLD22  0.223968  YLD23  0.293184
    CRUDE101  YLD24  0.398475  YLD25  0.450239
    CRUDE101  YLD26  0.235066  YLD27  0.541921
    CRUDE101  YLD28  0.309863  YLD29  0.353101
    CRUDE101  YLD30  0.219469  YLD31  0.414845
    CRUDE101  YLD32  0.320449  YLD33  0.353477
    CRUDE101  YLD34  0.542579  YLD35  0.350736
    CRUDE101  YLD36  0.298442  YLD37  0.402989
    CRUDE101  YLD38  0.396196  YLD39  0.267886
    CRUDE101  YLD40  0.279592  YLD41  0.213455
    CRUDE101  YLD42  0.474793  YLD43  0.453889
    CRUDE101  YLD44  0.226597  YLD45  0.221305
    CRUDE101  YLD46  0.312162  YLD47  0.512396
    CRUDE101  YLD48  0.381798  YLD49  0.314369
    CRUDE101  YLD50  0.492035  YLD51  0.301539
    CRUDE101  YLD52  0.274848  YLD53  0.453509
    CRUDE101  YLD54  0.229776  YLD55  0.275365
    CRUDE101  YLD56  0.350652  YLD57  0.272101
    CRUDE101  YLD58  0.210544  YLD59  0.488662
    CRUDE101  YLD60  0.449222  YLD61  0.184187
    CRUDE101  YLD62  0.198275  YLD63  0.218692
    CRUDE101  YLD64  0.290511  YLD65  0.361955
    CRUDE101  YLD66  0.504305  YLD67  0.236275
    CRUDE101  YLD68  0.3087  YLD69  0.390898
    CRUDE101  YLD70  0.414358  YLD71  0.231075
    CRUDE101  YLD72  0.537587  YLD73  0.332106
    CRUDE101  YLD74  0.216486  YLD75  0.432918
    CRUDE101  YLD76  0.514426  YLD77  0.195095
    CRUDE101  YLD78  0.291169  YLD79  0.334799
    CRUDE101  YLD80  0.198845  CAP  1
    CRUDE101  SULF  1.48538
    CRUDE102  COST  -69.267  YLD1  0.398322
    CRUDE102  YLD2  0.436472  YLD3  0.339695
    CRUDE102  YLD4  0.30686  YLD5  0.274859
    CRUDE102  YLD6  0.402806  YLD7  0.462468
    CRUDE102  YLD8  0.324072  YLD9  0.177402
    CRUDE102  YLD10  0.381707  YLD11  0.437917
    CRUDE102  YLD12  0.2048  YLD13  0.373592
    CRUDE102  YLD14  0.153186  YLD15  0.236892
    CRUDE102  YLD16  0.413233  YLD17  0.527064
    CRUDE102  YLD18  0.238713  YLD19  0.493823
    CRUDE102  YLD20  0.371316  YLD21  0.299579
    CRUDE102  YLD22  0.321262  YLD23  0.283464
    CRUDE102  YLD24  0.198299  YLD25  0.244399
    CRUDE102  YLD26  0.188807  YLD27  0.497421
    CRUDE102  YLD28  0.543144  YLD29  0.349643
    CRUDE102  YLD30  0.426068  YLD31  0.51504
    CRUDE102  YLD32  0.370929  YLD33  0.438449
    CRUDE102  YLD34  0.203899  YLD35  0.461178
    CRUDE102  YLD36  0.438041  YLD37  0.265318
    CRUDE102  YLD38  0.451512  YLD39  0.150725
    CRUDE102  YLD40  0.384853  YLD41  0.275073
    CRUDE102  YLD42  0.277809  YLD43  0.459459
    CRUDE102  YLD44  0.216921  YLD45  0.544579
    CRUDE102  YLD46  0.284888  YLD47  0.1665
    CRUDE102  YLD48  0.416053  YLD49  0.365433
    CRUDE102  YLD50  0.413265  YLD51  0.507753
    CRUDE102  YLD52  0.342702  YLD53  0.374448
    CRUDE102  YLD54  0.403526  YLD55  0.302235
    CRUDE102  YLD56  0.159315  YLD57  0.540118
    CRUDE102  YLD58  0.191317  YLD59  0.357421
    CRUDE102  YLD60  0.186614  YLD61  0.302524
    CRUDE102  YLD62  0.401119  YLD63  0.176108
    CRUDE102  YLD64  0.379102  YLD65  0.413332
    CRUDE102  YLD66  0.319315  YLD67  0.252257
    CRUDE102  YLD68  0.191448  YLD69  0.541577
    CRUDE102  YLD70  0.370497  YLD71  0.194738
    CRUDE102  YLD72  0.400257  YLD73  0.363363
    CRUDE102  YLD74  0.262461  YLD75  0.51898
    CRUDE102  YLD76  0.309397  YLD77  0.401113
    CRUDE102  YLD78  0.246098  YLD79  0.164029
    CRUDE102  YLD80  0.332734  CAP  1
    CRUDE102  SULF  0.605441
    CRUDE103  COST  -59.0343  YLD1  0.288965
    CRUDE103  YLD2  0.389612  YLD3  0.287753
    CRUDE103  YLD4  0.221799  YLD5  0.309618
    CRUDE103  YLD6  0.173382  YLD7  0.480053
    CRUDE103  YLD8  0.524941  YLD9  0.455262
    CRUDE103  YLD10  0.45374  YLD11  0.496773
    CRUDE103  YLD12  0.547993  YLD13  0.350435
    CRUDE103  YLD14  0.519824  YLD15  0.335596
    CRUDE103  YLD16  0.196805  YLD17  0.183094
    CRUDE103  YLD18  0.277022  YLD19  0.386921
    CRUDE103  YLD20  0.35818  YLD21  0.504515
    CRUDE103  YLD22  0.17457  YLD23  0.305078
    CRUDE103  YLD24  0.540786  YLD25  0.207418
    CRUDE103  YLD26  0.175695  YLD27  0.219584
    CRUDE103  YLD28  0.364588  YLD29  0.194057
    CRUDE103  YLD30  0.408238  YLD31  0.499518
    CRUDE103  YLD32  0.389553  YLD33  0.291076
    CRUDE103  YLD34  0.275922  YLD35  0.486536
    CRUDE103  YLD36  0.420397  YLD37  0.405382
    CRUDE103  YLD38  0.328885  YLD39  0.239527
    CRUDE103  YLD40  0.176673  YLD41  0.192366
    CRUDE103  YLD42  0.215422  YLD43  0.332247
    CRUDE103  YLD44  0.222478  YLD45  0.436031
    CRUDE103  YLD46  0.155681  YLD47  0.32266
    CRUDE103  YLD48  0.325563  YLD49  0.250177
    CRUDE103  YLD50  0.323769  YLD51  0.153944
    CRUDE103  YLD52  0.277018  YLD53  0.27009
    CRUDE103  YLD54  0.377627  YLD55  0.157419
    CRUDE103  YLD56  0.292184  YLD57  0.431762
    CRUDE103  YLD58  0.379144  YLD59  0.391539
    CRUDE103  YLD60  0.2539  YLD61  0.486783
    CRUDE103  YLD62  0.150047  YLD63  0.327471
    CRUDE103  YLD64  0.497186  YLD65  0.181789
    CRUDE103  YLD66  0.45957  YLD67  0.268808
    CRUDE103  YLD68  0.48483  YLD69  0.296033
    CRUDE103  YLD70  0.232669  YLD71  0.406104
    CRUDE103  YLD72  0.303885  YLD73  0.354324
    CRUDE103  YLD74  0.358534  YLD75  0.435266
    CRUDE103  YLD76  0.403549  YLD77  0.443138
    CRUDE103  YLD78  0.532645  YLD79  0.466687
    CRUDE103  YLD80  0.203337  CAP  1
    CRUDE103  SULF  -0.373687
    CRUDE104  COST  -77.0067  YLD1  0.233652
    CRUDE104  YLD2  0.48072  YLD3  0.290616
    CRUDE104  YLD4  0.45148  YLD5  0.493194
    CRUDE104  YLD6  0.20671  YLD7  0.348181
    CRUDE104  YLD8  0.432408  YLD9  0.313323
    CRUDE104  YLD10  0.189549  YLD11  0.331579
    CRUDE104  YLD12  0.360893  YLD13  0.432477
    CRUDE104  YLD14  0.327323  YLD15  0.255602
    CRUDE104  YLD16  0.469887  YLD17  0.251575
    CRUDE104  YLD18  0.253755  YLD19  0.427862
    CRUDE104  YLD20  0.547833  YLD21  0.210548
    CRUDE104  YLD22  0.23957  YLD23  0.205347
    CRUDE104  YLD24  0.224773  YLD25  0.224164
    CRUDE104  YLD26  0.387078  YLD27  0.168479
    CRUDE104  YLD28  0.351052  YLD29  0.305806
    CRUDE104  YLD30  0.506824  YLD31  0.350728
    CRUDE104  YLD32  0.259765  YLD33  0.280281
    CRUDE104  YLD34  0.344199  YLD35  0.381907
    CRUDE104  YLD36  0.432264  YLD37  0.264726
    CRUDE104  YLD38  0.273892  YLD39  0.286176
    CRUDE104  YLD40  0.481867  YLD41  0.157459
    CRUDE104  YLD42  0.324339  YLD43  0.394762
    CRUDE104  YLD44  0.418778  YLD45  0.395856
    CRUDE104  YLD46  0.211367  YLD47  0.170898
    CRUDE104  YLD48  0.531267  YLD49  0.506422
    CRUDE104  YLD50  0.288573  YLD51  0.421147
    CRUDE104  YLD52  0.294299  YLD53  0.310094
    CRUDE104  YLD54  0.303036  YLD55  0.439882
    CRUDE104  YLD56  0.445946  YLD57  0.434877
    CRUDE104  YLD58  0.310607  YLD59  0.324953
    CRUDE104  YLD60  0.370596  YLD61  0.512759
    CRUDE104  YLD62  0.157328  YLD63  0.490247
    CRUDE104  YLD64  0.521739  YLD65  0.347632
    CRUDE104  YLD66  0.53873  YLD67  0.457415
    CRUDE104  YLD68  0.370121  YLD69  0.33321
    CRUDE104  YLD70  0.286133  YLD71  0.546161
    CRUDE104  YLD72  0.203261  YLD73  0.368422
    CRUDE104  YLD74  0.260873  YLD75  0.383787
    CRUDE104  YLD76  0.494115  YLD77  0.307313
    CRUDE104  YLD78  0.448029  YLD79  0.503504
    CRUDE104  YLD80  0.359339  CAP  1
    CRUDE104  SULF  1.61087
    CRUDE105  COST  -44.196  YLD1  0.38186
    CRUDE105  YLD2  0.53363  YLD3  0.315117
    CRUDE105  YLD4  0.465523  YLD5  0.153612
    CRUDE105  YLD6  0.259816  YLD7  0.30454
    CRUDE105  YLD8  0.402468  YLD9  0.453699
    CRUDE105  YLD10  0.505861  YLD11  0.478573
    CRUDE105  YLD12  0.306743  YLD13  0.363716
    CRUDE105  YLD14  0.371352  YLD15  0.316096
    CRUDE105  YLD16  0.199293  YLD17  0.461995
    CRUDE105  YLD18  0.185037  YLD19  0.295868
    CRUDE105  YLD20  0.230737  YLD21  0.210754
    CRUDE105  YLD22  0.295309  YLD23  0.445267
    CRUDE105  YLD24  0.32811  YLD25  0.222825
    CRUDE105  YLD26  0.480014  YLD27  0.381839
    CRUDE105  YLD28  0.253111  YLD29  0.246426
    CRUDE105  YLD30  0.443151  YLD31  0.325059
    CRUDE105  YLD32  0.310012  YLD33  0.33903
    CRUDE105  YLD34  0.3412  YLD35  0.397574
    CRUDE105  YLD36  0.345692  YLD37  0.267453
    CRUDE105  YLD38  0.343124  YLD39  0.546394
    CRUDE105  YLD40  0.374951  YLD41  0.471857
    CRUDE105  YLD42  0.33091  YLD43  0.299408
    CRUDE105  YLD44  0.333793  YLD45  0.168816
    CRUDE105  YLD46  0.318454  YLD47  0.188218
    CRUDE105  YLD48  0.393285  YLD49  0.283234
    CRUDE105  YLD50  0.1577  YLD51  0.340864
    CRUDE105  YLD52  0.417732  YLD53  0.425955
    CRUDE105  YLD54  0.280332  YLD55  0.289909
    CRUDE105  YLD56  0.354028  YLD57  0.187874
    CRUDE105  YLD58  0.321639  YLD59  0.479238
    CRUDE105  YLD60  0.330693  YLD61  0.178756
    CRUDE105  YLD62  0.305821  YLD63  0.180669
    CRUDE105  YLD64  0.284415  YLD65  0.294234
    CRUDE105  YLD66  0.293574  YLD67  0.321043
    CRUDE105  YLD68  0.426382  YLD69  0.450945
    CRUDE105  YLD70  0.388752  YLD71  0.501675
    CRUDE105  YLD72  0.304219  YLD73  0.486682
    CRUDE105  YLD74  0.234113  YLD75  0.511009
    CRUDE105  YLD76  0.543477  YLD77  0.438606
    CRUDE105  YLD78  0.376865  YLD79  0.424416
    CRUDE105  YLD80  0.443849  CAP  1
    CRUDE105  SULF  -0.594519
    CRUDE106  COST  -54.2807  YLD1  0.286625
    CRUDE106  YLD2  0.28701  YLD3  0.43197
    CRUDE106  YLD4  0.219501  YLD5  0.385365
    CRUDE106  YLD6  0.388819  YLD7  0.33005
    CRUDE106  YLD8  0.169937  YLD9  0.511443
    CRUDE106  YLD10  0.154924  YLD11  0.371863
    CRUDE106  YLD12  0.413646  YLD13  0.366294
    CRUDE106  YLD14  0.251953  YLD15  0.505386
    CRUDE106  YLD16  0.429412  YLD17  0.189495
    CRUDE106  YLD18  0.185967  YLD19  0.445402
    CRUDE106  YLD20  0.253242  YLD21  0.281423
    CRUDE106  YLD22  0.325459  YLD23  0.492786
    CRUDE106  YLD24  0.345247  YLD25  0.355145
    CRUDE106  YLD26  0.493332  YLD27  0.515042
    CRUDE106  YLD28  0.430545  YLD29  0.156278
    CRUDE106  YLD30  0.353342  YLD31  0.285877
    CRUDE106  YLD32  0.461336  YLD33  0.500963
    CRUDE106  YLD34  0.338547  YLD35  0.263154
    CRUDE106  YLD36  0.303175  YLD37  0.309839
    CRUDE106  YLD38  0.279228  YLD39  0.359417
    CRUDE106  YLD40  0.418331  YLD41  0.205158
    CRUDE106  YLD42  0.156443  YLD43  0.430779
    CRUDE106  YLD44  0.546712  YLD45  0.501644
    CRUDE106  YLD46  0.177401  YLD47  0.413547
    CRUDE106  YLD48  0.238  YLD49  0.20901
    CRUDE106  YLD50  0.480086  YLD51  0.214418
    CRUDE106  YLD52  0.403037  YLD53  0.512439
    CRUDE106  YLD54  0.245046  YLD55  0.27533
    CRUDE106  YLD56  0.247692  YLD57  0.442839
    CRUDE106  YLD58  0.53712  YLD59  0.519531
    CRUDE106  YLD60  0.15631  YLD61  0.40382
    CRUDE106  YLD62  0.42654  YLD63  0.292214
    CRUDE106  YLD64  0.176843  YLD65  0.498982
    CRUDE106  YLD66  0.312108  YLD67  0.477734
    CRUDE106  YLD68  0.423033  YLD69  0.46708
    CRUDE106  YLD70  0.519949  YLD71  0.168241
    CRUDE106  YLD72  0.527182  YLD73  0.21804
    CRUDE106  YLD74  0.185102  YLD75  0.481653
    CRUDE106  YLD76  0.351528  YLD77  0.279929
    CRUDE106  YLD78  0.272212  YLD79  0.257198
    CRUDE106  YLD80  0.371337  CAP  1
    CRUDE106  SULF  -0.12242
    CRUDE107  COST  -79.7229  YLD1  0.364905
    CRUDE107  YLD2  0.24094  YLD3  0.389314
    CRUDE107  YLD4  0.458342  YLD5  0.389486
    CRUDE107  YLD6  0.420336  YLD7  0.240786
    CRUDE107  YLD8  0.511565  YLD9  0.243105
    CRUDE107  YLD10  0.298021  YLD11  0.404836
    CRUDE107  YLD12  0.193557  YLD13  0.321838
    CRUDE107  YLD14  0.447012  YLD15  0.479731
    CRUDE107  YLD16  0.316458  YLD17  0.180264
    CRUDE107  YLD18  0.2273  YLD19  0.416647
    CRUDE107  YLD20  0.195416  YLD21  0.171786
    CRUDE107  YLD22  0.540999  YLD23  0.525486
    CRUDE107  YLD24  0.475225  YLD25  0.487919
    CRUDE107  YLD26  0.335449  YLD27  0.220941
    CRUDE107  YLD28  0.155749  YLD29  0.29404
    CRUDE107  YLD30  0.546733  YLD31  0.437608
    CRUDE107  YLD32  0.526486  YLD33  0.166113
    CRUDE107  YLD34  0.220314  YLD35  0.507948
    CRUDE107  YLD36  0.238833  YLD37  0.490972
    CRUDE107  YLD38  0.485588  YLD39  0.231886
    CRUDE107  YLD40  0.431238  YLD41  0.460391
    CRUDE107  YLD42  0.196818  YLD43  0.484289
    CRUDE107  YLD44  0.240754  YLD45  0.475103
    CRUDE107  YLD46  0.354296  YLD47  0.408845
    CRUDE107  YLD48  0.341687  YLD49  0.18862
    CRUDE107  YLD50  0.207089  YLD51  0.278409
    CRUDE107  YLD52  0.242906  YLD53  0.202291
    CRUDE107  YLD54  0.364183  YLD55  0.389256
    CRUDE107  YLD56  0.284044  YLD57  0.445738
    CRUDE107  YLD58  0.439569  YLD59  0.405658
    CRUDE107  YLD60  0.479594  YLD61  0.423754
    CRUDE107  YLD62  0.428016  YLD63  0.50991
    CRUDE107  YLD64  0.318648  YLD65  0.500672
    CRUDE107  YLD66  0.51223  YLD67  0.463941
    CRUDE107  YLD68  0.486642  YLD69  0.243213
    CRUDE107  YLD70  0.518151  YLD71  0.319224
    CRUDE107  YLD72  0.505919  YLD73  0.276421
    CRUDE107  YLD74  0.21229  YLD75  0.436711
    CRUDE107  YLD76  0.332303  YLD77  0.465636
    CRUDE107  YLD78  0.238319  YLD79  0.199262
    CRUDE107  YLD80  0.248088  CAP  1
    CRUDE107  SULF  -1.02167
    CRUDE108  COST  -30.9038  YLD1  0.334048
    CRUDE108  YLD2  0.319439  YLD3  0.333873
    CRUDE108  YLD4  0.528919  YLD5  0.308664
    CRUDE108  YLD6  0.327087  YLD7  0.505756
    CRUDE108  YLD8  0.513756  YLD9  0.472958
    CRUDE108  YLD10  0.160968  YLD11  0.360511
    CRUDE108  YLD12  0.404615  YLD13  0.273534
    CRUDE108  YLD14  0.180654  YLD15  0.402016
    CRUDE108  YLD16  0.35554  YLD17  0.294617
    CRUDE108  YLD18  0.170224  YLD19  0.197825
    CRUDE108  YLD20  0.517017  YLD21  0.222983
    CRUDE108  YLD22  0.473146  YLD23  0.346945
    CRUDE108  YLD24  0.189692  YLD25  0.181842
    CRUDE108  YLD26  0.463709  YLD27  0.152817
    CRUDE108  YLD28  0.169805  YLD29  0.185929
    CRUDE108  YLD30  0.256443  YLD31  0.264795
    CRUDE108  YLD32  0.494752  YLD33  0.471933
    CRUDE108  YLD34  0.207973  YLD35  0.159682
    CRUDE108  YLD36  0.479851  YLD37  0.350119
    CRUDE108  YLD38  0.269069  YLD39  0.283927
    CRUDE108  YLD40  0.266594  YLD41  0.469017
    CRUDE108  YLD42  0.22397  YLD43  0.425293
    CRUDE108  YLD44  0.274332  YLD45  0.41592
    CRUDE108  YLD46  0.332006  YLD47  0.163221
    CRUDE108  YLD48  0.420162  YLD49  0.155369
    CRUDE108  YLD50  0.273817  YLD51  0.23998
    CRUDE108  YLD52  0.508993  YLD53  0.378546
    CRUDE108  YLD54  0.517561  YLD55  0.3245
    CRUDE108  YLD56  0.495222  YLD57  0.413898
    CRUDE108  YLD58  0.314715  YLD59  0.478313
    CRUDE108  YLD60  0.50152  YLD61  0.363508
    CRUDE108  YLD62  0.322047  YLD63  0.197262
    CRUDE108  YLD64  0.307738  YLD65  0.430312
    CRUDE108  YLD66  0.213857  YLD67  0.521796
    CRUDE108  YLD68  0.203028  YLD69  0.52192
    CRUDE108  YLD70  0.265162  YLD71  0.493724
    CRUDE108  YLD72  0.359464  YLD73  0.505443
    CRUDE108  YLD74  0.457547  YLD75  0.163031
    CRUDE108  YLD76  0.180296  YLD77  0.286429
    CRUDE108  YLD78  0.436298  YLD79  0.302858
    CRUDE108  YLD80  0.291518  CAP  1
    CRUDE108  SULF  0.0276293
    CRUDE109  COST  -38.9411  YLD1  0.383906
    CRUDE109  YLD2  0.265172  YLD3  0.180373
    CRUDE109  YLD4  0.216551  YLD5  0.244811
    CRUDE109  YLD6  0.328316  YLD7  0.330248
    CRUDE109  YLD8  0.462085  YLD9  0.173638
    CRUDE109  YLD10  0.30719  YLD11  0.335269
    CRUDE109  YLD12  0.349294  YLD13  0.342906
    CRUDE109  YLD14  0.499054  YLD15  0.493248
    CRUDE109  YLD16  0.511319  YLD17  0.186867
    CRUDE109  YLD18  0.400583  YLD19  0.379057
    CRUDE109  YLD20  0.461124  YLD21  0.536084
    CRUDE109  YLD22  0.444964  YLD23  0.430346
    CRUDE109  YLD24  0.321458  YLD25  0.432783
    CRUDE109  YLD26  0.528752  YLD27  0.472198
    CRUDE109  YLD28  0.389743  YLD29  0.252732
    CRUDE109  YLD30  0.483277  YLD31  0.249955
    CRUDE109  YLD32  0.375713  YLD33  0.297595
    CRUDE109  YLD34  0.251907  YLD35  0.289441
    CRUDE109  YLD36  0.39334  YLD37  0.42156
    CRUDE109  YLD38  0.413905  YLD39  0.282123
    CRUDE109  YLD40  0.338149  YLD41  0.365168
    CRUDE109  YLD42  0.195435  YLD43  0.355033
    CRUDE109  YLD44  0.543696  YLD45  0.285652
    CRUDE109  YLD46  0.456867  YLD47  0.150453
    CRUDE109  YLD48  0.279452  YLD49  0.319142
    CRUDE109  YLD50  0.377643  YLD51  0.501133
    CRUDE109  YLD52  0.495115  YLD53  0.251492
    CRUDE109  YLD54  0.424281  YLD55  0.542337
    CRUDE109  YLD56  0.36022  YLD57  0.241375
    CRUDE109  YLD58  0.15764  YLD59  0.173601
    CRUDE109  YLD60  0.422749  YLD61  0.416794
    CRUDE109  YLD62  0.426429  YLD63  0.274267
    CRUDE109  YLD64  0.544595  YLD65  0.41229
    CRUDE109  YLD66  0.161438  YLD67  0.452642
    CRUDE109  YLD68  0.413891  YLD69  0.496969
    CRUDE109  YLD70  0.444248  YLD71  0.20387
    CRUDE109  YLD72  0.364803  YLD73  0.374183
    CRUDE109  YLD74  0.437512  YLD75  0.299408
    CRUDE109  YLD76  0.155096  YLD77  0.252443
    CRUDE109  YLD78  0.358716  YLD79  0.483334
    CRUDE109  YLD80  0.405429  CAP  1
    CRUDE109  SULF  -0.392873
    CRUDE110  COST  -67.2085  YLD1  0.31012
    CRUDE110  YLD2  0.39598  YLD3  0.181106
    CRUDE110  YLD4  0.458394  YLD5  0.24387
    CRUDE110  YLD6  0.439807  YLD7  0.502984
    CRUDE110  YLD8  0.152812  YLD9  0.509539
    CRUDE110  YLD10  0.360325  YLD11  0.243861
    CRUDE110  YLD12  0.31267  YLD13  0.197397
    CRUDE110  YLD14  0.481247  YLD15  0.463509
    CRUDE110  YLD16  0.505953  YLD17  0.384031
    CRUDE110  YLD18  0.264931  YLD19  0.252697
    CRUDE110  YLD20  0.478936  YLD21  0.321274
    CRUDE110  YLD22  0.364817  YLD23  0.49222
    CRUDE110  YLD24  0.401401  YLD25  0.411739
    CRUDE110  YLD26  0.260068  YLD27  0.180718
    CRUDE110  YLD28  0.28667  YLD29  0.187007
    CRUDE110  YLD30  0.320716  YLD31  0.2925
    CRUDE110  YLD32  0.314117  YLD33  0.491848
    CRUDE110  YLD34  0.51581  YLD35  0.43872
    CRUDE110  YLD36  0.327741  YLD37  0.306787
    CRUDE110  YLD38  0.204793  YLD39  0.15789
    CRUDE110  YLD40  0.532498  YLD41  0.273873
    CRUDE110  YLD42  0.28661  YLD43  0.333463
    CRUDE110  YLD44  0.482703  YLD45  0.178202
    CRUDE110  YLD46  0.413921  YLD47  0.181527
    CRUDE110  YLD48  0.181857  YLD49  0.225044
    CRUDE110  YLD50  0.248397  YLD51  0.342749
    CRUDE110  YLD52  0.353633  YLD53  0.470549
    CRUDE110  YLD54  0.447766  YLD55  0.292501
    CRUDE110  YLD56  0.361341  YLD57  0.319214
    CRUDE110  YLD58  0.163638  YLD59  0.512445
    CRUDE110  YLD60  0.366427  YLD61  0.243476
    CRUDE110  YLD62  0.358438  YLD63  0.461368
    CRUDE110  YLD64  0.322424  YLD65  0.443475
    CRUDE110  YLD66  0.513556  YLD67  0.170764
    CRUDE110  YLD68  0.380054  YLD69  0.157282
    CRUDE110  YLD70  0.460208  YLD71  0.489058
    CRUDE110  YLD72  0.273568  YLD73  0.383356
    CRUDE110  YLD74  0.168333  YLD75  0.402756
    CRUDE110  YLD76  0.393521  YLD77  0.501673
    CRUDE110  YLD78  0.35824  YLD79  0.289131
    CRUDE110  YLD80  0.385902  CAP  1
    CRUDE110  SULF  0.776882
    CRUDE111  COST  -45.403  YLD1  0.429067
    CRUDE111  YLD2  0.514741  YLD3  0.150936
    CRUDE111  YLD4  0.433429  YLD5  0.503484
    CRUDE111  YLD6  0.156328  YLD7  0.192277
    CRUDE111  YLD8  0.172912  YLD9  0.410307
    CRUDE111  YLD10  0.354673  YLD11  0.271278
    CRUDE111  YLD12  0.531208  YLD13  0.534605
    CRUDE111  YLD14  0.236424  YLD15  0.321594
    CRUDE111  YLD16  0.477143  YLD17  0.24051
    CRUDE111  YLD18  0.261898  YLD19  0.471638
    CRUDE111  YLD20  0.511106  YLD21  0.402808
    CRUDE111  YLD22  0.485999  YLD23  0.317316
    CRUDE111  YLD24  0.236062  YLD25  0.499008
    CRUDE111  YLD26  0.309184  YLD27  0.315482
    CRUDE111  YLD28  0.531327  YLD29  0.190377
    CRUDE111  YLD30  0.409494  YLD31  0.220886
    CRUDE111  YLD32  0.283183  YLD33  0.470881
    CRUDE111  YLD34  0.195221  YLD35  0.182036
    CRUDE111  YLD36  0.527598  YLD37  0.255442
    CRUDE111  YLD38  0.424747  YLD39  0.204073
    CRUDE111  YLD40  0.456682  YLD41  0.208013
    CRUDE111  YLD42  0.535849  YLD43  0.406928
    CRUDE111  YLD44  0.33792  YLD45  0.382015
    CRUDE111  YLD46  0.328379  YLD47  0.4552
    CRUDE111  YLD48  0.383374  YLD49  0.158659
    CRUDE111  YLD50  0.348856  YLD51  0.375238
    CRUDE111  YLD52  0.3233  YLD53  0.178095
    CRUDE111  YLD54  0.483751  YLD55  0.395558
    CRUDE111  YLD56  0.534587  YLD57  0.488511
    CRUDE111  YLD58  0.423921  YLD59  0.22557
    CRUDE111  YLD60  0.534295  YLD61  0.345858
    CRUDE111  YLD62  0.540773  YLD63  0.367284
    CRUDE111  YLD64  0.272289  YLD65  0.296395
    CRUDE111  YLD66  0.478637  YLD67  0.484913
    CRUDE111  YLD68  0.162359  YLD69  0.201427
    CRUDE111  YLD70  0.473529  YLD71  0.38708
    CRUDE111  YLD72  0.331803  YLD73  0.341225
    CRUDE111  YLD74  0.231314  YLD75  0.3589
    CRUDE111  YLD76  0.176186  YLD77  0.369389
    CRUDE111  YLD78  0.179484  YLD79  0.163702
    CRUDE111  YLD80  0.20471  CAP  1
    CRUDE111  SULF  0.188163
    CRUDE112  COST  -55.4407  YLD1  0.222027
    CRUDE112  YLD2  0.205646  YLD3  0.53708
    CRUDE112  YLD4  0.33943  YLD5  0.32681
    CRUDE112  YLD6  0.286436  YLD7  0.54531
    CRUDE112  YLD8  0.240089  YLD9  0.499691
    CRUDE112  YLD10  0.216251  YLD11  0.265988
    CRUDE112  YLD12  0.359016  YLD13  0.435764
    CRUDE112  YLD14  0.47373  YLD15  0.230426
    CRUDE112  YLD16  0.354059  YLD17  0.508279
    CRUDE112  YLD18  0.282799  YLD19  0.320375
    CRUDE112  YLD20  0.35996  YLD21  0.440445
    CRUDE112  YLD22  0.285729  YLD23  0.273765
    CRUDE112  YLD24  0.400987  YLD25  0.247659
    CRUDE112  YLD26  0.522592  YLD27  0.421555
    CRUDE112  YLD28  0.511276  YLD29  0.229605
    CRUDE112  YLD30  0.440907  YLD31  0.428048
    CRUDE112  YLD32  0.199983  YLD33  0.289504
    CRUDE112  YLD34  0.45297  YLD35  0.223268
    CRUDE112  YLD36  0.169136  YLD37  0.531856
    CRUDE112  YLD38  0.51532  YLD39  0.428079
    CRUDE112  YLD40  0.537823  YLD41  0.444722
    CRUDE112  YLD42  0.353689  YLD43  0.421924
    CRUDE112  YLD44  0.371839  YLD45  0.437878
    CRUDE112  YLD46  0.239864  YLD47  0.383831
    CRUDE112  YLD48  0.529148  YLD49  0.358008
    CRUDE112  YLD50  0.473737  YLD51  0.387475
    CRUDE112  YLD52  0.300742  YLD53  0.425582
    CRUDE112  YLD54  0.290654  YLD55  0.27466
    CRUDE112  YLD56  0.278353  YLD57  0.418081
    CRUDE112  YLD58  0.485096  YLD59  0.252608
    CRUDE112  YLD60  0.197982  YLD61  0.30635
    CRUDE112  YLD62  0.214984  YLD63  0.482933
    CRUDE112  YLD64  0.296151  YLD65  0.311808
    CRUDE112  YLD66  0.539033  YLD67  0.525229
    CRUDE112  YLD68  0.230569  YLD69  0.348439
    CRUDE112  YLD70  0.378305  YLD71  0.522519
    CRUDE112  YLD72  0.435779  YLD73  0.36959
    CRUDE112  YLD74  0.374182  YLD75  0.277727
    CRUDE112  YLD76  0.302152  YLD77  0.264063
    CRUDE112  YLD78  0.354878  YLD79  0.259712
    CRUDE112  YLD80  0.48798  CAP  1
    CRUDE112  SULF  0.497678
    CRUDE113  COST  -42.5231  YLD1  0.428601
    CRUDE113  YLD2  0.190318  YLD3  0.152102
    CRUDE113  YLD4  0.173168  YLD5  0.282356
    CRUDE113  YLD6  0.477483  YLD7  0.327309
    CRUDE113  YLD8  0.20254  YLD9  0.150075
    CRUDE113  YLD10  0.408296  YLD11  0.375316
    CRUDE113  YLD12  0.237647  YLD13  0.530987
    CRUDE113  YLD14  0.464543  YLD15  0.35568
    CRUDE113  YLD16  0.444496  YLD17  0.4634
    CRUDE113  YLD18  0.415119  YLD19  0.547874
    CRUDE113  YLD20  0.330477  YLD21  0.296785
    CRUDE113  YLD22  0.43356  YLD23  0.52469
    CRUDE113  YLD24  0.519466  YLD25  0.330044
    CRUDE113  YLD26  0.285292  YLD27  0.244719
    CRUDE113  YLD28  0.435483  YLD29  0.54994
    CRUDE113  YLD30  0.403502  YLD31  0.396496
    CRUDE113  YLD32  0.19262  YLD33  0.427551
    CRUDE113  YLD34  0.453019  YLD35  0.385714
    CRUDE113  YLD36  0.490069  YLD37  0.391432
    CRUDE113  YLD38  0.393433  YLD39  0.1981
    CRUDE113  YLD40  0.448502  YLD41  0.390555
    CRUDE113  YLD42  0.401022  YLD43  0.373492
    CRUDE113  YLD44  0.487271  YLD45  0.187696
    CRUDE113  YLD46  0.440745  YLD47  0.165247
    CRUDE113  YLD48  0.344029  YLD49  0.421991
    CRUDE113  YLD50  0.338215  YLD51  0.405847
    CRUDE113  YLD52  0.432907  YLD53  0.219978
    CRUDE113  YLD54  0.17515  YLD55  0.546238
    CRUDE113  YLD56  0.341816  YLD57  0.443108
    CRUDE113  YLD58  0.433081  YLD59  0.171332
    CRUDE113  YLD60  0.445164  YLD61  0.185883
    CRUDE113  YLD62  0.390267  YLD63  0.194638
    CRUDE113  YLD64  0.308771  YLD65  0.371482
    CRUDE113  YLD66  0.173295  YLD67  0.547476
    CRUDE113  YLD68  0.257029  YLD69  0.334382
    CRUDE113  YLD70  0.154203  YLD71  0.500416
    CRUDE113  YLD72  0.310972  YLD73  0.229232
    CRUDE113  YLD74  0.279051  YLD75  0.20777
    CRUDE113  YLD76  0.151443  YLD77  0.524035
    CRUDE113  YLD78  0.479098  YLD79  0.545978
    CRUDE113  YLD80  0.340076  CAP  1
    CRUDE113  SULF  0.344354
    CRUDE114  COST  -78.9446  YLD1  0.314664
    CRUDE114  YLD2  0.252406  YLD3  0.191237
    CRUDE114  YLD4  0.179878  YLD5  0.329511
    CRUDE114  YLD6  0.391288  YLD7  0.169132
    CRUDE114  YLD8  0.309534  YLD9  0.217632
    CRUDE114  YLD10  0.167911  YLD11  0.197981
    CRUDE114  YLD12  0.333585  YLD13  0.240691
    CRUDE114  YLD14  0.402887  YLD15  0.444492
    CRUDE114  YLD16  0.355159  YLD17  0.429882
    CRUDE114  YLD18  0.498254  YLD19  0.187
    CRUDE114  YLD20  0.282157  YLD21  0.208891
    CRUDE114  YLD22  0.547514  YLD23  0.356271
    CRUDE114  YLD24  0.549007  YLD25  0.520331
    CRUDE114  YLD26  0.515551  YLD27  0.183585
    CRUDE114  YLD28  0.477258  YLD29  0.150874
    CRUDE114  YLD30  0.206203  YLD31  0.343151
    CRUDE114  YLD32  0.425343  YLD33  0.213853
    CRUDE114  YLD34  0.473908  YLD35  0.373997
    CRUDE114  YLD36  0.549033  YLD37  0.523581
    CRUDE114  YLD38  0.373942  YLD39  0.242294
    CRUDE114  YLD40  0.22024  YLD41  0.412181
    CRUDE114  YLD42  0.292555  YLD43  0.399977
    CRUDE114  YLD44  0.342392  YLD45  0.403507
    CRUDE114  YLD46  0.433145  YLD47  0.345239
    CRUDE114  YLD48  0.512444  YLD49  0.1843
    CRUDE114  YLD50  0.529591  YLD51  0.348222
    CRUDE114  YLD52  0.418666  YLD53  0.388554
    CRUDE114  YLD54  0.399024  YLD55  0.328044
    CRUDE114  YLD56  0.474685  YLD57  0.38495
    CRUDE114  YLD58  0.312355  YLD59  0.53616
    CRUDE114  YLD60  0.201344  YLD61  0.400223
    CRUDE114  YLD62  0.346496  YLD63  0.518222
    CRUDE114  YLD64  0.478616  YLD65  0.525211
    CRUDE114  YLD66  0.212471  YLD67  0.200107
    CRUDE114  YLD68  0.179023  YLD69  0.433356
    CRUDE114  YLD70  0.454671  YLD71  0.420814
    CRUDE114  YLD72  0.225194  YLD73  0.368747
    CRUDE114  YLD74  0.4793  YLD75  0.371199
    CRUDE114  YLD76  0.396091  YLD77  0.42634
    CRUDE114  YLD78  0.52872  YLD79  0.420668
    CRUDE114  YLD80  0.214948  CAP  1
    CRUDE114  SULF  0.00402913
    CRUDE115  COST  -75.3049  YLD1  0.499727
    CRUDE115  YLD2  0.440438  YLD3  0.275839
    CRUDE115  YLD4  0.490966  YLD5  0.417756
    CRUDE115  YLD6  0.284891  YLD7  0.165209
    CRUDE115  YLD8  0.519049  YLD9  0.305904
    CRUDE115  YLD10  0.454763  YLD11  0.516717
    CRUDE115  YLD12  0.517755  YLD13  0.501736
    CRUDE115  YLD14  0.299408  YLD15  0.324568
    CRUDE115  YLD16  0.497842  YLD17  0.396778
    CRUDE115  YLD18  0.453635  YLD19  0.462139
    CRUDE115  YLD20  0.385686  YLD21  0.232632
    CRUDE115  YLD22  0.275852  YLD23  0.348902
    CRUDE115  YLD24  0.16298  YLD25  0.413997
    CRUDE115  YLD26  0.542418  YLD27  0.458008
    CRUDE115  YLD28  0.416933  YLD29  0.405469
    CRUDE115  YLD30  0.32718  YLD31  0.30613
    CRUDE115  YLD32  0.253918  YLD33  0.508513
    CRUDE115  YLD34  0.504646  YLD35  0.445571
    CRUDE115  YLD36  0.504777  YLD37  0.231365
    CRUDE115  YLD38  0.534447  YLD39  0.290295
    CRUDE115  YLD40  0.175814  YLD41  0.153468
    CRUDE115  YLD42  0.279395  YLD43  0.188635
    CRUDE115  YLD44  0.232409  YLD45  0.264546
    CRUDE115  YLD46  0.211318  YLD47  0.434812
    CRUDE115  YLD48  0.484009  YLD49  0.334368
    CRUDE115  YLD50  0.489  YLD51  0.157149
    CRUDE115  YLD52  0.228472  YLD53  0.484277
    CRUDE115  YLD54  0.225469  YLD55  0.403652
    CRUDE115  YLD56  0.453565  YLD57  0.329835
    CRUDE115  YLD58  0.162454  YLD59  0.490804
    CRUDE115  YLD60  0.302738  YLD61  0.348086
    CRUDE115  YLD62  0.227787  YLD63  0.523965
    CRUDE115  YLD64  0.182406  YLD65  0.4396
    CRUDE115  YLD66  0.192125  YLD67  0.395309
    CRUDE115  YLD68  0.291888  YLD69  0.185885
    CRUDE115  YLD70  0.192639  YLD71  0.413129
    CRUDE115  YLD72  0.366344  YLD73  0.548869
    CRUDE115  YLD74  0.463996  YLD75  0.264367
    CRUDE115  YLD76  0.320166  YLD77  0.23828
    CRUDE115  YLD78  0.192673  YLD79  0.510342
    CRUDE115  YLD80  0.199131  CAP  1
    CRUDE115  SULF  -0.168719
    CRUDE116  COST  -47.5039  YLD1  0.356094
    CRUDE116  YLD2  0.387185  YLD3  0.472972
    CRUDE116  YLD4  0.546059  YLD5  0.208303
    CRUDE116  YLD6  0.51221  YLD7  0.448483
    CRUDE116  YLD8  0.338824  YLD9  0.301801
    CRUDE116  YLD10  0.528658  YLD11  0.438262
    CRUDE116  YLD12  0.220438  YLD13  0.473516
    CRUDE116  YLD14  0.2586  YLD15  0.416709
    CRUDE116  YLD16  0.31111  YLD17  0.495386
    CRUDE116  YLD18  0.441012  YLD19  0.419481
    CRUDE116  YLD20  0.331711  YLD21  0.275307
    CRUDE116  YLD22  0.419607  YLD23  0.221366
    CRUDE116  YLD24  0.244235  YLD25  0.305507
    CRUDE116  YLD26  0.414724  YLD27  0.40207
    CRUDE116  YLD28  0.200233  YLD29  0.206497
    CRUDE116  YLD30  0.374575  YLD31  0.513625
    CRUDE116  YLD32  0.251865  YLD33  0.311796
    CRUDE116  YLD34  0.255214  YLD35  0.475045
    CRUDE116  YLD36  0.474175  YLD37  0.208758
    CRUDE116  YLD38  0.400959  YLD39  0.453094
    CRUDE116  YLD40  0.381065  YLD41  0.521007
    CRUDE116  YLD42  0.159259  YLD43  0.530706
    CRUDE116  YLD44  0.481378  YLD45  0.455698
    CRUDE116  YLD46  0.515901  YLD47  0.497581
    CRUDE116  YLD48  0.208965  YLD49  0.447451
    CRUDE116  YLD50  0.283216  YLD51  0.283889
    CRUDE116  YLD52  0.418583  YLD53  0.452032
    CRUDE116  YLD54  0.377617  YLD55  0.200689
    CRUDE116  YLD56  0.25632  YLD57  0.453621
    CRUDE116  YLD58  0.536961  YLD59  0.515274
    CRUDE116  YLD60  0.384194  YLD61  0.26007
    CRUDE116  YLD62  0.449996  YLD63  0.212125
    CRUDE116  YLD64  0.276603  YLD65  0.370396
    CRUDE116  YLD66  0.423366  YLD67  0.229783
    CRUDE116  YLD68  0.160881  YLD69  0.407942
    CRUDE116  YLD70  0.196749  YLD71  0.235266
    CRUDE116  YLD72  0.240135  YLD73  0.376419
    CRUDE116  YLD74  0.506632  YLD75  0.2432
    CRUDE116  YLD76  0.200808  YLD77  0.395857
    CRUDE116  YLD78  0.402466  YLD79  0.459946
    CRUDE116  YLD80  0.536221  CAP  1
    CRUDE116  SULF  0.526621
    CRUDE117  COST  -63.4462  YLD1  0.539244
    CRUDE117  YLD2  0.190885  YLD3  0.53484
    CRUDE117  YLD4  0.420421  YLD5  0.329774
    CRUDE117  YLD6  0.459049  YLD7  0.413614
    CRUDE117  YLD8  0.155361  YLD9  0.240692
    CRUDE117  YLD10  0.285908  YLD11  0.310578
    CRUDE117  YLD12  0.235583  YLD13  0.420861
    CRUDE117  YLD14  0.242713  YLD15  0.187731
    CRUDE117  YLD16  0.538094  YLD17  0.239225
    CRUDE117  YLD18  0.343756  YLD19  0.457
    CRUDE117  YLD20  0.330626  YLD21  0.404427
    CRUDE117  YLD22  0.487726  YLD23  0.193262
    CRUDE117  YLD24  0.274123  YLD25  0.202565
    CRUDE117  YLD26  0.476756  YLD27  0.545396
    CRUDE117  YLD28  0.456217  YLD29  0.518251
    CRUDE117  YLD30  0.489618  YLD31  0.16165
    CRUDE117  YLD32  0.549278  YLD33  0.33225
    CRUDE117  YLD34  0.239824  YLD35  0.201432
    CRUDE117  YLD36  0.299722  YLD37  0.492329
    CRUDE117  YLD38  0.25382  YLD39  0.38296
    CRUDE117  YLD40  0.293125  YLD41  0.176516
    CRUDE117  YLD42  0.350133  YLD43  0.466309
    CRUDE117  YLD44  0.365109  YLD45  0.365846
    CRUDE117  YLD46  0.175762  YLD47  0.523615
    CRUDE117  YLD48  0.433268  YLD49  0.544323
    CRUDE117  YLD50  0.309985  YLD51  0.223549
    CRUDE117  YLD52  0.250972  YLD53  0.451177
    CRUDE117  YLD54  0.445804  YLD55  0.44321
    CRUDE117  YLD56  0.210436  YLD57  0.17717
    CRUDE117  YLD58  0.544534  YLD59  0.488886
    CRUDE117  YLD60  0.444835  YLD61  0.339474
    CRUDE117  YLD62  0.260203  YLD63  0.16355
    CRUDE117  YLD64  0.536527  YLD65  0.458165
    CRUDE117  YLD66  0.392404  YLD67  0.255004
    CRUDE117  YLD68  0.371273  YLD69  0.396548
    CRUDE117  YLD70  0.39225  YLD71  0.196701
    CRUDE117  YLD72  0.539715  YLD73  0.167761
    CRUDE117  YLD74  0.375172  YLD75  0.309583
    CRUDE117  YLD76  0.268547  YLD77  0.498144
    CRUDE117  YLD78  0.377339  YLD79  0.365882
    CRUDE117  YLD80  0.262614  CAP  1
    CRUDE117  SULF  1.24953
    CRUDE118  COST  -41.5093  YLD1  0.390774
    CRUDE118  YLD2  0.5175  YLD3  0.466005
    CRUDE118  YLD4  0.328383  YLD5  0.385154
    CRUDE118  YLD6  0.255958  YLD7  0.470852
    CRUDE118  YLD8  0.263098  YLD9  0.302645
    CRUDE118  YLD10  0.356896  YLD11  0.21345
    CRUDE118  YLD12  0.155212  YLD13  0.400012
    CRUDE118  YLD14  0.277444  YLD15  0.449202
    CRUDE118  YLD16  0.522929  YLD17  0.499244
    CRUDE118  YLD18  0.427522  YLD19  0.273012
    CRUDE118  YLD20  0.524771  YLD21  0.309312
    CRUDE118  YLD22  0.516323  YLD23  0.486843
    CRUDE118  YLD24  0.30965  YLD25  0.254994
    CRUDE118  YLD26  0.449818  YLD27  0.287723
    CRUDE118  YLD28  0.234077  YLD29  0.187453
    CRUDE118  YLD30  0.327458  YLD31  0.457643
    CRUDE118  YLD32  0.22517  YLD33  0.432304
    CRUDE118  YLD34  0.336202  YLD35  0.157352
    CRUDE118  YLD36  0.242526  YLD37  0.422367
    CRUDE118  YLD38  0.266956  YLD39  0.4256
    CRUDE118  YLD40  0.260183  YLD41  0.296722
    CRUDE118  YLD42  0.343444  YLD43  0.299571
    CRUDE118  YLD44  0.211217  YLD45  0.201615
    CRUDE118  YLD46  0.172015  YLD47  0.280976
    CRUDE118  YLD48  0.324186  YLD49  0.416876
    CRUDE118  YLD50  0.319331  YLD51  0.422057
    CRUDE118  YLD52  0.157423  YLD53  0.357138
    CRUDE118  YLD54  0.463455  YLD55  0.257684
    CRUDE118  YLD56  0.430282  YLD57  0.419264
    CRUDE118  YLD58  0.369746  YLD59  0.341812
    CRUDE118  YLD60  0.151486  YLD61  0.460119
    CRUDE118  YLD62  0.302684  YLD63  0.545937
    CRUDE118  YLD64  0.211241  YLD65  0.298356
    CRUDE118  YLD66  0.293734  YLD67  0.448234
    CRUDE118  YLD68  0.2346  YLD69  0.243448
    CRUDE118  YLD70  0.543408  YLD71  0.316157
    CRUDE118  YLD72  0.306136  YLD73  0.468574
    CRUDE118  YLD74  0.290831  YLD75  0.464197
    CRUDE118  YLD76  0.377864  YLD77  0.428461
    CRUDE118  YLD78  0.506125  YLD79  0.209476
    CRUDE118  YLD80  0.513437  CAP  1
    CRUDE118  SULF  0.0451182
    CRUDE119  COST  -58.6002  YLD1  0.23954
    CRUDE119  YLD2  0.466034  YLD3  0.426224
    CRUDE119  YLD4  0.409029  YLD5  0.529433
    CRUDE119  YLD6  0.408116  YLD7  0.192147
    CRUDE119  YLD8  0.167838  YLD9  0.201539
    CRUDE119  YLD10  0.301564  YLD11  0.502797
    CRUDE119  YLD12  0.155676  YLD13  0.27662
    CRUDE119  YLD14  0.511423  YLD15  0.475085
    CRUDE119  YLD16  0.446641  YLD17  0.465797
    CRUDE119  YLD18  0.371105  YLD19  0.346822
    CRUDE119  YLD20  0.543613  YLD21  0.152726
    CRUDE119  YLD22  0.437173  YLD23  0.395653
    CRUDE119  YLD24  0.246903  YLD25  0.382486
    CRUDE119  YLD26  0.429814  YLD27  0.174705
    CRUDE119  YLD28  0.279377  YLD29  0.532025
    CRUDE119  YLD30  0.517499  YLD31  0.510764
    CRUDE119  YLD32  0.209224  YLD33  0.478336
    CRUDE119  YLD34  0.256036  YLD35  0.425855
    CRUDE119  YLD36  0.44394  YLD37  0.224631
    CRUDE119  YLD38  0.432123  YLD39  0.376805
    CRUDE119  YLD40  0.472884  YLD41  0.311085
    CRUDE119  YLD42  0.213132  YLD43  0.375125
    CRUDE119  YLD44  0.352234  YLD45  0.360608
    CRUDE119  YLD46  0.22494  YLD47  0.204333
    CRUDE119  YLD48  0.250099  YLD49  0.247936
    CRUDE119  YLD50  0.400472  YLD51  0.172682
    CRUDE119  YLD52  0.429683  YLD53  0.506298
    CRUDE119  YLD54  0.270736  YLD55  0.329445
    CRUDE119  YLD56  0.253062  YLD57  0.548882
    CRUDE119  YLD58  0.178268  YLD59  0.519633
    CRUDE119  YLD60  0.254239  YLD61  0.470663
    CRUDE119  YLD62  0.299932  YLD63  0.342901
    CRUDE119  YLD64  0.447041  YLD65  0.442187
    CRUDE119  YLD66  0.172969  YLD67  0.541067
    CRUDE119  YLD68  0.264801  YLD69  0.366958
    CRUDE119  YLD70  0.247016  YLD71  0.224632
    CRUDE119  YLD72  0.513866  YLD73  0.30859
    CRUDE119  YLD74  0.392426  YLD75  0.345141
    CRUDE119  YLD76  0.412685  YLD77  0.247904
    CRUDE119  YLD78  0.450498  YLD79  0.289458
    CRUDE119  YLD80  0.314234  CAP  1
    CRUDE119  SULF  0.934008
    CRUDE120  COST  -32.1802  YLD1  0.478716
    CRUDE120  YLD2  0.159209  YLD3  0.35852
    CRUDE120  YLD4  0.387758  YLD5  0.251011
    CRUDE120  YLD6  0.3883  YLD7  0.164228
    CRUDE120  YLD8  0.164515  YLD9  0.315104
    CRUDE120  YLD10  0.152684  YLD11  0.479511
    CRUDE120  YLD12  0.481757  YLD13  0.476564
    CRUDE120  YLD14  0.181056  YLD15  0.432735
    CRUDE120  YLD16  0.261766  YLD17  0.449264
    CRUDE120  YLD18  0.2365  YLD19  0.468603
    CRUDE120  YLD20  0.468594  YLD21  0.359363
    CRUDE120  YLD22  0.263443  YLD23  0.28033
    CRUDE120  YLD24  0.231395  YLD25  0.437267
    CRUDE120  YLD26  0.272772  YLD27  0.44374
    CRUDE120  YLD28  0.477694  YLD29  0.394371
    CRUDE120  YLD30  0.32615  YLD31  0.328542
    CRUDE120  YLD32  0.189474  YLD33  0.244537
    CRUDE120  YLD34  0.443724  YLD35  0.270557
    CRUDE120  YLD36  0.27183  YLD37  0.257744
    CRUDE120  YLD38  0.444175  YLD39  0.423437
    CRUDE120  YLD40  0.296797  YLD41  0.150542
    CRUDE120  YLD42  0.45573  YLD43  0.16893
    CRUDE120  YLD44  0.315281  YLD45  0.308295
    CRUDE120  YLD46  0.513784  YLD47  0.24477
    CRUDE120  YLD48  0.424775  YLD49  0.436621
    CRUDE120  YLD50  0.264718  YLD51  0.375521
    CRUDE120  YLD52  0.407917  YLD53  0.385242
    CRUDE120  YLD54  0.354973  YLD55  0.503253
    CRUDE120  YLD56  0.51907  YLD57  0.462077
    CRUDE120  YLD58  0.366389  YLD59  0.537789
    CRUDE120  YLD60  0.36528  YLD61  0.40981
    CRUDE120  YLD62  0.247682  YLD63  0.37883
    CRUDE120  YLD64  0.292557  YLD65  0.31427
    CRUDE120  YLD66  0.405865  YLD67  0.387942
    CRUDE120  YLD68  0.514189  YLD69  0.238883
    CRUDE120  YLD70  0.408324  YLD71  0.190967
    CRUDE120  YLD72  0.240222  YLD73  0.21147
    CRUDE120  YLD74  0.185655  YLD75  0.236597
    CRUDE120  YLD76  0.334934  YLD77  0.409539
    CRUDE120  YLD78  0.536105  YLD79  0.383496
    CRUDE120  YLD80  0.304369  CAP  1
    CRUDE120  SULF  1.6798
    CRUDE121  COST  -53.4972  YLD1  0.288033
    CRUDE121  YLD2  0.410547  YLD3  0.184682
    CRUDE121  YLD4  0.303445  YLD5  0.2937
    CRUDE121  YLD6  0.310475  YLD7  0.353432
    CRUDE121  YLD8  0.260288  YLD9  0.470942
    CRUDE121  YLD10  0.30435  YLD11  0.438689
    CRUDE121  YLD12  0.442849  YLD13  0.350606
    CRUDE121  YLD14  0.481549  YLD15  0.536905
    CRUDE121  YLD16  0.202661  YLD17  0.374502
    CRUDE121  YLD18  0.233435  YLD19  0.243017
    CRUDE121  YLD20  0.452703  YLD21  0.518605
    CRUDE121  YLD22  0.280513  YLD23  0.226694
    CRUDE121  YLD24  0.531822  YLD25  0.199769
    CRUDE121  YLD26  0.172838  YLD27  0.358693
    CRUDE121  YLD28  0.36461  YLD29  0.150507
    CRUDE121  YLD30  0.369512  YLD31  0.370276
    CRUDE121  YLD32  0.381922  YLD33  0.41454
    CRUDE121  YLD34  0.404376  YLD35  0.400394
    CRUDE121  YLD36  0.220416  YLD37  0.470266
    CRUDE121  YLD38  0.271398  YLD39  0.151137
    CRUDE121  YLD40  0.2768  YLD41  0.348836
    CRUDE121  YLD42  0.34707  YLD43  0.166491
    CRUDE121  YLD44  0.500737  YLD45  0.222142
    CRUDE121  YLD46  0.357999  YLD47  0.460469
    CRUDE121  YLD48  0.447064  YLD49  0.389172
    CRUDE121  YLD50  0.5377  YLD51  0.234253
    CRUDE121  YLD52  0.314324  YLD53  0.517007
    CRUDE121  YLD54  0.398386  YLD55  0.538221
    CRUDE121  YLD56  0.201699  YLD57  0.266225
    CRUDE121  YLD58  0.506935  YLD59  0.351027
    CRUDE121  YLD60  0.363149  YLD61  0.337099
    CRUDE121  YLD62  0.322282  YLD63  0.396362
    CRUDE121  YLD64  0.382714  YLD65  0.261865
    CRUDE121  YLD66  0.378048  YLD67  0.490234
    CRUDE121  YLD68  0.351127  YLD69  0.208769
    CRUDE121  YLD70  0.271461  YLD71  0.270931
    CRUDE121  YLD72  0.225684  YLD73  0.495008
    CRUDE121  YLD74  0.153834  YLD75  0.196761
    CRUDE121  YLD76  0.471584  YLD77  0.397664
    CRUDE121  YLD78  0.534013  YLD79  0.498253
    CRUDE121  YLD80  0.430372  CAP  1
    CRUDE121  SULF  -0.679671
    CRUDE122  COST  -74.1747  YLD1  0.289048
    CRUDE122  YLD2  0.458499  YLD3  0.533268
    CRUDE122  YLD4  0.17625  YLD5  0.301743
    CRUDE122  YLD6  0.296782  YLD7  0.305038
    CRUDE122  YLD8  0.260245  YLD9  0.341628
    CRUDE122  YLD10  0.466688  YLD11  0.258619
    CRUDE122  YLD12  0.292016  YLD13  0.178357
    CRUDE122  YLD14  0.289556  YLD15  0.480661
    CRUDE122  YLD16  0.491881  YLD17  0.248498
    CRUDE122  YLD18  0.268557  YLD19  0.240413
    CRUDE122  YLD20  0.422223  YLD21  0.474831
    CRUDE122  YLD22  0.158303  YLD23  0.372199
    CRUDE122  YLD24  0.517409  YLD25  0.389839
    CRUDE122  YLD26  0.287221  YLD27  0.235282
    CRUDE122  YLD28  0.493976  YLD29  0.507603
    CRUDE122  YLD30  0.468514  YLD31  0.527785
    CRUDE122  YLD32  0.401146  YLD33  0.306799
    CRUDE122  YLD34  0.499995  YLD35  0.210218
    CRUDE122  YLD36  0.46461  YLD37  0.331547
    CRUDE122  YLD38  0.288138  YLD39  0.522359
    CRUDE122  YLD40  0.489995  YLD41  0.451124
    CRUDE122  YLD42  0.285598  YLD43  0.250319
    CRUDE122  YLD44  0.200422  YLD45  0.486606
    CRUDE122  YLD46  0.465176  YLD47  0.538594
    CRUDE122  YLD48  0.221959  YLD49  0.23472
    CRUDE122  YLD50  0.393474  YLD51  0.529538
    CRUDE122  YLD52  0.360274  YLD53  0.368609
    CRUDE122  YLD54  0.477792  YLD55  0.319829
    CRUDE122  YLD56  0.277326  YLD57  0.261128
    CRUDE122  YLD58  0.421994  YLD59  0.22025
    CRUDE122  YLD60  0.405051  YLD61  0.3803
    CRUDE122  YLD62  0.339338  YLD63  0.465867
    CRUDE122  YLD64  0.189819  YLD65  0.39389
    CRUDE122  YLD66  0.195161  YLD67  0.153554
    CRUDE122  YLD68  0.257606  YLD69  0.379254
    CRUDE122  YLD70  0.50949  YLD71  0.494196
    CRUDE122  YLD72  0.39676  YLD73  0.229189
    CRUDE122  YLD74  0.156837  YLD75  0.349595
    CRUDE122  YLD76  0.194976  YLD77  0.478337
    CRUDE122  YLD78  0.240274  YLD79  0.25747
    CRUDE122  YLD80  0.153953  CAP  1
    CRUDE122  SULF  0.865252
    CRUDE123  COST  -77.6536  YLD1  0.162722
    CRUDE123  YLD2  0.299774  YLD3  0.453357
    CRUDE123  YLD4  0.478605  YLD5  0.392215
    CRUDE123  YLD6  0.287424  YLD7  0.334779
    CRUDE123  YLD8  0.464851  YLD9  0.1572
    CRUDE123  YLD10  0.388396  YLD11  0.310979
    CRUDE123  YLD12  0.429324  YLD13  0.275145
    CRUDE123  YLD14  0.35864  YLD15  0.511237
    CRUDE123  YLD16  0.216121  YLD17  0.319419
    CRUDE123  YLD18  0.514321  YLD19  0.37042
    CRUDE123  YLD20  0.21643  YLD21  0.480085
    CRUDE123  YLD22  0.454354  YLD23  0.383568
    CRUDE123  YLD24  0.168797  YLD25  0.370141
    CRUDE123  YLD26  0.416774  YLD27  0.462692
    CRUDE123  YLD28  0.235214  YLD29  0.358685
    CRUDE123  YLD30  0.383227  YLD31  0.234911
    CRUDE123  YLD32  0.296091  YLD33  0.297481
    CRUDE123  YLD34  0.183095  YLD35  0.337616
    CRUDE123  YLD36  0.275017  YLD37  0.418216
    CRUDE123  YLD38  0.546423  YLD39  0.194368
    CRUDE123  YLD40  0.488515  YLD41  0.479307
    CRUDE123  YLD42  0.208764  YLD43  0.425881
    CRUDE123  YLD44  0.500084  YLD45  0.154411
    CRUDE123  YLD46  0.241137  YLD47  0.336557
    CRUDE123  YLD48  0.515778  YLD49  0.490444
    CRUDE123  YLD50  0.309761  YLD51  0.284216
    CRUDE123  YLD52  0.528868  YLD53  0.352386
    CRUDE123  YLD54  0.454555  YLD55  0.483921
    CRUDE123  YLD56  0.171915  YLD57  0.416887
    CRUDE123  YLD58  0.437996  YLD59  0.413449
    CRUDE123  YLD60  0.271541  YLD61  0.304006
    CRUDE123  YLD62  0.447689  YLD63  0.474795
    CRUDE123  YLD64  0.272565  YLD65  0.424751
    CRUDE123  YLD66  0.513564  YLD67  0.164653
    CRUDE123  YLD68  0.389385  YLD69  0.54099
    CRUDE123  YLD70  0.387407  YLD71  0.156859
    CRUDE123  YLD72  0.461752  YLD73  0.518307
    CRUDE123  YLD74  0.313017  YLD75  0.467747
    CRUDE123  YLD76  0.183818  YLD77  0.221253
    CRUDE123  YLD78  0.44014  YLD79  0.198491
    CRUDE123  YLD80  0.285236  CAP  1
    CRUDE123  SULF  -0.510744
    CRUDE124  COST  -57.6382  YLD1  0.369486
    CRUDE124  YLD2  0.177569  YLD3  0.40558
    CRUDE124  YLD4  0.298733  YLD5  0.292693
    CRUDE124  YLD6  0.396862  YLD7  0.546635
    CRUDE124  YLD8  0.539934  YLD9  0.318578
    CRUDE124  YLD10  0.190504  YLD11  0.191099
    CRUDE124  YLD12  0.308082  YLD13  0.524119
    CRUDE124  YLD14  0.467794  YLD15  0.523428
    CRUDE124  YLD16  0.491704  YLD17  0.467428
    CRUDE124  YLD18  0.368966  YLD19  0.359425
    CRUDE124  YLD20  0.173642  YLD21  0.468023
    CRUDE124  YLD22  0.167096  YLD23  0.232797
    CRUDE124  YLD24  0.285525  YLD25  0.355582
    CRUDE124  YLD26  0.191012  YLD27  0.231502
    CRUDE124  YLD28  0.393111  YLD29  0.255068
    CRUDE124  YLD30  0.534087  YLD31  0.358054
    CRUDE124  YLD32  0.364165  YLD33  0.42601
    CRUDE124  YLD34  0.516033  YLD35  0.35177
    CRUDE124  YLD36  0.515777  YLD37  0.277341
    CRUDE124  YLD38  0.190781  YLD39  0.3125
    CRUDE124  YLD40  0.292547  YLD41  0.501759
    CRUDE124  YLD42  0.370864  YLD43  0.490859
    CRUDE124  YLD44  0.354884  YLD45  0.274851
    CRUDE124  YLD46  0.346089  YLD47  0.272141
    CRUDE124  YLD48  0.450459  YLD49  0.320962
    CRUDE124  YLD50  0.408004  YLD51  0.280088
    CRUDE124  YLD52  0.38808  YLD53  0.238941
    CRUDE124  YLD54  0.54519  YLD55  0.17134
    CRUDE124  YLD56  0.431322  YLD57  0.508342
    CRUDE124  YLD58  0.183988  YLD59  0.540175
    CRUDE124  YLD60  0.366212  YLD61  0.200623
    CRUDE124  YLD62  0.456027  YLD63  0.22757
    CRUDE124  YLD64  0.350346  YLD65  0.333717
    CRUDE124  YLD66  0.22958  YLD67  0.38869
    CRUDE124  YLD68  0.230669  YLD69  0.244773
    CRUDE124  YLD70  0.232991  YLD71  0.267055
    CRUDE124  YLD72  0.376706  YLD73  0.326719
    CRUDE124  YLD74  0.241231  YLD75  0.411127
    CRUDE124  YLD76  0.167698  YLD77  0.429854
    CRUDE124  YLD78  0.362209  YLD79  0.373533
    CRUDE124  YLD80  0.271058  CAP  1
    CRUDE124  SULF  0.286345
    CRUDE125  COST  -79.0166  YLD1  0.363769
    CRUDE125  YLD2  0.180928  YLD3  0.453614
    CRUDE125  YLD4  0.477514  YLD5  0.363405
    CRUDE125  YLD6  0.326964  YLD7  0.5383
    CRUDE125  YLD8  0.298483  YLD9  0.16087
    CRUDE125  YLD10  0.488856  YLD11  0.225616
    CRUDE125  YLD12  0.531159  YLD13  0.490272
    CRUDE125  YLD14  0.503751  YLD15  0.470539
    CRUDE125  YLD16  0.346306  YLD17  0.162711
    CRUDE125  YLD18  0.443562  YLD19  0.262905
    CRUDE125  YLD20  0.426291  YLD21  0.279492
    CRUDE125  YLD22  0.495861  YLD23  0.490562
    CRUDE125  YLD24  0.312059  YLD25  0.426049
    CRUDE125  YLD26  0.154767  YLD27  0.254265
    CRUDE125  YLD28  0.183516  YLD29  0.456912
    CRUDE125  YLD30  0.414134  YLD31  0.339888
    CRUDE125  YLD32  0.46536  YLD33  0.304873
    CRUDE125  YLD34  0.267339  YLD35  0.384031
    CRUDE125  YLD36  0.486253  YLD37  0.302492
    CRUDE125  YLD38  0.311858  YLD39  0.458415
    CRUDE125  YLD40  0.482999  YLD41  0.345088
    CRUDE125  YLD42  0.451127  YLD43  0.373674
    CRUDE125  YLD44  0.311746  YLD45  0.155038
    CRUDE125  YLD46  0.293316  YLD47  0.321676
    CRUDE125  YLD48  0.52335  YLD49  0.534791
    CRUDE125  YLD50  0.308162  YLD51  0.519354
    CRUDE125  YLD52  0.413154  YLD53  0.367915
    CRUDE125  YLD54  0.153234  YLD55  0.48903
    CRUDE125  YLD56  0.506505  YLD57  0.38118
    CRUDE125  YLD58  0.192605  YLD59  0.498859
    CRUDE125  YLD60  0.225915  YLD61  0.304248
    CRUDE125  YLD62  0.213422  YLD63  0.244655
    CRUDE125  YLD64  0.24268  YLD65  0.3762
    CRUDE125  YLD66  0.447404  YLD67  0.305593
    CRUDE125  YLD68  0.179758  YLD69  0.292134
    CRUDE125  YLD70  0.254852  YLD71  0.319621
    CRUDE125  YLD72  0.241918  YLD73  0.447116
    CRUDE125  YLD74  0.212935  YLD75  0.24286
    CRUDE125  YLD76  0.364331  YLD77  0.160948
    CRUDE125  YLD78  0.235841  YLD79  0.2206
    CRUDE125  YLD80  0.497239  CAP  1
    CRUDE125  SULF  -1.35358
    CRUDE126  COST  -45.2849  YLD1  0.292397
    CRUDE126  YLD2  0.191699  YLD3  0.439641
    CRUDE126  YLD4  0.251003  YLD5  0.462716
    CRUDE126  YLD6  0.482745  YLD7  0.526926
    CRUDE126  YLD8  0.321555  YLD9  0.536497
    CRUDE126  YLD10  0.362434  YLD11  0.463207
    CRUDE126  YLD12  0.536821  YLD13  0.542762
    CRUDE126  YLD14  0.287913  YLD15  0.419704
    CRUDE126  YLD16  0.312623  YLD17  0.46282
    CRUDE126  YLD18  0.288624  YLD19  0.26923
    CRUDE126  YLD20  0.441514  YLD21  0.456078
    CRUDE126  YLD22  0.197464  YLD23  0.183706
    CRUDE126  YLD24  0.245606  YLD25  0.48498
    CRUDE126  YLD26  0.205877  YLD27  0.187011
    CRUDE126  YLD28  0.407224  YLD29  0.520666
    CRUDE126  YLD30  0.359084  YLD31  0.253357
    CRUDE126  YLD32  0.477242  YLD33  0.288443
    CRUDE126  YLD34  0.346278  YLD35  0.355268
    CRUDE126  YLD36  0.489056  YLD37  0.546285
    CRUDE126  YLD38  0.174979  YLD39  0.324092
    CRUDE126  YLD40  0.490311  YLD41  0.402254
    CRUDE126  YLD42  0.2628  YLD43  0.362853
    CRUDE126  YLD44  0.214787  YLD45  0.188403
    CRUDE126  YLD46  0.481131  YLD47  0.271925
    CRUDE126  YLD48  0.276829  YLD49  0.43916
    CRUDE126  YLD50  0.477118  YLD51  0.316939
    CRUDE126  YLD52  0.175565  YLD53  0.206234
    CRUDE126  YLD54  0.324996  YLD55  0.401804
    CRUDE126  YLD56  0.40435  YLD57  0.360961
    CRUDE126  YLD58  0.20094  YLD59  0.494726
    CRUDE126  YLD60  0.224749  YLD61  0.362133
    CRUDE126  YLD62  0.387109  YLD63  0.500733
    CRUDE126  YLD64  0.366748  YLD65  0.427626
    CRUDE126  YLD66  0.50403  YLD67  0.505903
    CRUDE126  YLD68  0.158363  YLD69  0.252629
    CRUDE126  YLD70  0.322992  YLD71  0.354228
    CRUDE126  YLD72  0.165158  YLD73  0.368798
    CRUDE126  YLD74  0.39613  YLD75  0.324683
    CRUDE126  YLD76  0.432493  YLD77  0.42847
    CRUDE126  YLD78  0.227948  YLD79  0.394145
    CRUDE126  YLD80  0.361649  CAP  1
    CRUDE126  SULF  -0.972214
    CRUDE127  COST  -43.4237  YLD1  0.507687
    CRUDE127  YLD2  0.486176  YLD3  0.404893
    CRUDE127  YLD4  0.150412  YLD5  0.432154
    CRUDE127  YLD6  0.417841  YLD7  0.463537
    CRUDE127  YLD8  0.487916  YLD9  0.200982
    CRUDE127  YLD10  0.486689  YLD11  0.436015
    CRUDE127  YLD12  0.307118  YLD13  0.401197
    CRUDE127  YLD14  0.334737  YLD15  0.152287
    CRUDE127  YLD16  0.511276  YLD17  0.246028
    CRUDE127  YLD18  0.313086  YLD19  0.261138
    CRUDE127  YLD20  0.168789  YLD21  0.207265
    CRUDE127  YLD22  0.218751  YLD23  0.292437
    CRUDE127  YLD24  0.401549  YLD25  0.279196
    CRUDE127  YLD26  0.436294  YLD27  0.309773
    CRUDE127  YLD28  0.455014  YLD29  0.343476
    CRUDE127  YLD30  0.159437  YLD31  0.477437
    CRUDE127  YLD32  0.533165  YLD33  0.484355
    CRUDE127  YLD34  0.325445  YLD35  0.348276
    CRUDE127  YLD36  0.458628  YLD37  0.249047
    CRUDE127  YLD38  0.478431  YLD39  0.528737
    CRUDE127  YLD40  0.319572  YLD41  0.181808
    CRUDE127  YLD42  0.237518  YLD43  0.310924
    CRUDE127  YLD44  0.430327  YLD45  0.268838
    CRUDE127  YLD46  0.159042  YLD47  0.252595
    CRUDE127  YLD48  0.525734  YLD49  0.407825
    CRUDE127  YLD50  0.377136  YLD51  0.535145
    CRUDE127  YLD52  0.216398  YLD53  0.497876
    CRUDE127  YLD54  0.252418  YLD55  0.345482
    CRUDE127  YLD56  0.525101  YLD57  0.214154
    CRUDE127  YLD58  0.511751  YLD59  0.523527
    CRUDE127  YLD60  0.380626  YLD61  0.389534
    CRUDE127  YLD62  0.508479  YLD63  0.477807
    CRUDE127  YLD64  0.237904  YLD65  0.457084
    CRUDE127  YLD66  0.38179  YLD67  0.270793
    CRUDE127  YLD68  0.530612  YLD69  0.256584
    CRUDE127  YLD70  0.198817  YLD71  0.222631
    CRUDE127  YLD72  0.397316  YLD73  0.252651
    CRUDE127  YLD74  0.548038  YLD75  0.492092
    CRUDE127  YLD76  0.202209  YLD77  0.534175
    CRUDE127  YLD78  0.182434  YLD79  0.255409
    CRUDE127  YLD80  0.295828  CAP  1
    CRUDE127  SULF  -0.000796386
    CRUDE128  COST  -48.6343  YLD1  0.201499
    CRUDE128  YLD2  0.514274  YLD3  0.542231
    CRUDE128  YLD4  0.213575  YLD5  0.328547
    CRUDE128  YLD6  0.177973  YLD7  0.291937
    CRUDE128  YLD8  0.257256  YLD9  0.433075
    CRUDE128  YLD10  0.382089  YLD11  0.387394
    CRUDE128  YLD12  0.491689  YLD13  0.249004
    CRUDE128  YLD14  0.315806  YLD15  0.33633
    CRUDE128  YLD16  0.39154  YLD17  0.207724
    CRUDE128  YLD18  0.200226  YLD19  0.458605
    CRUDE128  YLD20  0.521221  YLD21  0.413086
    CRUDE128  YLD22  0.340611  YLD23  0.422154
    CRUDE128  YLD24  0.406152  YLD25  0.505605
    CRUDE128  YLD26  0.539117  YLD27  0.317572
    CRUDE128  YLD28  0.383972  YLD29  0.276221
    CRUDE128  YLD30  0.315493  YLD31  0.50984
    CRUDE128  YLD32  0.479707  YLD33  0.19051
    CRUDE128  YLD34  0.454125  YLD35  0.283094
    CRUDE128  YLD36  0.502353  YLD37  0.352583
    CRUDE128  YLD38  0.186938  YLD39  0.337036
    CRUDE128  YLD40  0.176589  YLD41  0.345215
    CRUDE128  YLD42  0.358774  YLD43  0.214639
    CRUDE128  YLD44  0.520723  YLD45  0.171708
    CRUDE128  YLD46  0.247537  YLD47  0.3875
    CRUDE128  YLD48  0.297407  YLD49  0.441341
    CRUDE128  YLD50  0.166788  YLD51  0.159668
    CRUDE128  YLD52  0.270381  YLD53  0.420357
    CRUDE128  YLD54  0.197957  YLD55  0.505985
    CRUDE128  YLD56  0.201402  YLD57  0.436183
    CRUDE128  YLD58  0.36034  YLD59  0.507581
    CRUDE128  YLD60  0.424189  YLD61  0.52432
    CRUDE128  YLD62  0.193515  YLD63  0.397048
    CRUDE128  YLD64  0.41004  YLD65  0.508229
    CRUDE128  YLD66  0.24874  YLD67  0.32282
    CRUDE128  YLD68  0.439844  YLD69  0.311677
    CRUDE128  YLD70  0.181493  YLD71  0.535688
    CRUDE128  YLD72  0.202415  YLD73  0.418436
    CRUDE128  YLD74  0.221101  YLD75  0.221062
    CRUDE128  YLD76  0.405578  YLD77  0.219755
    CRUDE128  YLD78  0.468218  YLD79  0.242385
    CRUDE128  YLD80  0.256432  CAP  1
    CRUDE128  SULF  -0.299738
    CRUDE129  COST  -72.2107  YLD1  0.28204
    CRUDE129  YLD2  0.199124  YLD3  0.511346
    CRUDE129  YLD4  0.337416  YLD5  0.495686
    CRUDE129  YLD6  0.406067  YLD7  0.314852
    CRUDE129  YLD8  0.212553  YLD9  0.539111
    CRUDE129  YLD10  0.373875  YLD11  0.508291
    CRUDE129  YLD12  0.459236  YLD13  0.215126
    CRUDE129  YLD14  0.1553  YLD15  0.378465
    CRUDE129  YLD16  0.380646  YLD17  0.196281
    CRUDE129  YLD18  0.218518  YLD19  0.41076
    CRUDE129  YLD20  0.186456  YLD21  0.406627
    CRUDE129  YLD22  0.445152  YLD23  0.259648
    CRUDE129  YLD24  0.490202  YLD25  0.214253
    CRUDE129  YLD26  0.543226  YLD27  0.355825
    CRUDE129  YLD28  0.256493  YLD29  0.465578
    CRUDE129  YLD30  0.269699  YLD31  0.462773
    CRUDE129  YLD32  0.375937  YLD33  0.420357
    CRUDE129  YLD34  0.318133  YLD35  0.178472
    CRUDE129  YLD36  0.472299  YLD37  0.487761
    CRUDE129  YLD38  0.419603  YLD39  0.499976
    CRUDE129  YLD40  0.150634  YLD41  0.211926
    CRUDE129  YLD42  0.212137  YLD43  0.197342
    CRUDE129  YLD44  0.300151  YLD45  0.388652
    CRUDE129  YLD46  0.21103  YLD47  0.156294
    CRUDE129  YLD48  0.171588  YLD49  0.341239
    CRUDE129  YLD50  0.220703  YLD51  0.272538
    CRUDE129  YLD52  0.365752  YLD53  0.547454
    CRUDE129  YLD54  0.514606  YLD55  0.488135
    CRUDE129  YLD56  0.185094  YLD57  0.430919
    CRUDE129  YLD58  0.46663  YLD59  0.460513
    CRUDE129  YLD60  0.19816  YLD61  0.460933
    CRUDE129  YLD62  0.339166  YLD63  0.54788
    CRUDE129  YLD64  0.511742  YLD65  0.291818
    CRUDE129  YLD66  0.273699  YLD67  0.361164
    CRUDE129  YLD68  0.469979  YLD69  0.430742
    CRUDE129  YLD70  0.422025  YLD71  0.381549
    CRUDE129  YLD72  0.287271  YLD73  0.533165
    CRUDE129  YLD74  0.368569  YLD75  0.362832
    CRUDE129  YLD76  0.340779  YLD77  0.27452
    CRUDE129  YLD78  0.279802  YLD79  0.309672
    CRUDE129  YLD80  0.386204  CAP  1
    CRUDE129  SULF  1.46684
    CRUDE130  COST  -33.5208  YLD1  0.278633
    CRUDE130  YLD2  0.244362  YLD3  0.408666
    CRUDE130  YLD4  0.527721  YLD5  0.373256
    CRUDE130  YLD6  0.258459  YLD7  0.369846
    CRUDE130  YLD8  0.491236  YLD9  0.480416
    CRUDE130  YLD10  0.192104  YLD11  0.383307
    CRUDE130  YLD12  0.274  YLD13  0.224766
    CRUDE130  YLD14  0.268377  YLD15  0.271612
    CRUDE130  YLD16  0.373506  YLD17  0.1609
    CRUDE130  YLD18  0.480943  YLD19  0.482967
    CRUDE130  YLD20  0.26436  YLD21  0.160228
    CRUDE130  YLD22  0.205601  YLD23  0.48107
    CRUDE130  YLD24  0.446348  YLD25  0.21921
    CRUDE130  YLD26  0.347592  YLD27  0.433586
    CRUDE130  YLD28  0.162537  YLD29  0.422714
    CRUDE130  YLD30  0.449242  YLD31  0.228144
    CRUDE130  YLD32  0.221863  YLD33  0.24949
    CRUDE130  YLD34  0.527421  YLD35  0.185808
    CRUDE130  YLD36  0.391005  YLD37  0.245689
    CRUDE130  YLD38  0.172593  YLD39  0.474331
    CRUDE130  YLD40  0.359317  YLD41  0.297857
    CRUDE130  YLD42  0.416645  YLD43  0.454272
    CRUDE130  YLD44  0.246634  YLD45  0.184745
    CRUDE130  YLD46  0.493676  YLD47  0.253821
    CRUDE130  YLD48  0.455188  YLD49  0.352091
    CRUDE130  YLD50  0.495998  YLD51  0.416477
    CRUDE130  YLD52  0.460636  YLD53  0.186839
    CRUDE130  YLD54  0.549185  YLD55  0.268778
    CRUDE130  YLD56  0.485365  YLD57  0.536781
    CRUDE130  YLD58  0.196117  YLD59  0.437309
    CRUDE130  YLD60  0.199116  YLD61  0.210797
    CRUDE130  YLD62  0.450141  YLD63  0.444074
    CRUDE130  YLD64  0.184195  YLD65  0.530591
    CRUDE130  YLD66  0.504299  YLD67  0.259216
    CRUDE130  YLD68  0.542367  YLD69  0.165522
    CRUDE130  YLD70  0.312866  YLD71  0.358844
    CRUDE130  YLD72  0.420314  YLD73  0.457855
    CRUDE130  YLD74  0.197891  YLD75  0.292493
    CRUDE130  YLD76  0.544938  YLD77  0.383149
    CRUDE130  YLD78  0.492788  YLD79  0.387277
    CRUDE130  YLD80  0.210669  CAP  1
    CRUDE130  SULF  -0.912788
    CRUDE131  COST  -63.5572  YLD1  0.186916
    CRUDE131  YLD2  0.216208  YLD3  0.42727
    CRUDE131  YLD4  0.190877  YLD5  0.365962
    CRUDE131  YLD6  0.387125  YLD7  0.482214
    CRUDE131  YLD8  0.1686  YLD9  0.429726
    CRUDE131  YLD10  0.216944  YLD11  0.336787
    CRUDE131  YLD12  0.242816  YLD13  0.157918
    CRUDE131  YLD14  0.333676  YLD15  0.277242
    CRUDE131  YLD16  0.298468  YLD17  0.359435
    CRUDE131  YLD18  0.383935  YLD19  0.540189
    CRUDE131  YLD20  0.418956  YLD21  0.465188
    CRUDE131  YLD22  0.326028  YLD23  0.445947
    CRUDE131  YLD24  0.367029  YLD25  0.256709
    CRUDE131  YLD26  0.497741  YLD27  0.51244
    CRUDE131  YLD28  0.19778  YLD29  0.505501
    CRUDE131  YLD30  0.233311  YLD31  0.184699
    CRUDE131  YLD32  0.189905  YLD33  0.156199
    CRUDE131  YLD34  0.511014  YLD35  0.323511
    CRUDE131  YLD36  0.268329  YLD37  0.316086
    CRUDE131  YLD38  0.419142  YLD39  0.542395
    CRUDE131  YLD40  0.28763  YLD41  0.281722
    CRUDE131  YLD42  0.392137  YLD43  0.521001
    CRUDE131  YLD44  0.371947  YLD45  0.430685
    CRUDE131  YLD46  0.337018  YLD47  0.414553
    CRUDE131  YLD48  0.431403  YLD49  0.490483
    CRUDE131  YLD50  0.37516  YLD51  0.506343
    CRUDE131  YLD52  0.278496  YLD53  0.246269
    CRUDE131  YLD54  0.222238  YLD55  0.466595
    CRUDE131  YLD56  0.492204  YLD57  0.270077
    CRUDE131  YLD58  0.521057  YLD59  0.255907
    CRUDE131  YLD60  0.376121  YLD61  0.219673
    CRUDE131  YLD62  0.394597  YLD63  0.236335
    CRUDE131  YLD64  0.236646  YLD65  0.404912
    CRUDE131  YLD66  0.269303  YLD67  0.513398
    CRUDE131  YLD68  0.522651  YLD69  0.53285
    CRUDE131  YLD70  0.44049  YLD71  0.153529
    CRUDE131  YLD72  0.189209  YLD73  0.391607
    CRUDE131  YLD74  0.523695  YLD75  0.199672
    CRUDE131  YLD76  0.436989  YLD77  0.442958
    CRUDE131  YLD78  0.393326  YLD79  0.368127
    CRUDE131  YLD80  0.248482  CAP  1
    CRUDE131  SULF  -0.418686
    CRUDE132  COST  -42.7082  YLD1  0.342458
    CRUDE132  YLD2  0.224528  YLD3  0.170638
    CRUDE132  YLD4  0.491684  YLD5  0.163675
    CRUDE132  YLD6  0.422053  YLD7  0.177485
    CRUDE132  YLD8  0.39788  YLD9  0.485784
    CRUDE132  YLD10  0.53881  YLD11  0.286148
    CRUDE132  YLD12  0.333294  YLD13  0.306273
    CRUDE132  YLD14  0.314437  YLD15  0.534464
    CRUDE132  YLD16  0.464257  YLD17  0.237304
    CRUDE132  YLD18  0.285013  YLD19  0.339666
    CRUDE132  YLD20  0.217949  YLD21  0.511299
    CRUDE132  YLD22  0.343141  YLD23  0.465609
    CRUDE132  YLD24  0.411435  YLD25  0.197812
    CRUDE132  YLD26  0.444731  YLD27  0.205094
    CRUDE132  YLD28  0.398921  YLD29  0.427006
    CRUDE132  YLD30  0.232088  YLD31  0.392178
    CRUDE132  YLD32  0.171805  YLD33  0.216706
    CRUDE132  YLD34  0.498864  YLD35  0.292317
    CRUDE132  YLD36  0.505284  YLD37  0.396037
    CRUDE132  YLD38  0.487215  YLD39  0.520619
    CRUDE132  YLD40  0.548853  YLD41  0.319416
    CRUDE132  YLD42  0.184833  YLD43  0.333313
    CRUDE132  YLD44  0.468474  YLD45  0.171057
    CRUDE132  YLD46  0.311688  YLD47  0.162825
    CRUDE132  YLD48  0.389164  YLD49  0.422371
    CRUDE132  YLD50  0.530137  YLD51  0.252562
    CRUDE132  YLD52  0.292553  YLD53  0.500863
    CRUDE132  YLD54  0.165373  YLD55  0.189796
    CRUDE132  YLD56  0.482416  YLD57  0.452578
    CRUDE132  YLD58  0.478457  YLD59  0.398536
    CRUDE132  YLD60  0.258038  YLD61  0.190198
    CRUDE132  YLD62  0.190234  YLD63  0.488658
    CRUDE132  YLD64  0.487769  YLD65  0.465081
    CRUDE132  YLD66  0.448476  YLD67  0.335813
    CRUDE132  YLD68  0.444765  YLD69  0.168512
    CRUDE132  YLD70  0.194023  YLD71  0.344286
    CRUDE132  YLD72  0.200901  YLD73  0.546251
    CRUDE132  YLD74  0.266702  YLD75  0.169962
    CRUDE132  YLD76  0.412989  YLD77  0.287749
    CRUDE132  YLD78  0.419453  YLD79  0.247894
    CRUDE132  YLD80  0.267445  CAP  1
    CRUDE132  SULF  -0.627761
    CRUDE133  COST  -46.1275  YLD1  0.425114
    CRUDE133  YLD2  0.484996  YLD3  0.417967
    CRUDE133  YLD4  0.36081  YLD5  0.544677
    CRUDE133  YLD6  0.242332  YLD7  0.319719
    CRUDE133  YLD8  0.374797  YLD9  0.542719
    CRUDE133  YLD10  0.241395  YLD11  0.526179
    CRUDE133  YLD12  0.46254  YLD13  0.226571
    CRUDE133  YLD14  0.438772  YLD15  0.506684
    CRUDE133  YLD16  0.251119  YLD17  0.545773
    CRUDE133  YLD18  0.47114  YLD19  0.176678
    CRUDE133  YLD20  0.172166  YLD21  0.256966
    CRUDE133  YLD22  0.234914  YLD23  0.197643
    CRUDE133  YLD24  0.259596  YLD25  0.242128
    CRUDE133  YLD26  0.350416  YLD27  0.171739
    CRUDE133  YLD28  0.523768  YLD29  0.247411
    CRUDE133  YLD30  0.225808  YLD31  0.172838
    CRUDE133  YLD32  0.41661  YLD33  0.392665
    CRUDE133  YLD34  0.178503  YLD35  0.356454
    CRUDE133  YLD36  0.486241  YLD37  0.342475
    CRUDE133  YLD38  0.309529  YLD39  0.50925
    CRUDE133  YLD40  0.458964  YLD41  0.378655
    CRUDE133  YLD42  0.164608  YLD43  0.413778
    CRUDE133  YLD44  0.151507  YLD45  0.173724
    CRUDE133  YLD46  0.329793  YLD47  0.183281
    CRUDE133  YLD48  0.345957  YLD49  0.508897
    CRUDE133  YLD50  0.178969  YLD51  0.522191
    CRUDE133  YLD52  0.25246  YLD53  0.308102
    CRUDE133  YLD54  0.260022  YLD55  0.479106
    CRUDE133  YLD56  0.469586  YLD57  0.323626
    CRUDE133  YLD58  0.239906  YLD59  0.358595
    CRUDE133  YLD60  0.30696  YLD61  0.445273
    CRUDE133  YLD62  0.308642  YLD63  0.315893
    CRUDE133  YLD64  0.402621  YLD65  0.429908
    CRUDE133  YLD66  0.546066  YLD67  0.319662
    CRUDE133  YLD68  0.427595  YLD69  0.502501
    CRUDE133  YLD70  0.393946  YLD71  0.485068
    CRUDE133  YLD72  0.174666  YLD73  0.256131
    CRUDE133  YLD74  0.501336  YLD75  0.372349
    CRUDE133  YLD76  0.37818  YLD77  0.415704
    CRUDE133  YLD78  0.266669  YLD79  0.506447
    CRUDE133  YLD80  0.393164  CAP  1
    CRUDE133  SULF  1.19839
    CRUDE134  COST  -36.8311  YLD1  0.354663
    CRUDE134  YLD2  0.282859  YLD3  0.167666
    CRUDE134  YLD4  0.480368  YLD5  0.199188
    CRUDE134  YLD6  0.332743  YLD7  0.183047
    CRUDE134  YLD8  0.288368  YLD9  0.398538
    CRUDE134  YLD10  0.540981  YLD11  0.183086
    CRUDE134  YLD12  0.534067  YLD13  0.314662
    CRUDE134  YLD14  0.303921  YLD15  0.489672
    CRUDE134  YLD16  0.525558  YLD17  0.379775
    CRUDE134  YLD18  0.248608  YLD19  0.169237
    CRUDE134  YLD20  0.282459  YLD21  0.474956
    CRUDE134  YLD22  0.196223  YLD23  0.206219
    CRUDE134  YLD24  0.387222  YLD25  0.192565
    CRUDE134  YLD26  0.379104  YLD27  0.157412
    CRUDE134  YLD28  0.232614  YLD29  0.522664
    CRUDE134  YLD30  0.200246  YLD31  0.41913
    CRUDE134  YLD32  0.473015  YLD33  0.433651
    CRUDE134  YLD34  0.491703  YLD35  0.271935
    CRUDE134  YLD36  0.339152  YLD37  0.333801
    CRUDE134  YLD38  0.358851  YLD39  0.442642
    CRUDE134  YLD40  0.45451  YLD41  0.511151
    CRUDE134  YLD42  0.398115  YLD43  0.515783
    CRUDE134  YLD44  0.402551  YLD45  0.27213
    CRUDE134  YLD46  0.53877  YLD47  0.267358
    CRUDE134  YLD48  0.162866  YLD49  0.506331
    CRUDE134  YLD50  0.268104  YLD51  0.387649
    CRUDE134  YLD52  0.251844  YLD53  0.336521
    CRUDE134  YLD54  0.483945  YLD55  0.420182
    CRUDE134  YLD56  0.294891  YLD57  0.373389
    CRUDE134  YLD58  0.499673  YLD59  0.494778
    CRUDE134  YLD60  0.310299  YLD61  0.432449
    CRUDE134  YLD62  0.352896  YLD63  0.164461
    CRUDE134  YLD64  0.181484  YLD65  0.232229
    CRUDE134  YLD66  0.549927  YLD67  0.489901
    CRUDE134  YLD68  0.28474  YLD69  0.507751
    CRUDE134  YLD70  0.327323  YLD71  0.237858
    CRUDE134  YLD72  0.548432  YLD73  0.174937
    CRUDE134  YLD74  0.263231  YLD75  0.1583
    CRUDE134  YLD76  0.548946  YLD77  0.509712
    CRUDE134  YLD78  0.332918  YLD79  0.193953
    CRUDE134  YLD80  0.299302  CAP  1
    CRUDE134  SULF  0.737186
    CRUDE135  COST  -57.641  YLD1  0.212791
    CRUDE135  YLD2  0.274578  YLD3  0.385306
    CRUDE135  YLD4  0.26935  YLD5  0.242452
    CRUDE135  YLD6  0.22613  YLD7  0.355863
    CRUDE135  YLD8  0.276076  YLD9  0.373674
    CRUDE135  YLD10  0.362765  YLD11  0.522355
    CRUDE135  YLD12  0.455432  YLD13  0.523998
    CRUDE135  YLD14  0.345751  YLD15  0.312405
    CRUDE135  YLD16  0.507594  YLD17  0.205154
    CRUDE135  YLD18  0.540413  YLD19  0.268266
    CRUDE135  YLD20  0.456389  YLD21  0.182962
    CRUDE135  YLD22  0.484568  YLD23  0.264589
    CRUDE135  YLD24  0.345691  YLD25  0.478701
    CRUDE135  YLD26  0.204891  YLD27  0.207449
    CRUDE135  YLD28  0.44401  YLD29  0.191934
    CRUDE135  YLD30  0.274403  YLD31  0.36217
    CRUDE135  YLD32  0.353474  YLD33  0.158423
    CRUDE135  YLD34  0.462654  YLD35  0.425164
    CRUDE135  YLD36  0.165631  YLD37  0.295004
    CRUDE135  YLD38  0.310617  YLD39  0.296799
    CRUDE135  YLD40  0.532097  YLD41  0.307794
    CRUDE135  YLD42  0.267718  YLD43  0.186045
    CRUDE135  YLD44  0.388606  YLD45  0.508629
    CRUDE135  YLD46  0.490107  YLD47  0.501122
    CRUDE135  YLD48  0.399839  YLD49  0.540596
    CRUDE135  YLD50  0.227417  YLD51  0.470403
    CRUDE135  YLD52  0.529546  YLD53  0.494261
    CRUDE135  YLD54  0.267556  YLD55  0.185147
    CRUDE135  YLD56  0.236985  YLD57  0.476582
    CRUDE135  YLD58  0.255377  YLD59  0.346685
    CRUDE135  YLD60  0.221421  YLD61  0.544545
    CRUDE135  YLD62  0.548338  YLD63  0.278569
    CRUDE135  YLD64  0.34454  YLD65  0.178575
    CRUDE135  YLD66  0.363392  YLD67  0.274791
    CRUDE135  YLD68  0.191607  YLD69  0.359796
    CRUDE135  YLD70  0.173199  YLD71  0.290483
    CRUDE135  YLD72  0.304831  YLD73  0.162852
    CRUDE135  YLD74  0.472421  YLD75  0.191378
    CRUDE135  YLD76  0.542184  YLD77  0.440624
    CRUDE135  YLD78  0.314927  YLD79  0.165787
    CRUDE135  YLD80  0.352313  CAP  1
    CRUDE135  SULF  -0.623737
    CRUDE136  COST  -50.989  YLD1  0.300914
    CRUDE136  YLD2  0.240958  YLD3  0.549741
    CRUDE136  YLD4  0.485979  YLD5  0.170679
    CRUDE136  YLD6  0.170936  YLD7  0.50956
    CRUDE136  YLD8  0.458743  YLD9  0.401295
    CRUDE136  YLD10  0.204316  YLD11  0.480686
    CRUDE136  YLD12  0.492083  YLD13  0.322216
    CRUDE136  YLD14  0.321843  YLD15  0.155479
    CRUDE136  YLD16  0.284992  YLD17  0.425505
    CRUDE136  YLD18  0.287927  YLD19  0.523018
    CRUDE136  YLD20  0.315471  YLD21  0.389987
    CRUDE136  YLD22  0.350986  YLD23  0.357231
    CRUDE136  YLD24  0.203338  YLD25  0.205588
    CRUDE136  YLD26  0.525065  YLD27  0.41318
    CRUDE136  YLD28  0.49658  YLD29  0.257177
    CRUDE136  YLD30  0.504369  YLD31  0.415114
    CRUDE136  YLD32  0.171886  YLD33  0.16457
    CRUDE136  YLD34  0.191405  YLD35  0.495582
    CRUDE136  YLD36  0.405417  YLD37  0.384659
    CRUDE136  YLD38  0.270196  YLD39  0.19245
    CRUDE136  YLD40  0.50509  YLD41  0.542452
    CRUDE136  YLD42  0.184578  YLD43  0.458193
    CRUDE136  YLD44  0.277261  YLD45  0.406557
    CRUDE136  YLD46  0.432548  YLD47  0.455954
    CRUDE136  YLD48  0.316734  YLD49  0.430086
    CRUDE136  YLD50  0.371536  YLD51  0.308883
    CRUDE136  YLD52  0.404183  YLD53  0.358729
    CRUDE136  YLD54  0.172761  YLD55  0.423232
    CRUDE136  YLD56  0.521522  YLD57  0.238798
    CRUDE136  YLD58  0.232136  YLD59  0.201097
    CRUDE136  YLD60  0.150526  YLD61  0.358809
    CRUDE136  YLD62  0.221443  YLD63  0.45542
    CRUDE136  YLD64  0.233903  YLD65  0.440515
    CRUDE136  YLD66  0.480622  YLD67  0.476986
    CRUDE136  YLD68  0.379489  YLD69  0.204799
    CRUDE136  YLD70  0.367921  YLD71  0.158229
    CRUDE136  YLD72  0.512318  YLD73  0.434275
    CRUDE136  YLD74  0.233753  YLD75  0.289026
    CRUDE136  YLD76  0.365246  YLD77  0.434409
    CRUDE136  YLD78  0.244275  YLD79  0.391083
    CRUDE136  YLD80  0.410175  CAP  1
    CRUDE136  SULF  -0.756737
    CRUDE137  COST  -60.5757  YLD1  0.151038
    CRUDE137  YLD2  0.393158  YLD3  0.372323
    CRUDE137  YLD4  0.459129  YLD5  0.406001
    CRUDE137  YLD6  0.301391  YLD7  0.462994
    CRUDE137  YLD8  0.18457  YLD9  0.36307
    CRUDE137  YLD10  0.189721  YLD11  0.201972
    CRUDE137  YLD12  0.391226  YLD13  0.501194
    CRUDE137  YLD14  0.44625  YLD15  0.182089
    CRUDE137  YLD16  0.441786  YLD17  0.509097
    CRUDE137  YLD18  0.284924  YLD19  0.359285
    CRUDE137  YLD20  0.411189  YLD21  0.344259
    CRUDE137  YLD22  0.155752  YLD23  0.449206
    CRUDE137  YLD24  0.247018  YLD25  0.448919
    CRUDE137  YLD26  0.290772  YLD27  0.440991
    CRUDE137  YLD28  0.358353  YLD29  0.358078
    CRUDE137  YLD30  0.459971  YLD31  0.386068
    CRUDE137  YLD32  0.364188  YLD33  0.511017
    CRUDE137  YLD34  0.192966  YLD35  0.269545
    CRUDE137  YLD36  0.170239  YLD37  0.399749
    CRUDE137  YLD38  0.471305  YLD39  0.425458
    CRUDE137  YLD40  0.277275  YLD41  0.453611
    CRUDE137  YLD42  0.453771  YLD43  0.396727
    CRUDE137  YLD44  0.330569  YLD45  0.458053
    CRUDE137  YLD46  0.266192  YLD47  0.158863
    CRUDE137  YLD48  0.374084  YLD49  0.350921
    CRUDE137  YLD50  0.303117  YLD51  0.234872
    CRUDE137  YLD52  0.21236  YLD53  0.22739
    CRUDE137  YLD54  0.170997  YLD55  0.382208
    CRUDE137  YLD56  0.2728  YLD57  0.287147
    CRUDE137  YLD58  0.255698  YLD59  0.151989
    CRUDE137  YLD60  0.491261  YLD61  0.480566
    CRUDE137  YLD62  0.54297  YLD63  0.534082
    CRUDE137  YLD64  0.229639  YLD65  0.354421
    CRUDE137  YLD66  0.5461  YLD67  0.198909
    CRUDE137  YLD68  0.380501  YLD69  0.376058
    CRUDE137  YLD70  0.183122  YLD71  0.540771
    CRUDE137  YLD72  0.267434  YLD73  0.482093
    CRUDE137  YLD74  0.267116  YLD75  0.167408
    CRUDE137  YLD76  0.332073  YLD77  0.302788
    CRUDE137  YLD78  0.483005  YLD79  0.199363
    CRUDE137  YLD80  0.532509  CAP  1
    CRUDE137  SULF  -1.33296
    CRUDE138  COST  -30.2592  YLD1  0.49732
    CRUDE138  YLD2  0.301722  YLD3  0.339284
    CRUDE138  YLD4  0.242021  YLD5  0.23988
    CRUDE138  YLD6  0.295178  YLD7  0.241137
    CRUDE138  YLD8  0.244714  YLD9  0.404036
    CRUDE138  YLD10  0.233546  YLD11  0.375994
    CRUDE138  YLD12  0.484163  YLD13  0.392202
    CRUDE138  YLD14  0.495189  YLD15  0.274879
    CRUDE138  YLD16  0.379289  YLD17  0.448072
    CRUDE138  YLD18  0.274765  YLD19  0.258715
    CRUDE138  YLD20  0.381848  YLD21  0.368369
    CRUDE138  YLD22  0.471193  YLD23  0.484612
    CRUDE138  YLD24  0.266677  YLD25  0.169166
    CRUDE138  YLD26  0.32846  YLD27  0.464602
    CRUDE138  YLD28  0.417706  YLD29  0.376297
    CRUDE138  YLD30  0.4441  YLD31  0.319081
    CRUDE138  YLD32  0.5243  YLD33  0.179322
    CRUDE138  YLD34  0.190466  YLD35  0.227194
    CRUDE138  YLD36  0.520512  YLD37  0.411316
    CRUDE138  YLD38  0.258801  YLD39  0.541462
    CRUDE138  YLD40  0.216395  YLD41  0.354592
    CRUDE138  YLD42  0.275618  YLD43  0.389455
    CRUDE138  YLD44  0.248785  YLD45  0.206621
    CRUDE138  YLD46  0.216069  YLD47  0.350685
    CRUDE138  YLD48  0.321729  YLD49  0.216525
    CRUDE138  YLD50  0.212909  YLD51  0.514494
    CRUDE138  YLD52  0.438899  YLD53  0.506812
    CRUDE138  YLD54  0.320969  YLD55  0.38782
    CRUDE138  YLD56  0.309363  YLD57  0.459323
    CRUDE138  YLD58  0.513982  YLD59  0.421149
    CRUDE138  YLD60  0.436001  YLD61  0.380576
    CRUDE138  YLD62  0.30046  YLD63  0.260455
    CRUDE138  YLD64  0.526258  YLD65  0.430885
    CRUDE138  YLD66  0.299869  YLD67  0.223115
    CRUDE138  YLD68  0.530895  YLD69  0.401453
    CRUDE138  YLD70  0.481088  YLD71  0.176661
    CRUDE138  YLD72  0.451281  YLD73  0.40404
    CRUDE138  YLD74  0.22699  YLD75  0.310178
    CRUDE138  YLD76  0.334846  YLD77  0.514572
    CRUDE138  YLD78  0.398834  YLD79  0.351956
    CRUDE138  YLD80  0.455935  CAP  1
    CRUDE138  SULF  0.469832
    CRUDE139  COST  -39.7137  YLD1  0.183807
    CRUDE139  YLD2  0.4477  YLD3  0.275142
    CRUDE139  YLD4  0.202534  YLD5  0.222004
    CRUDE139  YLD6  0.548192  YLD7  0.540396
    CRUDE139  YLD8  0.442979  YLD9  0.329937
    CRUDE139  YLD10  0.520255  YLD11  0.496619
    CRUDE139  YLD12  0.463768  YLD13  0.248853
    CRUDE139  YLD14  0.362756  YLD15  0.156297
    CRUDE139  YLD16  0.28506  YLD17  0.180576
    CRUDE139  YLD18  0.198845  YLD19  0.309667
    CRUDE139  YLD20  0.158887  YLD21  0.520482
    CRUDE139  YLD22  0.542318  YLD23  0.431734
    CRUDE139  YLD24  0.519724  YLD25  0.529408
    CRUDE139  YLD26  0.418664  YLD27  0.247483
    CRUDE139  YLD28  0.476006  YLD29  0.156124
    CRUDE139  YLD30  0.468935  YLD31  0.230351
    CRUDE139  YLD32  0.389045  YLD33  0.507673
    CRUDE139  YLD34  0.154533  YLD35  0.196472
    CRUDE139  YLD36  0.534653  YLD37  0.178147
    CRUDE139  YLD38  0.439177  YLD39  0.440642
    CRUDE139  YLD40  0.448357  YLD41  0.407611
    CRUDE139  YLD42  0.33384  YLD43  0.267016
    CRUDE139  YLD44  0.465954  YLD45  0.48365
    CRUDE139  YLD46  0.518573  YLD47  0.259875
    CRUDE139  YLD48  0.536422  YLD49  0.432152
    CRUDE139  YLD50  0.407101  YLD51  0.523254
    CRUDE139  YLD52  0.438808  YLD53  0.162425
    CRUDE139  YLD54  0.52273  YLD55  0.266346
    CRUDE139  YLD56  0.429824  YLD57  0.378183
    CRUDE139  YLD58  0.516237  YLD59  0.369963
    CRUDE139  YLD60  0.426215  YLD61  0.499635
    CRUDE139  YLD62  0.230128  YLD63  0.248607
    CRUDE139  YLD64  0.454617  YLD65  0.340737
    CRUDE139  YLD66  0.250964  YLD67  0.530337
    CRUDE139  YLD68  0.327028  YLD69  0.493104
    CRUDE139  YLD70  0.402783  YLD71  0.509288
    CRUDE139  YLD72  0.237627  YLD73  0.512011
    CRUDE139  YLD74  0.255704  YLD75  0.202146
    CRUDE139  YLD76  0.321337  YLD77  0.260929
    CRUDE139  YLD78  0.164973  YLD79  0.530709
    CRUDE139  YLD80  0.312103  CAP  1
    CRUDE139  SULF  -1.36811
    CRUDE140  COST  -49.8392  YLD1  0.388911
    CRUDE140  YLD2  0.232232  YLD3  0.198209
    CRUDE140  YLD4  0.497222  YLD5  0.185422
    CRUDE140  YLD6  0.328541  YLD7  0.41694
    CRUDE140  YLD8  0.369328  YLD9  0.237377
    CRUDE140  YLD10  0.31566  YLD11  0.378724
    CRUDE140  YLD12  0.300794  YLD13  0.292342
    CRUDE140  YLD14  0.465773  YLD15  0.15686
    CRUDE140  YLD16  0.545409  YLD17  0.508354
    CRUDE140  YLD18  0.194455  YLD19  0.389438
    CRUDE140  YLD20  0.545416  YLD21  0.498526
    CRUDE140  YLD22  0.39237  YLD23  0.521439
    CRUDE140  YLD24  0.242155  YLD25  0.434464
    CRUDE140  YLD26  0.283561  YLD27  0.272358
    CRUDE140  YLD28  0.25427  YLD29  0.462229
    CRUDE140  YLD30  0.257767  YLD31  0.272281
    CRUDE140  YLD32  0.473771  YLD33  0.241266
    CRUDE140  YLD34  0.369454  YLD35  0.396502
    CRUDE140  YLD36  0.225796  YLD37  0.402414
    CRUDE140  YLD38  0.232479  YLD39  0.521492
    CRUDE140  YLD40  0.30131  YLD41  0.19089
    CRUDE140  YLD42  0.244725  YLD43  0.423557
    CRUDE140  YLD44  0.403814  YLD45  0.153258
    CRUDE140  YLD46  0.31923  YLD47  0.409458
    CRUDE140  YLD48  0.391644  YLD49  0.266631
    CRUDE140  YLD50  0.364519  YLD51  0.34903
    CRUDE140  YLD52  0.416588  YLD53  0.508159
    CRUDE140  YLD54  0.264368  YLD55  0.256599
    CRUDE140  YLD56  0.267342  YLD57  0.186969
    CRUDE140  YLD58  0.281598  YLD59  0.282385
    CRUDE140  YLD60  0.368602  YLD61  0.438408
    CRUDE140  YLD62  0.315644  YLD63  0.375447
    CRUDE140  YLD64  0.428492  YLD65  0.274894
    CRUDE140  YLD66  0.195693  YLD67  0.486979
    CRUDE140  YLD68  0.426323  YLD69  0.370358
    CRUDE140  YLD70  0.372787  YLD71  0.275195
    CRUDE140  YLD72  0.34933  YLD73  0.42919
    CRUDE140  YLD74  0.483946  YLD75  0.289949
    CRUDE140  YLD76  0.362559  YLD77  0.232112
    CRUDE140  YLD78  0.477967  YLD79  0.429432
    CRUDE140  YLD80  0.44931  CAP  1
    CRUDE140  SULF  -1.43468
    CRUDE141  COST  -74.3309  YLD1  0.544503
    CRUDE141  YLD2  0.465116  YLD3  0.442409
    CRUDE141  YLD4  0.535295  YLD5  0.191324
    CRUDE141  YLD6  0.283428  YLD7  0.154171
    CRUDE141  YLD8  0.201195  YLD9  0.198099
    CRUDE141  YLD10  0.308174  YLD11  0.51288
    CRUDE141  YLD12  0.370796  YLD13  0.183568
    CRUDE141  YLD14  0.268715  YLD15  0.516641
    CRUDE141  YLD16  0.160095  YLD17  0.467572
    CRUDE141  YLD18  0.409242  YLD19  0.41118
    CRUDE141  YLD20  0.166571  YLD21  0.464033
    CRUDE141  YLD22  0.351483  YLD23  0.445497
    CRUDE141  YLD24  0.265698  YLD25  0.152719
    CRUDE141  YLD26  0.251704  YLD27  0.343254
    CRUDE141  YLD28  0.268758  YLD29  0.294643
    CRUDE141  YLD30  0.504977  YLD31  0.3598
    CRUDE141  YLD32  0.470061  YLD33  0.446007
    CRUDE141  YLD34  0.539358  YLD35  0.327542
    CRUDE141  YLD36  0.420556  YLD37  0.531295
    CRUDE141  YLD38  0.249942  YLD39  0.471722
    CRUDE141  YLD40  0.339269  YLD41  0.487809
    CRUDE141  YLD42  0.400927  YLD43  0.467919
    CRUDE141  YLD44  0.363085  YLD45  0.235223
    CRUDE141  YLD46  0.261502  YLD47  0.438622
    CRUDE141  YLD48  0.449695  YLD49  0.263179
    CRUDE141  YLD50  0.259894  YLD51  0.152598
    CRUDE141  YLD52  0.203888  YLD53  0.170208
    CRUDE141  YLD54  0.320863  YLD55  0.455014
    CRUDE141  YLD56  0.477652  YLD57  0.322074
    CRUDE141  YLD58  0.432174  YLD59  0.217589
    CRUDE141  YLD60  0.430388  YLD61  0.407154
    CRUDE141  YLD62  0.395598  YLD63  0.474674
    CRUDE141  YLD64  0.245572  YLD65  0.264007
    CRUDE141  YLD66  0.20636  YLD67  0.30516
    CRUDE141  YLD68  0.379988  YLD69  0.314284
    CRUDE141  YLD70  0.203388  YLD71  0.385023
    CRUDE141  YLD72  0.479846  YLD73  0.298382
    CRUDE141  YLD74  0.405613  YLD75  0.466464
    CRUDE141  YLD76  0.259434  YLD77  0.29569
    CRUDE141  YLD78  0.192415  YLD79  0.396983
    CRUDE141  YLD80  0.529878  CAP  1
    CRUDE141  SULF  -1.51108
    CRUDE142  COST  -58.9432  YLD1  0.364636
    CRUDE142  YLD2  0.391489  YLD3  0.22704
    CRUDE142  YLD4  0.162521  YLD5  0.383868
    CRUDE142  YLD6  0.38219  YLD7  0.252165
    CRUDE142  YLD8  0.502854  YLD9  0.177336
    CRUDE142  YLD10  0.275283  YLD11  0.527194
    CRUDE142  YLD12  0.471901  YLD13  0.283385
    CRUDE142  YLD14  0.366548  YLD15  0.432463
    CRUDE142  YLD16  0.251058  YLD17  0.213322
    CRUDE142  YLD18  0.500047  YLD19  0.211568
    CRUDE142  YLD20  0.537121  YLD21  0.259479
    CRUDE142  YLD22  0.501366  YLD23  0.272507
    CRUDE142  YLD24  0.297742  YLD25  0.455543
    CRUDE142  YLD26  0.40242  YLD27  0.175273
    CRUDE142  YLD28  0.150251  YLD29  0.312567
    CRUDE142  YLD30  0.204921  YLD31  0.410747
    CRUDE142  YLD32  0.522852  YLD33  0.273893
    CRUDE142  YLD34  0.325474  YLD35  0.225206
    CRUDE142  YLD36  0.186908  YLD37  0.366394
    CRUDE142  YLD38  0.284584  YLD39  0.215246
    CRUDE142  YLD40  0.402159  YLD41  0.382943
    CRUDE142  YLD42  0.270595  YLD43  0.195143
    CRUDE142  YLD44  0.30701  YLD45  0.396437
    CRUDE142  YLD46  0.338368  YLD47  0.495145
    CRUDE142  YLD48  0.524539  YLD49  0.245315
    CRUDE142  YLD50  0.341909  YLD51  0.193913
    CRUDE142  YLD52  0.313197  YLD53  0.41634
    CRUDE142  YLD54  0.190774  YLD55  0.252725
    CRUDE142  YLD56  0.178014  YLD57  0.384653
    CRUDE142  YLD58  0.420298  YLD59  0.336686
    CRUDE142  YLD60  0.524275  YLD61  0.376049
    CRUDE142  YLD62  0.235399  YLD63  0.44861
    CRUDE142  YLD64  0.197429  YLD65  0.442213
    CRUDE142  YLD66  0.491423  YLD67  0.405383
    CRUDE142  YLD68  0.220704  YLD69  0.485316
    CRUDE142  YLD70  0.264983  YLD71  0.421726
    CRUDE142  YLD72  0.476534  YLD73  0.222503
    CRUDE142  YLD74  0.312352  YLD75  0.400546
    CRUDE142  YLD76  0.520716  YLD77  0.410062
    CRUDE142  YLD78  0.311479  YLD79  0.379922
    CRUDE142  YLD80  0.349752  CAP  1
    CRUDE142  SULF  -0.155255
    CRUDE143  COST  -63.6013  YLD1  0.519617
    CRUDE143  YLD2  0.195707  YLD3  0.196113
    CRUDE143  YLD4  0.442508  YLD5  0.425283
    CRUDE143  YLD6  0.185507  YLD7  0.254285
    CRUDE143  YLD8  0.307379  YLD9  0.255326
    CRUDE143  YLD10  0.208825  YLD11  0.318954
    CRUDE143  YLD12  0.168423  YLD13  0.421016
    CRUDE143  YLD14  0.288092  YLD15  0.273582
    CRUDE143  YLD16  0.35803  YLD17  0.170714
    CRUDE143  YLD18  0.466208  YLD19  0.540813
    CRUDE143  YLD20  0.369946  YLD21  0.514727
    CRUDE143  YLD22  0.531007  YLD23  0.256033
    CRUDE143  YLD24  0.415497  YLD25  0.355633
    CRUDE143  YLD26  0.159994  YLD27  0.394457
    CRUDE143  YLD28  0.535238  YLD29  0.473748
    CRUDE143  YLD30  0.284538  YLD31  0.461793
    CRUDE143  YLD32  0.458092  YLD33  0.493501
    CRUDE143  YLD34  0.366303  YLD35  0.411255
    CRUDE143  YLD36  0.441807  YLD37  0.436107
    CRUDE143  YLD38  0.385663  YLD39  0.249682
    CRUDE143  YLD40  0.513149  YLD41  0.544427
    CRUDE143  YLD42  0.537208  YLD43  0.363409
    CRUDE143  YLD44  0.266554  YLD45  0.300099
    CRUDE143  YLD46  0.517139  YLD47  0.340166
    CRUDE143  YLD48  0.38664  YLD49  0.500049
    CRUDE143  YLD50  0.448295  YLD51  0.379211
    CRUDE143  YLD52  0.192703  YLD53  0.178672
    CRUDE143  YLD54  0.347429  YLD55  0.328505
    CRUDE143  YLD56  0.466473  YLD57  0.513807
    CRUDE143  YLD58  0.472625  YLD59  0.190115
    CRUDE143  YLD60  0.416269  YLD61  0.439188
    CRUDE143  YLD62  0.266576  YLD63  0.373984
    CRUDE143  YLD64  0.498333  YLD65  0.260712
    CRUDE143  YLD66  0.385489  YLD67  0.527188
    CRUDE143  YLD68  0.386826  YLD69  0.542381
    CRUDE143  YLD70  0.34715  YLD71  0.206332
    CRUDE143  YLD72  0.467712  YLD73  0.519859
    CRUDE143  YLD74  0.538608  YLD75  0.32816
    CRUDE143  YLD76  0.346092  YLD77  0.494671
    CRUDE143  YLD78  0.378503  YLD79  0.221816
    CRUDE143  YLD80  0.314199  CAP  1
    CRUDE143  SULF  -0.519316
    CRUDE144  COST  -37.7521  YLD1  0.244447
    CRUDE144  YLD2  0.315802  YLD3  0.318705
    CRUDE144  YLD4  0.51381  YLD5  0.308952
    CRUDE144  YLD6  0.534666  YLD7  0.177702
    CRUDE144  YLD8  0.481147  YLD9  0.168449
    CRUDE144  YLD10  0.34514  YLD11  0.300925
    CRUDE144  YLD12  0.473232  YLD13  0.178844
    CRUDE144  YLD14  0.31568  YLD15  0.203058
    CRUDE144  YLD16  0.358781  YLD17  0.372924
    CRUDE144  YLD18  0.206443  YLD19  0.367909
    CRUDE144  YLD20  0.535264  YLD21  0.189003
    CRUDE144  YLD22  0.451815  YLD23  0.428477
    CRUDE144  YLD24  0.197295  YLD25  0.461746
    CRUDE144  YLD26  0.43829  YLD27  0.543494
    CRUDE144  YLD28  0.517018  YLD29  0.301713
    CRUDE144  YLD30  0.384699  YLD31  0.456868
    CRUDE144  YLD32  0.44908  YLD33  0.430182
    CRUDE144  YLD34  0.537188  YLD35  0.209393
    CRUDE144  YLD36  0.288915  YLD37  0.372693
    CRUDE144  YLD38  0.331769  YLD39  0.286746
    CRUDE144  YLD40  0.317635  YLD41  0.404571
    CRUDE144  YLD42  0.431179  YLD43  0.190506
    CRUDE144  YLD44  0.479095  YLD45  0.543677
    CRUDE144  YLD46  0.304827  YLD47  0.54778
    CRUDE144  YLD48  0.154825  YLD49  0.497186
    CRUDE144  YLD50  0.232109  YLD51  0.159511
    CRUDE144  YLD52  0.476648  YLD53  0.432485
    CRUDE144  YLD54  0.428619  YLD55  0.427916
    CRUDE144  YLD56  0.390741  YLD57  0.225395
    CRUDE144  YLD58  0.268604  YLD59  0.284443
    CRUDE144  YLD60  0.256037  YLD61  0.317862
    CRUDE144  YLD62  0.491819  YLD63  0.402556
    CRUDE144  YLD64  0.152352  YLD65  0.435871
    CRUDE144  YLD66  0.499484  YLD67  0.234744
    CRUDE144  YLD68  0.366047  YLD69  0.408041
    CRUDE144  YLD70  0.403313  YLD71  0.327504
    CRUDE144  YLD72  0.479494  YLD73  0.191439
    CRUDE144  YLD74  0.335945  YLD75  0.186733
    CRUDE144  YLD76  0.486803  YLD77  0.202832
    CRUDE144  YLD78  0.15306  YLD79  0.323059
    CRUDE144  YLD80  0.181207  CAP  1
    CRUDE144  SULF  1.63785
    CRUDE145  COST  -71.9467  YLD1  0.453982
    CRUDE145  YLD2  0.495407  YLD3  0.468137
    CRUDE145  YLD4  0.492944  YLD5  0.341959
    CRUDE145  YLD6  0.403984  YLD7  0.533931
    CRUDE145  YLD8  0.465085  YLD9  0.376868
    CRUDE145  YLD10  0.202019  YLD11  0.524528
    CRUDE145  YLD12  0.221155  YLD13  0.232161
    CRUDE145  YLD14  0.442966  YLD15  0.354654
    CRUDE145  YLD16  0.385573  YLD17  0.212414
    CRUDE145  YLD18  0.368233  YLD19  0.204275
    CRUDE145  YLD20  0.195901  YLD21  0.491332
    CRUDE145  YLD22  0.328181  YLD23  0.227148
    CRUDE145  YLD24  0.531578  YLD25  0.358999
    CRUDE145  YLD26  0.355609  YLD27  0.294323
    CRUDE145  YLD28  0.455827  YLD29  0.16889
    CRUDE145  YLD30  0.191162  YLD31  0.539075
    CRUDE145  YLD32  0.243641  YLD33  0.310725
    CRUDE145  YLD34  0.252073  YLD35  0.37172
    CRUDE145  YLD36  0.42242  YLD37  0.491896
    CRUDE145  YLD38  0.448058  YLD39  0.217304
    CRUDE145  YLD40  0.463327  YLD41  0.483645
    CRUDE145  YLD42  0.204689  YLD43  0.49903
    CRUDE145  YLD44  0.330563  YLD45  0.162136
    CRUDE145  YLD46  0.375056  YLD47  0.541994
    CRUDE145  YLD48  0.163717  YLD49  0.402388
    CRUDE145  YLD50  0.267162  YLD51  0.308765
    CRUDE145  YLD52  0.412069  YLD53  0.163589
    CRUDE145  YLD54  0.25846  YLD55  0.181847
    CRUDE145  YLD56  0.379197  YLD57  0.472381
    CRUDE145  YLD58  0.354055  YLD59  0.301685
    CRUDE145  YLD60  0.378224  YLD61  0.188631
    CRUDE145  YLD62  0.549604  YLD63  0.24684
    CRUDE145  YLD64  0.305239  YLD65  0.303584
    CRUDE145  YLD66  0.465782  YLD67  0.173604
    CRUDE145  YLD68  0.347562  YLD69  0.499755
    CRUDE145  YLD70  0.223292  YLD71  0.280186
    CRUDE145  YLD72  0.234589  YLD73  0.367195
    CRUDE145  YLD74  0.537904  YLD75  0.39766
    CRUDE145  YLD76  0.340121  YLD77  0.475521
    CRUDE145  YLD78  0.411163  YLD79  0.287009
    CRUDE145  YLD80  0.506948  CAP  1
    CRUDE145  SULF  1.23712
    CRUDE146  COST  -42.5126  YLD1  0.362506
    CRUDE146  YLD2  0.519184  YLD3  0.448026
    CRUDE146  YLD4  0.535808  YLD5  0.424387
    CRUDE146  YLD6  0.451935  YLD7  0.341302
    CRUDE146  YLD8  0.39977  YLD9  0.263531
    CRUDE146  YLD10  0.484192  YLD11  0.420056
    CRUDE146  YLD12  0.355873  YLD13  0.302576
    CRUDE146  YLD14  0.502665  YLD15  0.152138
    CRUDE146  YLD16  0.45067  YLD17  0.483836
    CRUDE146  YLD18  0.192237  YLD19  0.507454
    CRUDE146  YLD20  0.346163  YLD21  0.281264
    CRUDE146  YLD22  0.386889  YLD23  0.187086
    CRUDE146  YLD24  0.496228  YLD25  0.40641
    CRUDE146  YLD26  0.392301  YLD27  0.451139
    CRUDE146  YLD28  0.18163  YLD29  0.220576
    CRUDE146  YLD30  0.442052  YLD31  0.264337
    CRUDE146  YLD32  0.17397  YLD33  0.180521
    CRUDE146  YLD34  0.493388  YLD35  0.360859
    CRUDE146  YLD36  0.299151  YLD37  0.521833
    CRUDE146  YLD38  0.235427  YLD39  0.382661
    CRUDE146  YLD40  0.257336  YLD41  0.469905
    CRUDE146  YLD42  0.316678  YLD43  0.353055
    CRUDE146  YLD44  0.350579  YLD45  0.549439
    CRUDE146  YLD46  0.471187  YLD47  0.502867
    CRUDE146  YLD48  0.430935  YLD49  0.339192
    CRUDE146  YLD50  0.288444  YLD51  0.271348
    CRUDE146  YLD52  0.352882  YLD53  0.486983
    CRUDE146  YLD54  0.268685  YLD55  0.387819
    CRUDE146  YLD56  0.333351  YLD57  0.20225
    CRUDE146  YLD58  0.41707  YLD59  0.336247
    CRUDE146  YLD60  0.32693  YLD61  0.165994
    CRUDE146  YLD62  0.277269  YLD63  0.32303
    CRUDE146  YLD64  0.261045  YLD65  0.458359
    CRUDE146  YLD66  0.419498  YLD67  0.364987
    CRUDE146  YLD68  0.355369  YLD69  0.389494
    CRUDE146  YLD70  0.153547  YLD71  0.172641
    CRUDE146  YLD72  0.342887  YLD73  0.275603
    CRUDE146  YLD74  0.228635  YLD75  0.215484
    CRUDE146  YLD76  0.437316  YLD77  0.475129
    CRUDE146  YLD78  0.413881  YLD79  0.53123
    CRUDE146  YLD80  0.248574  CAP  1
    CRUDE146  SULF  -1.47407
    CRUDE147  COST  -45.1633  YLD1  0.438206
    CRUDE147  YLD2  0.33628  YLD3  0.171953
    CRUDE147  YLD4  0.454038  YLD5  0.156952
    CRUDE147  YLD6  0.218191  YLD7  0.508326
    CRUDE147  YLD8  0.347792  YLD9  0.479814
    CRUDE147  YLD10  0.298159  YLD11  0.196409
    CRUDE147  YLD12  0.47331  YLD13  0.54282
    CRUDE147  YLD14  0.198598  YLD15  0.525365
    CRUDE147  YLD16  0.399391  YLD17  0.293334
    CRUDE147  YLD18  0.168118  YLD19  0.179855
    CRUDE147  YLD20  0.217802  YLD21  0.171509
    CRUDE147  YLD22  0.430374  YLD23  0.362889
    CRUDE147  YLD24  0.380886  YLD25  0.464533
    CRUDE147  YLD26  0.402752  YLD27  0.350014
    CRUDE147  YLD28  0.329001  YLD29  0.532361
    CRUDE147  YLD30  0.304898  YLD31  0.178444
    CRUDE147  YLD32  0.35704  YLD33  0.44308
    CRUDE147  YLD34  0.368556  YLD35  0.443691
    CRUDE147  YLD36  0.208227  YLD37  0.223688
    CRUDE147  YLD38  0.154269  YLD39  0.54018
    CRUDE147  YLD40  0.429189  YLD41  0.288184
    CRUDE147  YLD42  0.304168  YLD43  0.473186
    CRUDE147  YLD44  0.358331  YLD45  0.399451
    CRUDE147  YLD46  0.320853  YLD47  0.379948
    CRUDE147  YLD48  0.261634  YLD49  0.418846
    CRUDE147  YLD50  0.448691  YLD51  0.435739
    CRUDE147  YLD52  0.287206  YLD53  0.336378
    CRUDE147  YLD54  0.48679  YLD55  0.385751
    CRUDE147  YLD56  0.260818  YLD57  0.246894
    CRUDE147  YLD58  0.160503  YLD59  0.336648
    CRUDE147  YLD60  0.372568  YLD61  0.341609
    CRUDE147  YLD62  0.209543  YLD63  0.252146
    CRUDE147  YLD64  0.37815  YLD65  0.207124
    CRUDE147  YLD66  0.393725  YLD67  0.207039
    CRUDE147  YLD68  0.215595  YLD69  0.425915
    CRUDE147  YLD70  0.287904  YLD71  0.483277
    CRUDE147  YLD72  0.343949  YLD73  0.258566
    CRUDE147  YLD74  0.511855  YLD75  0.180635
    CRUDE147  YLD76  0.284753  YLD77  0.384768
    CRUDE147  YLD78  0.411011  YLD79  0.246928
    CRUDE147  YLD80  0.175583  CAP  1
    CRUDE147  SULF  0.170152
    CRUDE148  COST  -46.3326  YLD1  0.174937
    CRUDE148  YLD2  0.342335  YLD3  0.332057
    CRUDE148  YLD4  0.32692  YLD5  0.279252
    CRUDE148  YLD6  0.313791  YLD7  0.278886
    CRUDE148  YLD8  0.54182  YLD9  0.179696
    CRUDE148  YLD10  0.299921  YLD11  0.166917
    CRUDE148  YLD12  0.251528  YLD13  0.463945
    CRUDE148  YLD14  0.403856  YLD15  0.315926
    CRUDE148  YLD16  0.390113  YLD17  0.515157
    CRUDE148  YLD18  0.412554  YLD19  0.513094
    CRUDE148  YLD20  0.17039  YLD21  0.417743
    CRUDE148  YLD22  0.227709  YLD23  0.478657
    CRUDE148  YLD24  0.419615  YLD25  0.312043
    CRUDE148  YLD26  0.36082  YLD27  0.201125
    CRUDE148  YLD28  0.190757  YLD29  0.178162
    CRUDE148  YLD30  0.463762  YLD31  0.288263
    CRUDE148  YLD32  0.199774  YLD33  0.396754
    CRUDE148  YLD34  0.377791  YLD35  0.172044
    CRUDE148  YLD36  0.312444  YLD37  0.324744
    CRUDE148  YLD38  0.460623  YLD39  0.454584
    CRUDE148  YLD40  0.150632  YLD41  0.253844
    CRUDE148  YLD42  0.363699  YLD43  0.297234
    CRUDE148  YLD44  0.329347  YLD45  0.373483
    CRUDE148  YLD46  0.243417  YLD47  0.309203
    CRUDE148  YLD48  0.381752  YLD49  0.392892
    CRUDE148  YLD50  0.488769  YLD51  0.172231
    CRUDE148  YLD52  0.2237  YLD53  0.187382
    CRUDE148  YLD54  0.154145  YLD55  0.423691
    CRUDE148  YLD56  0.335628  YLD57  0.247338
    CRUDE148  YLD58  0.300695  YLD59  0.252802
    CRUDE148  YLD60  0.357044  YLD61  0.389717
    CRUDE148  YLD62  0.467268  YLD63  0.503767
    CRUDE148  YLD64  0.250203  YLD65  0.231992
    CRUDE148  YLD66  0.169336  YLD67  0.224928
    CRUDE148  YLD68  0.335391  YLD69  0.425267
    CRUDE148  YLD70  0.343149  YLD71  0.168067
    CRUDE148  YLD72  0.506201  YLD73  0.408334
    CRUDE148  YLD74  0.155529  YLD75  0.415598
    CRUDE148  YLD76  0.399923  YLD77  0.454259
    CRUDE148  YLD78  0.215387  YLD79  0.338607
    CRUDE148  YLD80  0.364881  CAP  1
    CRUDE148  SULF  1.12975
    CRUDE149  COST  -43.5771  YLD1  0.209096
    CRUDE149  YLD2  0.517382  YLD3  0.358974
    CRUDE149  YLD4  0.274781  YLD5  0.539239
    CRUDE149  YLD6  0.319076  YLD7  0.200093
    CRUDE149  YLD8  0.207986  YLD9  0.240541
    CRUDE149  YLD10  0.339603  YLD11  0.375852
    CRUDE149  YLD12  0.248323  YLD13  0.443395
    CRUDE149  YLD14  0.382858  YLD15  0.310934
    CRUDE149  YLD16  0.171406  YLD17  0.376275
    CRUDE149  YLD18  0.364061  YLD19  0.548626
    CRUDE149  YLD20  0.397012  YLD21  0.242512
    CRUDE149  YLD22  0.32888  YLD23  0.190552
    CRUDE149  YLD24  0.156664  YLD25  0.151083
    CRUDE149  YLD26  0.383014  YLD27  0.382895
    CRUDE149  YLD28  0.156368  YLD29  0.291972
    CRUDE149  YLD30  0.347159  YLD31  0.447318
    CRUDE149  YLD32  0.534878  YLD33  0.151165
    CRUDE149  YLD34  0.28727  YLD35  0.505149
    CRUDE149  YLD36  0.195069  YLD37  0.306953
    CRUDE149  YLD38  0.47866  YLD39  0.319355
    CRUDE149  YLD40  0.498603  YLD41  0.322197
    CRUDE149  YLD42  0.486772  YLD43  0.200031
    CRUDE149  YLD44  0.252435  YLD45  0.173805
    CRUDE149  YLD46  0.54781  YLD47  0.295755
    CRUDE149  YLD48  0.230911  YLD49  0.316294
    CRUDE149  YLD50  0.300555  YLD51  0.345493
    CRUDE149  YLD52  0.192579  YLD53  0.432728
    CRUDE149  YLD54  0.404588  YLD55  0.297971
    CRUDE149  YLD56  0.330011  YLD57  0.500992
    CRUDE149  YLD58  0.428355  YLD59  0.490084
    CRUDE149  YLD60  0.49351  YLD61  0.18154
    CRUDE149  YLD62  0.390182  YLD63  0.195022
    CRUDE149  YLD64  0.274482  YLD65  0.424365
    CRUDE149  YLD66  0.49891  YLD67  0.506616
    CRUDE149  YLD68  0.392261  YLD69  0.431915
    CRUDE149  YLD70  0.223773  YLD71  0.411303
    CRUDE149  YLD72  0.268757  YLD73  0.242495
    CRUDE149  YLD74  0.368121  YLD75  0.514824
    CRUDE149  YLD76  0.349349  YLD77  0.222752
    CRUDE149  YLD78  0.252293  YLD79  0.525232
    CRUDE149  YLD80  0.48836  CAP  1
    CRUDE149  SULF  1.58311
    CRUDE150  COST  -52.8633  YLD1  0.203247
    CRUDE150  YLD2  0.384827  YLD3  0.407819
    CRUDE150  YLD4  0.278297  YLD5  0.382045
    CRUDE150  YLD6  0.478723  YLD7  0.339734
    CRUDE150  YLD8  0.440062  YLD9  0.442098
    CRUDE150  YLD10  0.327651  YLD11  0.522068
    CRUDE150  YLD12  0.311106  YLD13  0.196476
    CRUDE150  YLD14  0.197366  YLD15  0.306237
    CRUDE150  YLD16  0.300612  YLD17  0.223069
    CRUDE150  YLD18  0.182809  YLD19  0.430173
    CRUDE150  YLD20  0.233113  YLD21  0.247428
    CRUDE150  YLD22  0.481929  YLD23  0.466757
    CRUDE150  YLD24  0.285578  YLD25  0.489979
    CRUDE150  YLD26  0.423515  YLD27  0.26995
    CRUDE150  YLD28  0.396473  YLD29  0.351272
    CRUDE150  YLD30  0.22235  YLD31  0.325245
    CRUDE150  YLD32  0.26597  YLD33  0.153768
    CRUDE150  YLD34  0.374634  YLD35  0.431197
    CRUDE150  YLD36  0.380753  YLD37  0.312086
    CRUDE150  YLD38  0.173792  YLD39  0.151802
    CRUDE150  YLD40  0.162152  YLD41  0.336897
    CRUDE150  YLD42  0.383369  YLD43  0.1666
    CRUDE150  YLD44  0.198136  YLD45  0.259332
    CRUDE150  YLD46  0.532628  YLD47  0.15485
    CRUDE150  YLD48  0.2581  YLD49  0.301852
    CRUDE150  YLD50  0.268648  YLD51  0.381646
    CRUDE150  YLD52  0.537696  YLD53  0.345716
    CRUDE150  YLD54  0.307554  YLD55  0.329592
    CRUDE150  YLD56  0.383502  YLD57  0.229607
    CRUDE150  YLD58  0.251038  YLD59  0.292217
    CRUDE150  YLD60  0.41072  YLD61  0.264761
    CRUDE150  YLD62  0.19016  YLD63  0.421896
    CRUDE150  YLD64  0.490016  YLD65  0.374092
    CRUDE150  YLD66  0.317137  YLD67  0.152961
    CRUDE150  YLD68  0.34578  YLD69  0.278405
    CRUDE150  YLD70  0.346866  YLD71  0.275631
    CRUDE150  YLD72  0.522598  YLD73  0.516546
    CRUDE150  YLD74  0.319221  YLD75  0.334237
    CRUDE150  YLD76  0.296846  YLD77  0.217834
    CRUDE150  YLD78  0.24895  YLD79  0.465672
    CRUDE150  YLD80  0.312654  CAP  1
    CRUDE150  SULF  1.17646
    CRUDE151  COST  -39.719  YLD1  0.424866
    CRUDE151  YLD2  0.163139  YLD3  0.410067
    CRUDE151  YLD4  0.439769  YLD5  0.25169
    CRUDE151  YLD6  0.150495  YLD7  0.195583
    CRUDE151  YLD8  0.226476  YLD9  0.389523
    CRUDE151  YLD10  0.547943  YLD11  0.487699
    CRUDE151  YLD12  0.507857  YLD13  0.462398
    CRUDE151  YLD14  0.234758  YLD15  0.177731
    CRUDE151  YLD16  0.242822  YLD17  0.20584
    CRUDE151  YLD18  0.163976  YLD19  0.458179
    CRUDE151  YLD20  0.385079  YLD21  0.272419
    CRUDE151  YLD22  0.41189  YLD23  0.474629
    CRUDE151  YLD24  0.468264  YLD25  0.302356
    CRUDE151  YLD26  0.451248  YLD27  0.163761
    CRUDE151  YLD28  0.534332  YLD29  0.347312
    CRUDE151  YLD30  0.443905  YLD31  0.477115
    CRUDE151  YLD32  0.491178  YLD33  0.473517
    CRUDE151  YLD34  0.179257  YLD35  0.23645
    CRUDE151  YLD36  0.166381  YLD37  0.20021
    CRUDE151  YLD38  0.394363  YLD39  0.27531
    CRUDE151  YLD40  0.435102  YLD41  0.246034
    CRUDE151  YLD42  0.174623  YLD43  0.262604
    CRUDE151  YLD44  0.189415  YLD45  0.519865
    CRUDE151  YLD46  0.487392  YLD47  0.24967
    CRUDE151  YLD48  0.351856  YLD49  0.303118
    CRUDE151  YLD50  0.505779  YLD51  0.396916
    CRUDE151  YLD52  0.229859  YLD53  0.22638
    CRUDE151  YLD54  0.269352  YLD55  0.281988
    CRUDE151  YLD56  0.26263  YLD57  0.464784
    CRUDE151  YLD58  0.533082  YLD59  0.241835
    CRUDE151  YLD60  0.225503  YLD61  0.278813
    CRUDE151  YLD62  0.528709  YLD63  0.254113
    CRUDE151  YLD64  0.391276  YLD65  0.231551
    CRUDE151  YLD66  0.373915  YLD67  0.476728
    CRUDE151  YLD68  0.345474  YLD69  0.380265
    CRUDE151  YLD70  0.285394  YLD71  0.226852
    CRUDE151  YLD72  0.330318  YLD73  0.312418
    CRUDE151  YLD74  0.360035  YLD75  0.166398
    CRUDE151  YLD76  0.502623  YLD77  0.49512
    CRUDE151  YLD78  0.534027  YLD79  0.535806
    CRUDE151  YLD80  0.463227  CAP  1
    CRUDE151  SULF  -0.244752
    CRUDE152  COST  -64.9756  YLD1  0.487776
    CRUDE152  YLD2  0.5151  YLD3  0.295879
    CRUDE152  YLD4  0.448335  YLD5  0.358692
    CRUDE152  YLD6  0.270341  YLD7  0.344406
    CRUDE152  YLD8  0.285305  YLD9  0.175797
    CRUDE152  YLD10  0.368152  YLD11  0.420339
    CRUDE152  YLD12  0.150177  YLD13  0.464108
    CRUDE152  YLD14  0.274401  YLD15  0.405329
    CRUDE152  YLD16  0.256148  YLD17  0.380589
    CRUDE152  YLD18  0.545903  YLD19  0.284921
    CRUDE152  YLD20  0.194946  YLD21  0.175474
    CRUDE152  YLD22  0.314482  YLD23  0.34291
    CRUDE152  YLD24  0.180993  YLD25  0.348417
    CRUDE152  YLD26  0.440981  YLD27  0.403972
    CRUDE152  YLD28  0.511147  YLD29  0.151584
    CRUDE152  YLD30  0.250858  YLD31  0.369731
    CRUDE152  YLD32  0.30505  YLD33  0.25376
    CRUDE152  YLD34  0.455857  YLD35  0.223362
    CRUDE152  YLD36  0.360928  YLD37  0.475446
    CRUDE152  YLD38  0.301283  YLD39  0.360704
    CRUDE152  YLD40  0.168503  YLD41  0.507839
    CRUDE152  YLD42  0.412166  YLD43  0.247693
    CRUDE152  YLD44  0.452985  YLD45  0.291698
    CRUDE152  YLD46  0.42535  YLD47  0.437523
    CRUDE152  YLD48  0.540228  YLD49  0.385653
    CRUDE152  YLD50  0.549746  YLD51  0.312063
    CRUDE152  YLD52  0.17395  YLD53  0.156269
    CRUDE152  YLD54  0.413038  YLD55  0.473267
    CRUDE152  YLD56  0.181038  YLD57  0.334723
    CRUDE152  YLD58  0.162065  YLD59  0.220324
    CRUDE152  YLD60  0.175207  YLD61  0.375118
    CRUDE152  YLD62  0.18122  YLD63  0.340231
    CRUDE152  YLD64  0.208273  YLD65  0.511131
    CRUDE152  YLD66  0.158781  YLD67  0.35678
    CRUDE152  YLD68  0.181007  YLD69  0.387654
    CRUDE152  YLD70  0.332036  YLD71  0.416834
    CRUDE152  YLD72  0.417915  YLD73  0.42095
    CRUDE152  YLD74  0.371378  YLD75  0.502119
    CRUDE152  YLD76  0.195085  YLD77  0.349259
    CRUDE152  YLD78  0.177011  YLD79  0.393332
    CRUDE152  YLD80  0.484558  CAP  1
    CRUDE152  SULF  -1.14565
    CRUDE153  COST  -36.6373  YLD1  0.449846
    CRUDE153  YLD2  0.249291  YLD3  0.374271
    CRUDE153  YLD4  0.230144  YLD5  0.287061
    CRUDE153  YLD6  0.542495  YLD7  0.518119
    CRUDE153  YLD8  0.273479  YLD9  0.500896
    CRUDE153  YLD10  0.185281  YLD11  0.205646
    CRUDE153  YLD12  0.510553  YLD13  0.390441
    CRUDE153  YLD14  0.216772  YLD15  0.443201
    CRUDE153  YLD16  0.371735  YLD17  0.454753
    CRUDE153  YLD18  0.162009  YLD19  0.526631
    CRUDE153  YLD20  0.282795  YLD21  0.220851
    CRUDE153  YLD22  0.415345  YLD23  0.172924
    CRUDE153  YLD24  0.262926  YLD25  0.153107
    CRUDE153  YLD26  0.497847  YLD27  0.493573
    CRUDE153  YLD28  0.428702  YLD29  0.350465
    CRUDE153  YLD30  0.346324  YLD31  0.521917
    CRUDE153  YLD32  0.279278  YLD33  0.404453
    CRUDE153  YLD34  0.263875  YLD35  0.322664
    CRUDE153  YLD36  0.504547  YLD37  0.164306
    CRUDE153  YLD38  0.467558  YLD39  0.2797
    CRUDE153  YLD40  0.256498  YLD41  0.367019
    CRUDE153  YLD42  0.153306  YLD43  0.374141
    CRUDE153  YLD44  0.239411  YLD45  0.414661
    CRUDE153  YLD46  0.267946  YLD47  0.391453
    CRUDE153  YLD48  0.396508  YLD49  0.409068
    CRUDE153  YLD50  0.418141  YLD51  0.271747
    CRUDE153  YLD52  0.534667  YLD53  0.317199
    CRUDE153  YLD54  0.483867  YLD55  0.202244
    CRUDE153  YLD56  0.208036  YLD57  0.549636
    CRUDE153  YLD58  0.533235  YLD59  0.279031
    CRUDE153  YLD60  0.319746  YLD61  0.261393
    CRUDE153  YLD62  0.400143  YLD63  0.269765
    CRUDE153  YLD64  0.440589  YLD65  0.260378
    CRUDE153  YLD66  0.524429  YLD67  0.373718
    CRUDE153  YLD68  0.22631  YLD69  0.276029
    CRUDE153  YLD70  0.288983  YLD71  0.379815
    CRUDE153  YLD72  0.257553  YLD73  0.441102
    CRUDE153  YLD74  0.305613  YLD75  0.17679
    CRUDE153  YLD76  0.344769  YLD77  0.248375
    CRUDE153  YLD78  0.321505  YLD79  0.283515
    CRUDE153  YLD80  0.331761  CAP  1
    CRUDE153  SULF  1.59725
    CRUDE154  COST  -65.7298  YLD1  0.162189
    CRUDE154  YLD2  0.381053  YLD3  0.342425
    CRUDE154  YLD4  0.497249  YLD5  0.362898
    CRUDE154  YLD6  0.339955  YLD7  0.358307
    CRUDE154  YLD8  0.528814  YLD9  0.500905
    CRUDE154  YLD10  0.392751  YLD11  0.251693
    CRUDE154  YLD12  0.211523  YLD13  0.546145
    CRUDE154  YLD14  0.247492  YLD15  0.42045
    CRUDE154  YLD16  0.229802  YLD17  0.462602
    CRUDE154  YLD18  0.327811  YLD19  0.361886
    CRUDE154  YLD20  0.462653  YLD21  0.152056
    CRUDE154  YLD22  0.197289  YLD23  0.219836
    CRUDE154  YLD24  0.384119  YLD25  0.346837
    CRUDE154  YLD26  0.225777  YLD27  0.287908
    CRUDE154  YLD28  0.188656  YLD29  0.303509
    CRUDE154  YLD30  0.180213  YLD31  0.529145
    CRUDE154  YLD32  0.524063  YLD33  0.331686
    CRUDE154  YLD34  0.505043  YLD35  0.477026
    CRUDE154  YLD36  0.485149  YLD37  0.361291
    CRUDE154  YLD38  0.499766  YLD39  0.194414
    CRUDE154  YLD40  0.348881  YLD41  0.541378
    CRUDE154  YLD42  0.461984  YLD43  0.158696
    CRUDE154  YLD44  0.172269  YLD45  0.549799
    CRUDE154  YLD46  0.515365  YLD47  0.516569
    CRUDE154  YLD48  0.524459  YLD49  0.330697
    CRUDE154  YLD50  0.545992  YLD51  0.422997
    CRUDE154  YLD52  0.369581  YLD53  0.184252
    CRUDE154  YLD54  0.373357  YLD55  0.535182
    CRUDE154  YLD56  0.429671  YLD57  0.485637
    CRUDE154  YLD58  0.236706  YLD59  0.177021
    CRUDE154  YLD60  0.156244  YLD61  0.188259
    CRUDE154  YLD62  0.319575  YLD63  0.279298
    CRUDE154  YLD64  0.232984  YLD65  0.318429
    CRUDE154  YLD66  0.511096  YLD67  0.418707
    CRUDE154  YLD68  0.278389  YLD69  0.289941
    CRUDE154  YLD70  0.401387  YLD71  0.276103
    CRUDE154  YLD72  0.314119  YLD73  0.423177
    CRUDE154  YLD74  0.549279  YLD75  0.497005
    CRUDE154  YLD76  0.227748  YLD77  0.425492
    CRUDE154  YLD78  0.498502  YLD79  0.48066
    CRUDE154  YLD80  0.386382  CAP  1
    CRUDE154  SULF  -1.4667
    CRUDE155  COST  -49.941  YLD1  0.496886
    CRUDE155  YLD2  0.216205  YLD3  0.503999
    CRUDE155  YLD4  0.43597  YLD5  0.200297
    CRUDE155  YLD6  0.303011  YLD7  0.3966
    CRUDE155  YLD8  0.536942  YLD9  0.282163
    CRUDE155  YLD10  0.210634  YLD11  0.500204
    CRUDE155  YLD12  0.546035  YLD13  0.280102
    CRUDE155  YLD14  0.25704  YLD15  0.205374
    CRUDE155  YLD16  0.26758  YLD17  0.260303
    CRUDE155  YLD18  0.351848  YLD19  0.442955
    CRUDE155  YLD20  0.324821  YLD21  0.328164
    CRUDE155  YLD22  0.310599  YLD23  0.432971
    CRUDE155  YLD24  0.252565  YLD25  0.544595
    CRUDE155  YLD26  0.310459  YLD27  0.306118
    CRUDE155  YLD28  0.259666  YLD29  0.538832
    CRUDE155  YLD30  0.397147  YLD31  0.177722
    CRUDE155  YLD32  0.295329  YLD33  0.495372
    CRUDE155  YLD34  0.29714  YLD35  0.48718
    CRUDE155  YLD36  0.503113  YLD37  0.414751
    CRUDE155  YLD38  0.490402  YLD39  0.327106
    CRUDE155  YLD40  0.317975  YLD41  0.474007
    CRUDE155  YLD42  0.416654  YLD43  0.358228
    CRUDE155  YLD44  0.469007  YLD45  0.255228
    CRUDE155  YLD46  0.260223  YLD47  0.170009
    CRUDE155  YLD48  0.533752  YLD49  0.537477
    CRUDE155  YLD50  0.413987  YLD51  0.489028
    CRUDE155  YLD52  0.468663  YLD53  0.187668
    CRUDE155  YLD54  0.162438  YLD55  0.403934
    CRUDE155  YLD56  0.158997  YLD57  0.445881
    CRUDE155  YLD58  0.169529  YLD59  0.163163
    CRUDE155  YLD60  0.277319  YLD61  0.215943
    CRUDE155  YLD62  0.37265  YLD63  0.254157
    CRUDE155  YLD64  0.323202  YLD65  0.230915
    CRUDE155  YLD66  0.367311  YLD67  0.322578
    CRUDE155  YLD68  0.317739  YLD69  0.454899
    CRUDE155  YLD70  0.167159  YLD71  0.355184
    CRUDE155  YLD72  0.43392  YLD73  0.51136
    CRUDE155  YLD74  0.540603  YLD75  0.306728
    CRUDE155  YLD76  0.494422  YLD77  0.50675
    CRUDE155  YLD78  0.457786  YLD79  0.266583
    CRUDE155  YLD80  0.363565  CAP  1
    CRUDE155  SULF  -0.171602
    CRUDE156  COST  -67.2021  YLD1  0.291659
    CRUDE156  YLD2  0.163552  YLD3  0.362106
    CRUDE156  YLD4  0.3751  YLD5  0.203086
    CRUDE156  YLD6  0.197932  YLD7  0.212655
    CRUDE156  YLD8  0.223206  YLD9  0.286162
    CRUDE156  YLD10  0.162375  YLD11  0.223123
    CRUDE156  YLD12  0.531939  YLD13  0.526509
    CRUDE156  YLD14  0.28427  YLD15  0.381536
    CRUDE156  YLD16  0.244834  YLD17  0.231699
    CRUDE156  YLD18  0.196912  YLD19  0.519643
    CRUDE156  YLD20  0.401098  YLD21  0.183702
    CRUDE156  YLD22  0.467251  YLD23  0.434711
    CRUDE156  YLD24  0.523591  YLD25  0.261307
    CRUDE156  YLD26  0.529118  YLD27  0.506409
    CRUDE156  YLD28  0.278023  YLD29  0.213664
    CRUDE156  YLD30  0.416343  YLD31  0.332565
    CRUDE156  YLD32  0.306115  YLD33  0.516784
    CRUDE156  YLD34  0.20713  YLD35  0.358182
    CRUDE156  YLD36  0.51882  YLD37  0.232988
    CRUDE156  YLD38  0.460882  YLD39  0.251301
    CRUDE156  YLD40  0.226734  YLD41  0.372282
    CRUDE156  YLD42  0.273514  YLD43  0.306709
    CRUDE156  YLD44  0.211625  YLD45  0.380432
    CRUDE156  YLD46  0.470324  YLD47  0.212111
    CRUDE156  YLD48  0.233244  YLD49  0.183538
    CRUDE156  YLD50  0.443384  YLD51  0.427447
    CRUDE156  YLD52  0.167506  YLD53  0.256932
    CRUDE156  YLD54  0.33456  YLD55  0.504763
    CRUDE156  YLD56  0.492577  YLD57  0.498291
    CRUDE156  YLD58  0.26699  YLD59  0.392057
    CRUDE156  YLD60  0.297209  YLD61  0.219579
    CRUDE156  YLD62  0.235286  YLD63  0.451117
    CRUDE156  YLD64  0.408643  YLD65  0.305211
    CRUDE156  YLD66  0.380925  YLD67  0.196245
    CRUDE156  YLD68  0.387575  YLD69  0.38309
    CRUDE156  YLD70  0.218362  YLD71  0.248495
    CRUDE156  YLD72  0.355099  YLD73  0.242452
    CRUDE156  YLD74  0.534698  YLD75  0.296158
    CRUDE156  YLD76  0.251388  YLD77  0.402929
    CRUDE156  YLD78  0.478977  YLD79  0.215909
    CRUDE156  YLD80  0.525678  CAP  1
    CRUDE156  SULF  -0.77438
    CRUDE157  COST  -39.2167  YLD1  0.308866
    CRUDE157  YLD2  0.274589  YLD3  0.326413
    CRUDE157  YLD4  0.338613  YLD5  0.207417
    CRUDE157  YLD6  0.539666  YLD7  0.167494
    CRUDE157  YLD8  0.158814  YLD9  0.545611
    CRUDE157  YLD10  0.538297  YLD11  0.261376
    CRUDE157  YLD12  0.34787  YLD13  0.515892
    CRUDE157  YLD14  0.449756  YLD15  0.377794
    CRUDE157  YLD16  0.529401  YLD17  0.156703
    CRUDE157  YLD18  0.217625  YLD19  0.540072
    CRUDE157  YLD20  0.408983  YLD21  0.423061
    CRUDE157  YLD22  0.238204  YLD23  0.509342
    CRUDE157  YLD24  0.202423  YLD25  0.308167
    CRUDE157  YLD26  0.308636  YLD27  0.475444
    CRUDE157  YLD28  0.45526  YLD29  0.291662
    CRUDE157  YLD30  0.30147  YLD31  0.393876
    CRUDE157  YLD32  0.192437  YLD33  0.548723
    CRUDE157  YLD34  0.428353  YLD35  0.494324
    CRUDE157  YLD36  0.191811  YLD37  0.51234
    CRUDE157  YLD38  0.257621  YLD39  0.513693
    CRUDE157  YLD40  0.283526  YLD41  0.528816
    CRUDE157  YLD42  0.266977  YLD43  0.380849
    CRUDE157  YLD44  0.400058  YLD45  0.428575
    CRUDE157  YLD46  0.517303  YLD47  0.465698
    CRUDE157  YLD48  0.274477  YLD49  0.288819
    CRUDE157  YLD50  0.305462  YLD51  0.522841
    CRUDE157  YLD52  0.376778  YLD53  0.402183
    CRUDE157  YLD54  0.335104  YLD55  0.320493
    CRUDE157  YLD56  0.427759  YLD57  0.403612
    CRUDE157  YLD58  0.464513  YLD59  0.397659
    CRUDE157  YLD60  0.300236  YLD61  0.487078
    CRUDE157  YLD62  0.425244  YLD63  0.296286
    CRUDE157  YLD64  0.258772  YLD65  0.346659
    CRUDE157  YLD66  0.432007  YLD67  0.191128
    CRUDE157  YLD68  0.495338  YLD69  0.209684
    CRUDE157  YLD70  0.3231  YLD71  0.495479
    CRUDE157  YLD72  0.522283  YLD73  0.184422
    CRUDE157  YLD74  0.541634  YLD75  0.367119
    CRUDE157  YLD76  0.403372  YLD77  0.288938
    CRUDE157  YLD78  0.538917  YLD79  0.432516
    CRUDE157  YLD80  0.440202  CAP  1
    CRUDE157  SULF  -1.33534
    CRUDE158  COST  -51.4157  YLD1  0.191948
    CRUDE158  YLD2  0.462198  YLD3  0.311794
    CRUDE158  YLD4  0.367293  YLD5  0.525928
    CRUDE158  YLD6  0.158011  YLD7  0.194323
    CRUDE158  YLD8  0.438003  YLD9  0.40047
    CRUDE158  YLD10  0.459416  YLD11  0.20184
    CRUDE158  YLD12  0.355088  YLD13  0.154592
    CRUDE158  YLD14  0.378765  YLD15  0.497364
    CRUDE158  YLD16  0.527866  YLD17  0.42168
    CRUDE158  YLD18  0.290722  YLD19  0.483282
    CRUDE158  YLD20  0.487502  YLD21  0.244249
    CRUDE158  YLD22  0.224385  YLD23  0.383074
    CRUDE158  YLD24  0.468958  YLD25  0.424876
    CRUDE158  YLD26  0.199948  YLD27  0.435981
    CRUDE158  YLD28  0.4709  YLD29  0.317793
    CRUDE158  YLD30  0.531769  YLD31  0.252349
    CRUDE158  YLD32  0.418179  YLD33  0.211474
    CRUDE158  YLD34  0.215831  YLD35  0.152177
    CRUDE158  YLD36  0.201499  YLD37  0.48542
    CRUDE158  YLD38  0.474756  YLD39  0.190702
    CRUDE158  YLD40  0.441083  YLD41  0.35195
    CRUDE158  YLD42  0.469309  YLD43  0.430967
    CRUDE158  YLD44  0.285457  YLD45  0.215851
    CRUDE158  YLD46  0.391202  YLD47  0.293403
    CRUDE158  YLD48  0.457997  YLD49  0.31763
    CRUDE158  YLD50  0.323187  YLD51  0.436905
    CRUDE158  YLD52  0.309284  YLD53  0.361964
    CRUDE158  YLD54  0.367519  YLD55  0.282912
    CRUDE158  YLD56  0.457235  YLD57  0.487461
    CRUDE158  YLD58  0.450977  YLD59  0.361835
    CRUDE158  YLD60  0.54174  YLD61  0.263728
    CRUDE158  YLD62  0.533888  YLD63  0.440543
    CRUDE158  YLD64  0.303643  YLD65  0.268099
    CRUDE158  YLD66  0.255878  YLD67  0.451745
    CRUDE158  YLD68  0.213666  YLD69  0.485055
    CRUDE158  YLD70  0.292519  YLD71  0.275528
    CRUDE158  YLD72  0.44485  YLD73  0.172186
    CRUDE158  YLD74  0.467205  YLD75  0.532834
    CRUDE158  YLD76  0.216225  YLD77  0.343295
    CRUDE158  YLD78  0.304905  YLD79  0.405582
    CRUDE158  YLD80  0.520137  CAP  1
    CRUDE158  SULF  0.66983
    CRUDE159  COST  -32.9097  YLD1  0.444962
    CRUDE159  YLD2  0.261035  YLD3  0.378971
    CRUDE159  YLD4  0.213698  YLD5  0.44316
    CRUDE159  YLD6  0.444872  YLD7  0.389413
    CRUDE159  YLD8  0.317196  YLD9  0.362527
    CRUDE159  YLD10  0.542044  YLD11  0.420443
    CRUDE159  YLD12  0.34262  YLD13  0.330047
    CRUDE159  YLD14  0.544499  YLD15  0.301651
    CRUDE159  YLD16  0.393977  YLD17  0.180627
    CRUDE159  YLD18  0.45467  YLD19  0.271207
    CRUDE159  YLD20  0.279969  YLD21  0.52743
    CRUDE159  YLD22  0.530327  YLD23  0.199643
    CRUDE159  YLD24  0.353179  YLD25  0.475917
    CRUDE159  YLD26  0.360178  YLD27  0.249519
    CRUDE159  YLD28  0.304042  YLD29  0.306277
    CRUDE159  YLD30  0.499668  YLD31  0.312831
    CRUDE159  YLD32  0.265536  YLD33  0.495186
    CRUDE159  YLD34  0.451472  YLD35  0.16407
    CRUDE159  YLD36  0.372803  YLD37  0.338433
    CRUDE159  YLD38  0.363391  YLD39  0.169661
    CRUDE159  YLD40  0.417703  YLD41  0.504843
    CRUDE159  YLD42  0.463335  YLD43  0.403637
    CRUDE159  YLD44  0.200592  YLD45  0.209469
    CRUDE159  YLD46  0.471222  YLD47  0.197338
    CRUDE159  YLD48  0.496706  YLD49  0.156769
    CRUDE159  YLD50  0.207654  YLD51  0.455847
    CRUDE159  YLD52  0.458786  YLD53  0.177595
    CRUDE159  YLD54  0.418384  YLD55  0.51029
    CRUDE159  YLD56  0.484394  YLD57  0.254451
    CRUDE159  YLD58  0.233536  YLD59  0.454914
    CRUDE159  YLD60  0.27156  YLD61  0.435877
    CRUDE159  YLD62  0.33337  YLD63  0.332428
    CRUDE159  YLD64  0.44366  YLD65  0.457637
    CRUDE159  YLD66  0.238766  YLD67  0.238414
    CRUDE159  YLD68  0.156035  YLD69  0.503246
    CRUDE159  YLD70  0.306653  YLD71  0.248061
    CRUDE159  YLD72  0.375761  YLD73  0.501138
    CRUDE159  YLD74  0.545436  YLD75  0.509496
    CRUDE159  YLD76  0.311965  YLD77  0.450908
    CRUDE159  YLD78  0.273862  YLD79  0.50158
    CRUDE159  YLD80  0.238004  CAP  1
    CRUDE159  SULF  1.41799
    CRUDE160  COST  -52.1176  YLD1  0.222914
    CRUDE160  YLD2  0.238039  YLD3  0.471591
    CRUDE160  YLD4  0.23148  YLD5  0.214953
    CRUDE160  YLD6  0.45744  YLD7  0.188005
    CRUDE160  YLD8  0.185536  YLD9  0.485261
    CRUDE160  YLD10  0.341151  YLD11  0.527593
    CRUDE160  YLD12  0.404177  YLD13  0.540842
    CRUDE160  YLD14  0.315894  YLD15  0.298594
    CRUDE160  YLD16  0.519809  YLD17  0.318304
    CRUDE160  YLD18  0.352833  YLD19  0.536619
    CRUDE160  YLD20  0.424918  YLD21  0.498501
    CRUDE160  YLD22  0.233959  YLD23  0.198566
    CRUDE160  YLD24  0.450132  YLD25  0.316957
    CRUDE160  YLD26  0.193796  YLD27  0.514087
    CRUDE160  YLD28  0.317154  YLD29  0.416332
    CRUDE160  YLD30  0.433176  YLD31  0.421073
    CRUDE160  YLD32  0.384242  YLD33  0.256409
    CRUDE160  YLD34  0.537245  YLD35  0.514729
    CRUDE160  YLD36  0.507589  YLD37  0.31446
    CRUDE160  YLD38  0.171103  YLD39  0.152126
    CRUDE160  YLD40  0.178726  YLD41  0.293258
    CRUDE160  YLD42  0.290921  YLD43  0.543858
    CRUDE160  YLD44  0.315792  YLD45  0.332523
    CRUDE160  YLD46  0.466678  YLD47  0.54858
    CRUDE160  YLD48  0.357691  YLD49  0.295983
    CRUDE160  YLD50  0.4791  YLD51  0.217161
    CRUDE160  YLD52  0.16537  YLD53  0.537373
    CRUDE160  YLD54  0.157727  YLD55  0.189549
    CRUDE160  YLD56  0.199084  YLD57  0.189081
    CRUDE160  YLD58  0.228716  YLD59  0.16566
    CRUDE160  YLD60  0.256091  YLD61  0.377135
    CRUDE160  YLD62  0.359183  YLD63  0.368898
    CRUDE160  YLD64  0.525164  YLD65  0.307573
    CRUDE160  YLD66  0.419609  YLD67  0.161241
    CRUDE160  YLD68  0.329695  YLD69  0.336456
    CRUDE160  YLD70  0.471504  YLD71  0.450733
    CRUDE160  YLD72  0.504668  YLD73  0.539315
    CRUDE160  YLD74  0.506944  YLD75  0.338132
    CRUDE160  YLD76  0.509743  YLD77  0.177
    CRUDE160  YLD78  0.162264  YLD79  0.53477
    CRUDE160  YLD80  0.274095  CAP  1
    CRUDE160  SULF  -0.810922
    CRUDE161  COST  -34.6937  YLD1  0.375586
    CRUDE161  YLD2  0.235072  YLD3  0.365361
    CRUDE161  YLD4  0.186466  YLD5  0.22534
    CRUDE161  YLD6  0.247463  YLD7  0.300397
    CRUDE161  YLD8  0.423502  YLD9  0.264116
    CRUDE161  YLD10  0.362903  YLD11  0.257587
    CRUDE161  YLD12  0.186289  YLD13  0.191249
    CRUDE161  YLD14  0.451546  YLD15  0.397411
    CRUDE161  YLD16  0.464325  YLD17  0.390673
    CRUDE161  YLD18  0.405161  YLD19  0.401248
    CRUDE161  YLD20  0.534646  YLD21  0.265776
    CRUDE161  YLD22  0.254367  YLD23  0.438453
    CRUDE161  YLD24  0.274286  YLD25  0.273868
    CRUDE161  YLD26  0.231141  YLD27  0.211766
    CRUDE161  YLD28  0.167804  YLD29  0.236205
    CRUDE161  YLD30  0.435461  YLD31  0.240694
    CRUDE161  YLD32  0.386541  YLD33  0.386326
    CRUDE161  YLD34  0.461821  YLD35  0.460133
    CRUDE161  YLD36  0.53974  YLD37  0.244627
    CRUDE161  YLD38  0.332776  YLD39  0.281228
    CRUDE161  YLD40  0.448926  YLD41  0.301457
    CRUDE161  YLD42  0.269579  YLD43  0.205306
    CRUDE161  YLD44  0.155924  YLD45  0.304325
    CRUDE161  YLD46  0.227263  YLD47  0.4649
    CRUDE161  YLD48  0.54729  YLD49  0.259484
    CRUDE161  YLD50  0.522424  YLD51  0.317816
    CRUDE161  YLD52  0.310676  YLD53  0.504867
    CRUDE161  YLD54  0.350805  YLD55  0.196843
    CRUDE161  YLD56  0.47898  YLD57  0.396373
    CRUDE161  YLD58  0.407032  YLD59  0.524389
    CRUDE161  YLD60  0.201752  YLD61  0.540816
    CRUDE161  YLD62  0.245925  YLD63  0.367315
    CRUDE161  YLD64  0.361698  YLD65  0.441804
    CRUDE161  YLD66  0.191769  YLD67  0.541846
    CRUDE161  YLD68  0.322841  YLD69  0.233563
    CRUDE161  YLD70  0.504533  YLD71  0.157037
    CRUDE161  YLD72  0.416223  YLD73  0.271011
    CRUDE161  YLD74  0.316373  YLD75  0.428329
    CRUDE161  YLD76  0.216426  YLD77  0.236866
    CRUDE161  YLD78  0.210008  YLD79  0.492879
    CRUDE161  YLD80  0.178365  CAP  1
    CRUDE161  SULF  -0.998762
    CRUDE162  COST  -76.7307  YLD1  0.486284
    CRUDE162  YLD2  0.356069  YLD3  0.414662
    CRUDE162  YLD4  0.211463  YLD5  0.442332
    CRUDE162  YLD6  0.418623  YLD7  0.370037
    CRUDE162  YLD8  0.368042  YLD9  0.321673
    CRUDE162  YLD10  0.217335  YLD11  0.340163
    CRUDE162  YLD12  0.163047  YLD13  0.369114
    CRUDE162  YLD14  0.498587  YLD15  0.403229
    CRUDE162  YLD16  0.385979  YLD17  0.524844
    CRUDE162  YLD18  0.54407  YLD19  0.522257
    CRUDE162  YLD20  0.442097  YLD21  0.463286
    CRUDE162  YLD22  0.537846  YLD23  0.223514
    CRUDE162  YLD24  0.355796  YLD25  0.52513
    CRUDE162  YLD26  0.549328  YLD27  0.400708
    CRUDE162  YLD28  0.265655  YLD29  0.238429
    CRUDE162  YLD30  0.250961  YLD31  0.390793
    CRUDE162  YLD32  0.43768  YLD33  0.352309
    CRUDE162  YLD34  0.15898  YLD35  0.330282
    CRUDE162  YLD36  0.168505  YLD37  0.441997
    CRUDE162  YLD38  0.526863  YLD39  0.414155
    CRUDE162  YLD40  0.171218  YLD41  0.317252
    CRUDE162  YLD42  0.37393  YLD43  0.321895
    CRUDE162  YLD44  0.486418  YLD45  0.435686
    CRUDE162  YLD46  0.41717  YLD47  0.313496
    CRUDE162  YLD48  0.154629  YLD49  0.352415
    CRUDE162  YLD50  0.399375  YLD51  0.344022
    CRUDE162  YLD52  0.469629  YLD53  0.25369
    CRUDE162  YLD54  0.385323  YLD55  0.269739
    CRUDE162  YLD56  0.351857  YLD57  0.323876
    CRUDE162  YLD58  0.333233  YLD59  0.188026
    CRUDE162  YLD60  0.354404  YLD61  0.259129
    CRUDE162  YLD62  0.506747  YLD63  0.540341
    CRUDE162  YLD64  0.153988  YLD65  0.232829
    CRUDE162  YLD66  0.331625  YLD67  0.542157
    CRUDE162  YLD68  0.37076  YLD69  0.529043
    CRUDE162  YLD70  0.249468  YLD71  0.257205
    CRUDE162  YLD72  0.408928  YLD73  0.427406
    CRUDE162  YLD74  0.463911  YLD75  0.382172
    CRUDE162  YLD76  0.415278  YLD77  0.335033
    CRUDE162  YLD78  0.374806  YLD79  0.174009
    CRUDE162  YLD80  0.349963  CAP  1
    CRUDE162  SULF  0.504073
    CRUDE163  COST  -55.8348  YLD1  0.185682
    CRUDE163  YLD2  0.540217  YLD3  0.445142
    CRUDE163  YLD4  0.331477  YLD5  0.212466
    CRUDE163  YLD6  0.187172  YLD7  0.305461
    CRUDE163  YLD8  0.542207  YLD9  0.257111
    CRUDE163  YLD10  0.248763  YLD11  0.403736
    CRUDE163  YLD12  0.173081  YLD13  0.541583
    CRUDE163  YLD14  0.421591  YLD15  0.337714
    CRUDE163  YLD16  0.152574  YLD17  0.274721
    CRUDE163  YLD18  0.457202  YLD19  0.420442
    CRUDE163  YLD20  0.345948  YLD21  0.471298
    CRUDE163  YLD22  0.443883  YLD23  0.281354
    CRUDE163  YLD24  0.492734  YLD25  0.420858
    CRUDE163  YLD26  0.366545  YLD27  0.16152
    CRUDE163  YLD28  0.330514  YLD29  0.441684
    CRUDE163  YLD30  0.412726  YLD31  0.428979
    CRUDE163  YLD32  0.448097  YLD33  0.157195
    CRUDE163  YLD34  0.389954  YLD35  0.451444
    CRUDE163  YLD36  0.29231  YLD37  0.202698
    CRUDE163  YLD38  0.505144  YLD39  0.442166
    CRUDE163  YLD40  0.367171  YLD41  0.36865
    CRUDE163  YLD42  0.153346  YLD43  0.319932
    CRUDE163  YLD44  0.355399  YLD45  0.177804
    CRUDE163  YLD46  0.187387  YLD47  0.479339
    CRUDE163  YLD48  0.269837  YLD49  0.284564
    CRUDE163  YLD50  0.287459  YLD51  0.252517
    CRUDE163  YLD52  0.359079  YLD53  0.198935
    CRUDE163  YLD54  0.287341  YLD55  0.53391
    CRUDE163  YLD56  0.50421  YLD57  0.320576
    CRUDE163  YLD58  0.466916  YLD59  0.419609
    CRUDE163  YLD60  0.21147  YLD61  0.213349
    CRUDE163  YLD62  0.53847  YLD63  0.296825
    CRUDE163  YLD64  0.285386  YLD65  0.300814
    CRUDE163  YLD66  0.347104  YLD67  0.301257
    CRUDE163  YLD68  0.483289  YLD69  0.502908
    CRUDE163  YLD70  0.484556  YLD71  0.300158
    CRUDE163  YLD72  0.248549  YLD73  0.153565
    CRUDE163  YLD74  0.514827  YLD75  0.427385
    CRUDE163  YLD76  0.231804  YLD77  0.391696
    CRUDE163  YLD78  0.213064  YLD79  0.415805
    CRUDE163  YLD80  0.499569  CAP  1
    CRUDE163  SULF  0.566247
    CRUDE164  COST  -51.7836  YLD1  0.364134
    CRUDE164  YLD2  0.333596  YLD3  0.358067
    CRUDE164  YLD4  0.362142  YLD5  0.243825
    CRUDE164  YLD6  0.252819  YLD7  0.215474
    CRUDE164  YLD8  0.240964  YLD9  0.465664
    CRUDE164  YLD10  0.48542  YLD11  0.549786
    CRUDE164  YLD12  0.327746  YLD13  0.372198
    CRUDE164  YLD14  0.314746  YLD15  0.327224
    CRUDE164  YLD16  0.459007  YLD17  0.249909
    CRUDE164  YLD18  0.323745  YLD19  0.272896
    CRUDE164  YLD20  0.402287  YLD21  0.544625
    CRUDE164  YLD22  0.429839  YLD23  0.344885
    CRUDE164  YLD24  0.336751  YLD25  0.197609
    CRUDE164  YLD26  0.263623  YLD27  0.407488
    CRUDE164  YLD28  0.196793  YLD29  0.350116
    CRUDE164  YLD30  0.229283  YLD31  0.186199
    CRUDE164  YLD32  0.355781  YLD33  0.523109
    CRUDE164  YLD34  0.428164  YLD35  0.532256
    CRUDE164  YLD36  0.235158  YLD37  0.422095
    CRUDE164  YLD38  0.190906  YLD39  0.331305
    CRUDE164  YLD40  0.254025  YLD41  0.371396
    CRUDE164  YLD42  0.183067  YLD43  0.316821
    CRUDE164  YLD44  0.205664  YLD45  0.538867
    CRUDE164  YLD46  0.35314  YLD47  0.422242
    CRUDE164  YLD48  0.399265  YLD49  0.440473
    CRUDE164  YLD50  0.211607  YLD51  0.361416
    CRUDE164  YLD52  0.370015  YLD53  0.526961
    CRUDE164  YLD54  0.417346  YLD55  0.403227
    CRUDE164  YLD56  0.504635  YLD57  0.360699
    CRUDE164  YLD58  0.159653  YLD59  0.203359
    CRUDE164  YLD60  0.396518  YLD61  0.170815
    CRUDE164  YLD62  0.464519  YLD63  0.233074
    CRUDE164  YLD64  0.309454  YLD65  0.153223
    CRUDE164  YLD66  0.302535  YLD67  0.16021
    CRUDE164  YLD68  0.470944  YLD69  0.247753
    CRUDE164  YLD70  0.333516  YLD71  0.502895
    CRUDE164  YLD72  0.307943  YLD73  0.225453
    CRUDE164  YLD74  0.435042  YLD75  0.481731
    CRUDE164  YLD76  0.3163  YLD77  0.285666
    CRUDE164  YLD78  0.444522  YLD79  0.463893
    CRUDE164  YLD80  0.280739  CAP  1
    CRUDE164  SULF  0.80691
    CRUDE165  COST  -32.3858  YLD1  0.243287
    CRUDE165  YLD2  0.372922  YLD3  0.320727
    CRUDE165  YLD4  0.157145  YLD5  0.535339
    CRUDE165  YLD6  0.465161  YLD7  0.259517
    CRUDE165  YLD8  0.311591  YLD9  0.37934
    CRUDE165  YLD10  0.292474  YLD11  0.191923
    CRUDE165  YLD12  0.260219  YLD13  0.225926
    CRUDE165  YLD14  0.451438  YLD15  0.347659
    CRUDE165  YLD16  0.430995  YLD17  0.411664
    CRUDE165  YLD18  0.328577  YLD19  0.29801
    CRUDE165  YLD20  0.445873  YLD21  0.389136
    CRUDE165  YLD22  0.491171  YLD23  0.159906
    CRUDE165  YLD24  0.293888  YLD25  0.177571
    CRUDE165  YLD26  0.54791  YLD27  0.260858
    CRUDE165  YLD28  0.331307  YLD29  0.316062
    CRUDE165  YLD30  0.207601  YLD31  0.349012
    CRUDE165  YLD32  0.282397  YLD33  0.181331
    CRUDE165  YLD34  0.480183  YLD35  0.458836
    CRUDE165  YLD36  0.452386  YLD37  0.486983
    CRUDE165  YLD38  0.447651  YLD39  0.423731
    CRUDE165  YLD40  0.385076  YLD41  0.34856
    CRUDE165  YLD42  0.200468  YLD43  0.415519
    CRUDE165  YLD44  0.244792  YLD45  0.155711
    CRUDE165  YLD46  0.214894  YLD47  0.46599
    CRUDE165  YLD48  0.337716  YLD49  0.353973
    CRUDE165  YLD50  0.256062  YLD51  0.266317
    CRUDE165  YLD52  0.188866  YLD53  0.334457
    CRUDE165  YLD54  0.241271  YLD55  0.371677
    CRUDE165  YLD56  0.159671  YLD57  0.294553
    CRUDE165  YLD58  0.394165  YLD59  0.501962
    CRUDE165  YLD60  0.212064  YLD61  0.246384
    CRUDE165  YLD62  0.367109  YLD63  0.514717
    CRUDE165  YLD64  0.285669  YLD65  0.453455
    CRUDE165  YLD66  0.224107  YLD67  0.440906
    CRUDE165  YLD68  0.190017  YLD69  0.188237
    CRUDE165  YLD70  0.259528  YLD71  0.530177
    CRUDE165  YLD72  0.423321  YLD73  0.42571
    CRUDE165  YLD74  0.319113  YLD75  0.163798
    CRUDE165  YLD76  0.366247  YLD77  0.269356
    CRUDE165  YLD78  0.164893  YLD79  0.542771
    CRUDE165  YLD80  0.201313  CAP  1
    CRUDE165  SULF  0.265703
    CRUDE166  COST  -37.9323  YLD1  0.287171
    CRUDE166  YLD2  0.494253  YLD3  0.500666
    CRUDE166  YLD4  0.468719  YLD5  0.252123
    CRUDE166  YLD6  0.495874  YLD7  0.521327
    CRUDE166  YLD8  0.367018  YLD9  0.41353
    CRUDE166  YLD10  0.480726  YLD11  0.349428
    CRUDE166  YLD12  0.398816  YLD13  0.382873
    CRUDE166  YLD14  0.231467  YLD15  0.494418
    CRUDE166  YLD16  0.396101  YLD17  0.397696
    CRUDE166  YLD18  0.397509  YLD19  0.370189
    CRUDE166  YLD20  0.39491  YLD21  0.182786
    CRUDE166  YLD22  0.196329  YLD23  0.249528
    CRUDE166  YLD24  0.364462  YLD25  0.34342
    CRUDE166  YLD26  0.536624  YLD27  0.329871
    CRUDE166  YLD28  0.49127  YLD29  0.217681
    CRUDE166  YLD30  0.549787  YLD31  0.255232
    CRUDE166  YLD32  0.48498  YLD33  0.425288
    CRUDE166  YLD34  0.172401  YLD35  0.486949
    CRUDE166  YLD36  0.406078  YLD37  0.241389
    CRUDE166  YLD38  0.472317  YLD39  0.293966
    CRUDE166  YLD40  0.254531  YLD41  0.2724
    CRUDE166  YLD42  0.224165  YLD43  0.345931
    CRUDE166  YLD44  0.32919  YLD45  0.390527
    CRUDE166  YLD46  0.31654  YLD47  0.476083
    CRUDE166  YLD48  0.196641  YLD49  0.201905
    CRUDE166  YLD50  0.252164  YLD51  0.425001
    CRUDE166  YLD52  0.202932  YLD53  0.274467
    CRUDE166  YLD54  0.276949  YLD55  0.432143
    CRUDE166  YLD56  0.303146  YLD57  0.400424
    CRUDE166  YLD58  0.442269  YLD59  0.354285
    CRUDE166  YLD60  0.380669  YLD61  0.423628
    CRUDE166  YLD62  0.532719  YLD63  0.219936
    CRUDE166  YLD64  0.324508  YLD65  0.400355
    CRUDE166  YLD66  0.292127  YLD67  0.482405
    CRUDE166  YLD68  0.523598  YLD69  0.326261
    CRUDE166  YLD70  0.544182  YLD71  0.436591
    CRUDE166  YLD72  0.506717  YLD73  0.176355
    CRUDE166  YLD74  0.176316  YLD75  0.280304
    CRUDE166  YLD76  0.380923  YLD77  0.166554
    CRUDE166  YLD78  0.253795  YLD79  0.299865
    CRUDE166  YLD80  0.177379  CAP  1
    CRUDE166  SULF  -1.20568
    CRUDE167  COST  -47.094  YLD1  0.339588
    CRUDE167  YLD2  0.364028  YLD3  0.317002
    CRUDE167  YLD4  0.267667  YLD5  0.414653
    CRUDE167  YLD6  0.393395  YLD7  0.420393
    CRUDE167  YLD8  0.46668  YLD9  0.250923
    CRUDE167  YLD10  0.433605  YLD11  0.304048
    CRUDE167  YLD12  0.546977  YLD13  0.231776
    CRUDE167  YLD14  0.281021  YLD15  0.334467
    CRUDE167  YLD16  0.45417  YLD17  0.282844
    CRUDE167  YLD18  0.416146  YLD19  0.466006
    CRUDE167  YLD20  0.15667  YLD21  0.408735
    CRUDE167  YLD22  0.432382  YLD23  0.313156
    CRUDE167  YLD24  0.436945  YLD25  0.238036
    CRUDE167  YLD26  0.326296  YLD27  0.288106
    CRUDE167  YLD28  0.382528  YLD29  0.225011
    CRUDE167  YLD30  0.39895  YLD31  0.439755
    CRUDE167  YLD32  0.273946  YLD33  0.464003
    CRUDE167  YLD34  0.342043  YLD35  0.454243
    CRUDE167  YLD36  0.197955  YLD37  0.496571
    CRUDE167  YLD38  0.258555  YLD39  0.417122
    CRUDE167  YLD40  0.543983  YLD41  0.520883
    CRUDE167  YLD42  0.354807  YLD43  0.356973
    CRUDE167  YLD44  0.225548  YLD45  0.375053
    CRUDE167  YLD46  0.483193  YLD47  0.183891
    CRUDE167  YLD48  0.297115  YLD49  0.450025
    CRUDE167  YLD50  0.395411  YLD51  0.338115
    CRUDE167  YLD52  0.4208  YLD53  0.346143
    CRUDE167  YLD54  0.535102  YLD55  0.31699
    CRUDE167  YLD56  0.36056  YLD57  0.162227
    CRUDE167  YLD58  0.547354  YLD59  0.182917
    CRUDE167  YLD60  0.480508  YLD61  0.184103
    CRUDE167  YLD62  0.21154  YLD63  0.483769
    CRUDE167  YLD64  0.403067  YLD65  0.477129
    CRUDE167  YLD66  0.285023  YLD67  0.200005
    CRUDE167  YLD68  0.194166  YLD69  0.420559
    CRUDE167  YLD70  0.479921  YLD71  0.347013
    CRUDE167  YLD72  0.276219  YLD73  0.337404
    CRUDE167  YLD74  0.473879  YLD75  0.533732
    CRUDE167  YLD76  0.391005  YLD77  0.163041
    CRUDE167  YLD78  0.428181  YLD79  0.217953
    CRUDE167  YLD80  0.329  CAP  1
    CRUDE167  SULF  -1.29928
    CRUDE168  COST  -34.7078  YLD1  0.292042
    CRUDE168  YLD2  0.223785  YLD3  0.334777
    CRUDE168  YLD4  0.514734  YLD5  0.541453
    CRUDE168  YLD6  0.352735  YLD7  0.348419
    CRUDE168  YLD8  0.369535  YLD9  0.23809
    CRUDE168  YLD10  0.220868  YLD11  0.496328
    CRUDE168  YLD12  0.304529  YLD13  0.357882
    CRUDE168  YLD14  0.368674  YLD15  0.525973
    CRUDE168  YLD16  0.355169  YLD17  0.521241
    CRUDE168  YLD18  0.350284  YLD19  0.277193
    CRUDE168  YLD20  0.227909  YLD21  0.399992
    CRUDE168  YLD22  0.351475  YLD23  0.261855
    CRUDE168  YLD24  0.327425  YLD25  0.251594
    CRUDE168  YLD26  0.254161  YLD27  0.219103
    CRUDE168  YLD28  0.181572  YLD29  0.154221
    CRUDE168  YLD30  0.322395  YLD31  0.225822
    CRUDE168  YLD32  0.353004  YLD33  0.468115
    CRUDE168  YLD34  0.364148  YLD35  0.217284
    CRUDE168  YLD36  0.343409  YLD37  0.163329
    CRUDE168  YLD38  0.338643  YLD39  0.166238
    CRUDE168  YLD40  0.273891  YLD41  0.385434
    CRUDE168  YLD42  0.546897  YLD43  0.322942
    CRUDE168  YLD44  0.25744  YLD45  0.203886
    CRUDE168  YLD46  0.544867  YLD47  0.399189
    CRUDE168  YLD48  0.160179  YLD49  0.189692
    CRUDE168  YLD50  0.528015  YLD51  0.333523
    CRUDE168  YLD52  0.420019  YLD53  0.459098
    CRUDE168  YLD54  0.289228  YLD55  0.453229
    CRUDE168  YLD56  0.421344  YLD57  0.537957
    CRUDE168  YLD58  0.421513  YLD59  0.39669
    CRUDE168  YLD60  0.16701  YLD61  0.247881
    CRUDE168  YLD62  0.341396  YLD63  0.210086
    CRUDE168  YLD64  0.198451  YLD65  0.332244
    CRUDE168  YLD66  0.349706  YLD67  0.204183
    CRUDE168  YLD68  0.403828  YLD69  0.220155
    CRUDE168  YLD70  0.547701  YLD71  0.406249
    CRUDE168  YLD72  0.236194  YLD73  0.415033
    CRUDE168  YLD74  0.531097  YLD75  0.529735
    CRUDE168  YLD76  0.406053  YLD77  0.261478
    CRUDE168  YLD78  0.252201  YLD79  0.491173
    CRUDE168  YLD80  0.215609  CAP  1
    CRUDE168  SULF  -0.574556
    CRUDE169  COST  -78.9755  YLD1  0.409529
    CRUDE169  YLD2  0.269838  YLD3  0.546137
    CRUDE169  YLD4  0.537005  YLD5  0.299719
    CRUDE169  YLD6  0.213722  YLD7  0.155086
    CRUDE169  YLD8  0.39516  YLD9  0.34535
    CRUDE169  YLD10  0.352979  YLD11  0.340387
    CRUDE169  YLD12  0.379537  YLD13  0.179617
    CRUDE169  YLD14  0.380164  YLD15  0.351602
    CRUDE169  YLD16  0.431633  YLD17  0.487945
    CRUDE169  YLD18  0.407944  YLD19  0.381892
    CRUDE169  YLD20  0.474187  YLD21  0.40534
    CRUDE169  YLD22  0.48166  YLD23  0.204548
    CRUDE169  YLD24  0.525551  YLD25  0.501077
    CRUDE169  YLD26  0.48536  YLD27  0.398792
    CRUDE169  YLD28  0.226669  YLD29  0.186571
    CRUDE169  YLD30  0.265266  YLD31  0.506895
    CRUDE169  YLD32  0.310501  YLD33  0.204198
    CRUDE169  YLD34  0.21765  YLD35  0.48343
    CRUDE169  YLD36  0.424176  YLD37  0.515115
    CRUDE169  YLD38  0.434395  YLD39  0.306301
    CRUDE169  YLD40  0.246784  YLD41  0.313096
    CRUDE169  YLD42  0.411045  YLD43  0.54668
    CRUDE169  YLD44  0.363754  YLD45  0.210366
    CRUDE169  YLD46  0.277184  YLD47  0.152714
    CRUDE169  YLD48  0.407098  YLD49  0.48562
    CRUDE169  YLD50  0.169309  YLD51  0.543457
    CRUDE169  YLD52  0.541641  YLD53  0.217354
    CRUDE169  YLD54  0.2886  YLD55  0.307292
    CRUDE169  YLD56  0.264474  YLD57  0.519884
    CRUDE169  YLD58  0.242738  YLD59  0.153644
    CRUDE169  YLD60  0.317899  YLD61  0.492123
    CRUDE169  YLD62  0.365042  YLD63  0.41349
    CRUDE169  YLD64  0.259052  YLD65  0.469896
    CRUDE169  YLD66  0.419872  YLD67  0.47889
    CRUDE169  YLD68  0.418963  YLD69  0.355285
    CRUDE169  YLD70  0.217276  YLD71  0.3156
    CRUDE169  YLD72  0.387478  YLD73  0.456383
    CRUDE169  YLD74  0.294985  YLD75  0.154488
    CRUDE169  YLD76  0.258707  YLD77  0.362202
    CRUDE169  YLD78  0.441504  YLD79  0.276987
    CRUDE169  YLD80  0.288442  CAP  1
    CRUDE169  SULF  -1.02363
    CRUDE170  COST  -30.8581  YLD1  0.341833
    CRUDE170  YLD2  0.273975  YLD3  0.150095
    CRUDE170  YLD4  0.224184  YLD5  0.157006
    CRUDE170  YLD6  0.175244  YLD7  0.546966
    CRUDE170  YLD8  0.240459  YLD9  0.445026
    CRUDE170  YLD10  0.420955  YLD11  0.194391
    CRUDE170  YLD12  0.316242  YLD13  0.392193
    CRUDE170  YLD14  0.158857  YLD15  0.52968
    CRUDE170  YLD16  0.524069  YLD17  0.239593
    CRUDE170  YLD18  0.159413  YLD19  0.28825
    CRUDE170  YLD20  0.25906  YLD21  0.272858
    CRUDE170  YLD22  0.353257  YLD23  0.441205
    CRUDE170  YLD24  0.267978  YLD25  0.185826
    CRUDE170  YLD26  0.436248  YLD27  0.50279
    CRUDE170  YLD28  0.339818  YLD29  0.372735
    CRUDE170  YLD30  0.391568  YLD31  0.322377
    CRUDE170  YLD32  0.492031  YLD33  0.329028
    CRUDE170  YLD34  0.27898  YLD35  0.228044
    CRUDE170  YLD36  0.461602  YLD37  0.197345
    CRUDE170  YLD38  0.325617  YLD39  0.46634
    CRUDE170  YLD40  0.261386  YLD41  0.410471
    CRUDE170  YLD42  0.17452  YLD43  0.521025
    CRUDE170  YLD44  0.483044  YLD45  0.467071
    CRUDE170  YLD46  0.362782  YLD47  0.167382
    CRUDE170  YLD48  0.507097  YLD49  0.522569
    CRUDE170  YLD50  0.150409  YLD51  0.306978
    CRUDE170  YLD52  0.434781  YLD53  0.456998
    CRUDE170  YLD54  0.388272  YLD55  0.480545
    CRUDE170  YLD56  0.250857  YLD57  0.524108
    CRUDE170  YLD58  0.193274  YLD59  0.460409
    CRUDE170  YLD60  0.33442  YLD61  0.383181
    CRUDE170  YLD62  0.346767  YLD63  0.210216
    CRUDE170  YLD64  0.353059  YLD65  0.409033
    CRUDE170  YLD66  0.537294  YLD67  0.518763
    CRUDE170  YLD68  0.421951  YLD69  0.320166
    CRUDE170  YLD70  0.207537  YLD71  0.26953
    CRUDE170  YLD72  0.176879  YLD73  0.331526
    CRUDE170  YLD74  0.210762  YLD75  0.230576
    CRUDE170  YLD76  0.310547  YLD77  0.372549
    CRUDE170  YLD78  0.548346  YLD79  0.389281
    CRUDE170  YLD80  0.477992  CAP  1
    CRUDE170  SULF  0.916883
    CRUDE171  COST  -70.3456  YLD1  0.38368
    CRUDE171  YLD2  0.308927  YLD3  0.224189
    CRUDE171  YLD4  0.334839  YLD5  0.247659
    CRUDE171  YLD6  0.19706  YLD7  0.418582
    CRUDE171  YLD8  0.488767  YLD9  0.360096
    CRUDE171  YLD10  0.244015  YLD11  0.40377
    CRUDE171  YLD12  0.488909  YLD13  0.356716
    CRUDE171  YLD14  0.528046  YLD15  0.483133
    CRUDE171  YLD16  0.300322  YLD17  0.245657
    CRUDE171  YLD18  0.321849  YLD19  0.476308
    CRUDE171  YLD20  0.442625  YLD21  0.493872
    CRUDE171  YLD22  0.398097  YLD23  0.475259
    CRUDE171  YLD24  0.340185  YLD25  0.436146
    CRUDE171  YLD26  0.424777  YLD27  0.533634
    CRUDE171  YLD28  0.294595  YLD29  0.506749
    CRUDE171  YLD30  0.169837  YLD31  0.229201
    CRUDE171  YLD32  0.322767  YLD33  0.481772
    CRUDE171  YLD34  0.326089  YLD35  0.507045
    CRUDE171  YLD36  0.158021  YLD37  0.408304
    CRUDE171  YLD38  0.195119  YLD39  0.471202
    CRUDE171  YLD40  0.508589  YLD41  0.457187
    CRUDE171  YLD42  0.360232  YLD43  0.27309
    CRUDE171  YLD44  0.310736  YLD45  0.505025
    CRUDE171  YLD46  0.354519  YLD47  0.511592
    CRUDE171  YLD48  0.50395  YLD49  0.278978
    CRUDE171  YLD50  0.390073  YLD51  0.294918
    CRUDE171  YLD52  0.347297  YLD53  0.449779
    CRUDE171  YLD54  0.53839  YLD55  0.256918
    CRUDE171  YLD56  0.302506  YLD57  0.296001
    CRUDE171  YLD58  0.406367  YLD59  0.410234
    CRUDE171  YLD60  0.466429  YLD61  0.177809
    CRUDE171  YLD62  0.470967  YLD63  0.519234
    CRUDE171  YLD64  0.276229  YLD65  0.151445
    CRUDE171  YLD66  0.207665  YLD67  0.466302
    CRUDE171  YLD68  0.25614  YLD69  0.50622
    CRUDE171  YLD70  0.351351  YLD71  0.530275
    CRUDE171  YLD72  0.435817  YLD73  0.402114
    CRUDE171  YLD74  0.280602  YLD75  0.547508
    CRUDE171  YLD76  0.164927  YLD77  0.347611
    CRUDE171  YLD78  0.468834  YLD79  0.305958
    CRUDE171  YLD80  0.303619  CAP  1
    CRUDE171  SULF  -0.459416
    CRUDE172  COST  -53.2337  YLD1  0.444729
    CRUDE172  YLD2  0.320716  YLD3  0.303586
    CRUDE172  YLD4  0.150493  YLD5  0.482351
    CRUDE172  YLD6  0.240943  YLD7  0.276769
    CRUDE172  YLD8  0.321452  YLD9  0.163058
    CRUDE172  YLD10  0.482275  YLD11  0.458312
    CRUDE172  YLD12  0.510895  YLD13  0.446065
    CRUDE172  YLD14  0.428651  YLD15  0.294973
    CRUDE172  YLD16  0.433249  YLD17  0.35492
    CRUDE172  YLD18  0.261575  YLD19  0.336691
    CRUDE172  YLD20  0.298848  YLD21  0.533789
    CRUDE172  YLD22  0.341097  YLD23  0.252992
    CRUDE172  YLD24  0.452771  YLD25  0.258457
    CRUDE172  YLD26  0.507245  YLD27  0.226939
    CRUDE172  YLD28  0.293491  YLD29  0.264866
    CRUDE172  YLD30  0.187872  YLD31  0.325209
    CRUDE172  YLD32  0.30444  YLD33  0.271072
    CRUDE172  YLD34  0.483284  YLD35  0.33346
    CRUDE172  YLD36  0.506188  YLD37  0.250033
    CRUDE172  YLD38  0.432353  YLD39  0.43646
    CRUDE172  YLD40  0.404488  YLD41  0.534291
    CRUDE172  YLD42  0.348658  YLD43  0.194638
    CRUDE172  YLD44  0.43679  YLD45  0.263207
    CRUDE172  YLD46  0.531761  YLD47  0.361025
    CRUDE172  YLD48  0.429818  YLD49  0.520457
    CRUDE172  YLD50  0.263624  YLD51  0.277442
    CRUDE172  YLD52  0.492931  YLD53  0.365739
    CRUDE172  YLD54  0.543232  YLD55  0.261019
    CRUDE172  YLD56  0.350375  YLD57  0.362756
    CRUDE172  YLD58  0.359273  YLD59  0.23505
    CRUDE172  YLD60  0.337166  YLD61  0.169073
    CRUDE172  YLD62  0.418161  YLD63  0.376003
    CRUDE172  YLD64  0.546434  YLD65  0.251478
    CRUDE172  YLD66  0.499207  YLD67  0.230298
    CRUDE172  YLD68  0.282138  YLD69  0.321827
    CRUDE172  YLD70  0.405458  YLD71  0.196156
    CRUDE172  YLD72  0.431255  YLD73  0.36583
    CRUDE172  YLD74  0.383049  YLD75  0.34713
    CRUDE172  YLD76  0.457503  YLD77  0.313952
    CRUDE172  YLD78  0.286734  YLD79  0.310931
    CRUDE172  YLD80  0.393948  CAP  1
    CRUDE172  SULF  0.542033
    CRUDE173  COST  -32.4029  YLD1  0.373097
    CRUDE173  YLD2  0.469913  YLD3  0.523036
    CRUDE173  YLD4  0.389331  YLD5  0.495844
    CRUDE173  YLD6  0.28667  YLD7  0.501707
    CRUDE173  YLD8  0.206384  YLD9  0.497421
    CRUDE173  YLD10  0.367931  YLD11  0.151153
    CRUDE173  YLD12  0.500942  YLD13  0.40228
    CRUDE173  YLD14  0.348282  YLD15  0.495457
    CRUDE173  YLD16  0.340275  YLD17  0.459429
    CRUDE173  YLD18  0.20167  YLD19  0.180689
    CRUDE173  YLD20  0.358754  YLD21  0.237085
    CRUDE173  YLD22  0.341264  YLD23  0.459768
    CRUDE173  YLD24  0.425648  YLD25  0.454131
    CRUDE173  YLD26  0.425767  YLD27  0.436949
    CRUDE173  YLD28  0.361707  YLD29  0.281099
    CRUDE173  YLD30  0.163143  YLD31  0.313498
    CRUDE173  YLD32  0.425929  YLD33  0.337099
    CRUDE173  YLD34  0.521763  YLD35  0.420791
    CRUDE173  YLD36  0.377713  YLD37  0.484621
    CRUDE173  YLD38  0.514655  YLD39  0.231695
    CRUDE173  YLD40  0.442274  YLD41  0.34982
    CRUDE173  YLD42  0.207667  YLD43  0.485906
    CRUDE173  YLD44  0.500674  YLD45  0.325186
    CRUDE173  YLD46  0.341433  YLD47  0.444361
    CRUDE173  YLD48  0.336308  YLD49  0.467203
    CRUDE173  YLD50  0.502219  YLD51  0.5079
    CRUDE173  YLD52  0.191789  YLD53  0.496337
    CRUDE173  YLD54  0.381863  YLD55  0.358953
    CRUDE173  YLD56  0.530458  YLD57  0.531652
    CRUDE173  YLD58  0.509658  YLD59  0.2999
    CRUDE173  YLD60  0.377014  YLD61  0.174449
    CRUDE173  YLD62  0.200663  YLD63  0.28171
    CRUDE173  YLD64  0.322573  YLD65  0.347557
    CRUDE173  YLD66  0.263671  YLD67  0.314608
    CRUDE173  YLD68  0.369471  YLD69  0.363511
    CRUDE173  YLD70  0.218424  YLD71  0.288557
    CRUDE173  YLD72  0.291986  YLD73  0.170922
    CRUDE173  YLD74  0.276772  YLD75  0.379146
    CRUDE173  YLD76  0.48484  YLD77  0.250917
    CRUDE173  YLD78  0.510237  YLD79  0.442986
    CRUDE173  YLD80  0.350864  CAP  1
    CRUDE173  SULF  1.52996
    CRUDE174  COST  -74.334  YLD1  0.384614
    CRUDE174  YLD2  0.289755  YLD3  0.178012
    CRUDE174  YLD4  0.392923  YLD5  0.457408
    CRUDE174  YLD6  0.302364  YLD7  0.253373
    CRUDE174  YLD8  0.415675  YLD9  0.175875
    CRUDE174  YLD10  0.216097  YLD11  0.493583
    CRUDE174  YLD12  0.539749  YLD13  0.369843
    CRUDE174  YLD14  0.523251  YLD15  0.194025
    CRUDE174  YLD16  0.41976  YLD17  0.167616
    CRUDE174  YLD18  0.189819  YLD19  0.216421
    CRUDE174  YLD20  0.177189  YLD21  0.185261
    CRUDE174  YLD22  0.457188  YLD23  0.304221
    CRUDE174  YLD24  0.495456  YLD25  0.438965
    CRUDE174  YLD26  0.263519  YLD27  0.415736
    CRUDE174  YLD28  0.383758  YLD29  0.196242
    CRUDE174  YLD30  0.349668  YLD31  0.321568
    CRUDE174  YLD32  0.390976  YLD33  0.259118
    CRUDE174  YLD34  0.401369  YLD35  0.348896
    CRUDE174  YLD36  0.474764  YLD37  0.35492
    CRUDE174  YLD38  0.410994  YLD39  0.248882
    CRUDE174  YLD40  0.517204  YLD41  0.194839
    CRUDE174  YLD42  0.518109  YLD43  0.548868
    CRUDE174  YLD44  0.23652  YLD45  0.291998
    CRUDE174  YLD46  0.429642  YLD47  0.4854
    CRUDE174  YLD48  0.354813  YLD49  0.518974
    CRUDE174  YLD50  0.2809  YLD51  0.34869
    CRUDE174  YLD52  0.329718  YLD53  0.202857
    CRUDE174  YLD54  0.150435  YLD55  0.322304
    CRUDE174  YLD56  0.454843  YLD57  0.510938
    CRUDE174  YLD58  0.440643  YLD59  0.153123
    CRUDE174  YLD60  0.466482  YLD61  0.52675
    CRUDE174  YLD62  0.288581  YLD63  0.206129
    CRUDE174  YLD64  0.49792  YLD65  0.397475
    CRUDE174  YLD66  0.386549  YLD67  0.390337
    CRUDE174  YLD68  0.229835  YLD69  0.532114
    CRUDE174  YLD70  0.494172  YLD71  0.509636
    CRUDE174  YLD72  0.507071  YLD73  0.447122
    CRUDE174  YLD74  0.394247  YLD75  0.216568
    CRUDE174  YLD76  0.229695  YLD77  0.310278
    CRUDE174  YLD78  0.170472  YLD79  0.29459
    CRUDE174  YLD80  0.437413  CAP  1
    CRUDE174  SULF  -0.741271
    CRUDE175  COST  -30.7652  YLD1  0.375783
    CRUDE175  YLD2  0.337293  YLD3  0.153794
    CRUDE175  YLD4  0.249016  YLD5  0.195244
    CRUDE175  YLD6  0.288529  YLD7  0.367607
    CRUDE175  YLD8  0.236436  YLD9  0.53233
    CRUDE175  YLD10  0.383194  YLD11  0.224409
    CRUDE175  YLD12  0.161008  YLD13  0.425912
    CRUDE175  YLD14  0.325638  YLD15  0.520019
    CRUDE175  YLD16  0.455157  YLD17  0.427334
    CRUDE175  YLD18  0.391277  YLD19  0.174442
    CRUDE175  YLD20  0.22249  YLD21  0.227814
    CRUDE175  YLD22  0.401427  YLD23  0.352674
    CRUDE175  YLD24  0.548724  YLD25  0.152957
    CRUDE175  YLD26  0.427545  YLD27  0.287351
    CRUDE175  YLD28  0.468745  YLD29  0.305452
    CRUDE175  YLD30  0.390243  YLD31  0.384225
    CRUDE175  YLD32  0.192899  YLD33  0.335421
    CRUDE175  YLD34  0.307978  YLD35  0.187596
    CRUDE175  YLD36  0.473175  YLD37  0.204096
    CRUDE175  YLD38  0.45952  YLD39  0.548435
    CRUDE175  YLD40  0.514749  YLD41  0.326306
    CRUDE175  YLD42  0.326306  YLD43  0.267044
    CRUDE175  YLD44  0.472877  YLD45  0.179019
    CRUDE175  YLD46  0.518716  YLD47  0.529835
    CRUDE175  YLD48  0.204768  YLD49  0.416508
    CRUDE175  YLD50  0.265895  YLD51  0.390006
    CRUDE175  YLD52  0.264844  YLD53  0.388192
    CRUDE175  YLD54  0.510263  YLD55  0.409246
    CRUDE175  YLD56  0.321728  YLD57  0.466098
    CRUDE175  YLD58  0.353897  YLD59  0.427474
    CRUDE175  YLD60  0.373903  YLD61  0.489949
    CRUDE175  YLD62  0.285631  YLD63  0.298477
    CRUDE175  YLD64  0.508604  YLD65  0.176236
    CRUDE175  YLD66  0.368695  YLD67  0.214117
    CRUDE175  YLD68  0.158124  YLD69  0.269877
    CRUDE175  YLD70  0.362805  YLD71  0.439257
    CRUDE175  YLD72  0.350872  YLD73  0.218945
    CRUDE175  YLD74  0.536741  YLD75  0.507734
    CRUDE175  YLD76  0.230578  YLD77  0.205504
    CRUDE175  YLD78  0.440003  YLD79  0.42723
    CRUDE175  YLD80  0.212466  CAP  1
    CRUDE175  SULF  1.47812
    CRUDE176  COST  -55.052  YLD1  0.301509
    CRUDE176  YLD2  0.39999  YLD3  0.171074
    CRUDE176  YLD4  0.373365  YLD5  0.468204
    CRUDE176  YLD6  0.245622  YLD7  0.404428
    CRUDE176  YLD8  0.189025  YLD9  0.160057
    CRUDE176  YLD10  0.549886  YLD11  0.370828
    CRUDE176  YLD12  0.485926  YLD13  0.207577
    CRUDE176  YLD14  0.542174  YLD15  0.402657
    CRUDE176  YLD16  0.168181  YLD17  0.409294
    CRUDE176  YLD18  0.35944  YLD19  0.349721
    CRUDE176  YLD20  0.532879  YLD21  0.478221
    CRUDE176  YLD22  0.403305  YLD23  0.4924
    CRUDE176  YLD24  0.320743  YLD25  0.353654
    CRUDE176  YLD26  0.272325  YLD27  0.15764
    CRUDE176  YLD28  0.286387  YLD29  0.164889
    CRUDE176  YLD30  0.174992  YLD31  0.358469
    CRUDE176  YLD32  0.353268  YLD33  0.505135
    CRUDE176  YLD34  0.251612  YLD35  0.266289
    CRUDE176  YLD36  0.225941  YLD37  0.378397
    CRUDE176  YLD38  0.293345  YLD39  0.191351
    CRUDE176  YLD40  0.445578  YLD41  0.341588
    CRUDE176  YLD42  0.547824  YLD43  0.293114
    CRUDE176  YLD44  0.452961  YLD45  0.419282
    CRUDE176  YLD46  0.299351  YLD47  0.497741
    CRUDE176  YLD48  0.286407  YLD49  0.244258
    CRUDE176  YLD50  0.257804  YLD51  0.222327
    CRUDE176  YLD52  0.191855  YLD53  0.329737
    CRUDE176  YLD54  0.378095  YLD55  0.295716
    CRUDE176  YLD56  0.171746  YLD57  0.312933
    CRUDE176  YLD58  0.311436  YLD59  0.279067
    CRUDE176  YLD60  0.29332  YLD61  0.487976
    CRUDE176  YLD62  0.376253  YLD63  0.432008
    CRUDE176  YLD64  0.484403  YLD65  0.432032
    CRUDE176  YLD66  0.372779  YLD67  0.234241
    CRUDE176  YLD68  0.374858  YLD69  0.265596
    CRUDE176  YLD70  0.314377  YLD71  0.161641
    CRUDE176  YLD72  0.408306  YLD73  0.162722
    CRUDE176  YLD74  0.418294  YLD75  0.242506
    CRUDE176  YLD76  0.166815  YLD77  0.196104
    CRUDE176  YLD78  0.159329  YLD79  0.155731
    CRUDE176  YLD80  0.518176  CAP  1
    CRUDE176  SULF  0.177726
    CRUDE177  COST  -64.1982  YLD1  0.284979
    CRUDE177  YLD2  0.30109  YLD3  0.185417
    CRUDE177  YLD4  0.240216  YLD5  0.517471
    CRUDE177  YLD6  0.35389  YLD7  0.238425
    CRUDE177  YLD8  0.494795  YLD9  0.42778
    CRUDE177  YLD10  0.210209  YLD11  0.316319
    CRUDE177  YLD12  0.450709  YLD13  0.388144
    CRUDE177  YLD14  0.354914  YLD15  0.171756
    CRUDE177  YLD16  0.40864  YLD17  0.242592
    CRUDE177  YLD18  0.251434  YLD19  0.192535
    CRUDE177  YLD20  0.506055  YLD21  0.420658
    CRUDE177  YLD22  0.330113  YLD23  0.449981
    CRUDE177  YLD24  0.19446  YLD25  0.205728
    CRUDE177  YLD26  0.453696  YLD27  0.425917
    CRUDE177  YLD28  0.472187  YLD29  0.51704
    CRUDE177  YLD30  0.43849  YLD31  0.209911
    CRUDE177  YLD32  0.444191  YLD33  0.33205
    CRUDE177  YLD34  0.542854  YLD35  0.543493
    CRUDE177  YLD36  0.194069  YLD37  0.313153
    CRUDE177  YLD38  0.223279  YLD39  0.222265
    CRUDE177  YLD40  0.22913  YLD41  0.508798
    CRUDE177  YLD42  0.318029  YLD43  0.526653
    CRUDE177  YLD44  0.292775  YLD45  0.480077
    CRUDE177  YLD46  0.510849  YLD47  0.343325
    CRUDE177  YLD48  0.225091  YLD49  0.507809
    CRUDE177  YLD50  0.207941  YLD51  0.366377
    CRUDE177  YLD52  0.455401  YLD53  0.318917
    CRUDE177  YLD54  0.296399  YLD55  0.24222
    CRUDE177  YLD56  0.217408  YLD57  0.375736
    CRUDE177  YLD58  0.31175  YLD59  0.378636
    CRUDE177  YLD60  0.184337  YLD61  0.519687
    CRUDE177  YLD62  0.266583  YLD63  0.30398
    CRUDE177  YLD64  0.168759  YLD65  0.367414
    CRUDE177  YLD66  0.439343  YLD67  0.263154
    CRUDE177  YLD68  0.336111  YLD69  0.469838
    CRUDE177  YLD70  0.390821  YLD71  0.15924
    CRUDE177  YLD72  0.233831  YLD73  0.330467
    CRUDE177  YLD74  0.295064  YLD75  0.225859
    CRUDE177  YLD76  0.538154  YLD77  0.269977
    CRUDE177  YLD78  0.219822  YLD79  0.279859
    CRUDE177  YLD80  0.407453  CAP  1
    CRUDE177  SULF  0.430089
    CRUDE178  COST  -77.1946  YLD1  0.509859
    CRUDE178  YLD2  0.484626  YLD3  0.165039
    CRUDE178  YLD4  0.21433  YLD5  0.390244
    CRUDE178  YLD6  0.480114  YLD7  0.541359
    CRUDE178  YLD8  0.334065  YLD9  0.182883
    CRUDE178  YLD10  0.476703  YLD11  0.437862
    CRUDE178  YLD12  0.241478  YLD13  0.218844
    CRUDE178  YLD14  0.195714  YLD15  0.407703
    CRUDE178  YLD16  0.240696  YLD17  0.422541
    CRUDE178  YLD18  0.33838  YLD19  0.195656
    CRUDE178  YLD20  0.41091  YLD21  0.404419
    CRUDE178  YLD22  0.362444  YLD23  0.472047
    CRUDE178  YLD24  0.162166  YLD25  0.496491
    CRUDE178  YLD26  0.397899  YLD27  0.528198
    CRUDE178  YLD28  0.285444  YLD29  0.419245
    CRUDE178  YLD30  0.242158  YLD31  0.176232
    CRUDE178  YLD32  0.54683  YLD33  0.372365
    CRUDE178  YLD34  0.543208  YLD35  0.534286
    CRUDE178  YLD36  0.438515  YLD37  0.414579
    CRUDE178  YLD38  0.407109  YLD39  0.202011
    CRUDE178  YLD40  0.487349  YLD41  0.30792
    CRUDE178  YLD42  0.393183  YLD43  0.434452
    CRUDE178  YLD44  0.545808  YLD45  0.271952
    CRUDE178  YLD46  0.516982  YLD47  0.284388
    CRUDE178  YLD48  0.47848  YLD49  0.223706
    CRUDE178  YLD50  0.382612  YLD51  0.259859
    CRUDE178  YLD52  0.354317  YLD53  0.251024
    CRUDE178  YLD54  0.481678  YLD55  0.337923
    CRUDE178  YLD56  0.33237  YLD57  0.467165
    CRUDE178  YLD58  0.240522  YLD59  0.532691
    CRUDE178  YLD60  0.441966  YLD61  0.352102
    CRUDE178  YLD62  0.196909  YLD63  0.248438
    CRUDE178  YLD64  0.529099  YLD65  0.360312
    CRUDE178  YLD66  0.302675  YLD67  0.353805
    CRUDE178  YLD68  0.412692  YLD69  0.261016
    CRUDE178  YLD70  0.403981  YLD71  0.356605
    CRUDE178  YLD72  0.316936  YLD73  0.496255
    CRUDE178  YLD74  0.524301  YLD75  0.241249
    CRUDE178  YLD76  0.472875  YLD77  0.54814
    CRUDE178  YLD78  0.545034  YLD79  0.277618
    CRUDE178  YLD80  0.258381  CAP  1
    CRUDE178  SULF  1.51381
    CRUDE179  COST  -73.3599  YLD1  0.393022
    CRUDE179  YLD2  0.384981  YLD3  0.341913
    CRUDE179  YLD4  0.410608  YLD5  0.52635
    CRUDE179  YLD6  0.261881  YLD7  0.449277
    CRUDE179  YLD8  0.449713  YLD9  0.514271
    CRUDE179  YLD10  0.232924  YLD11  0.298465
    CRUDE179  YLD12  0.532528  YLD13  0.520209
    CRUDE179  YLD14  0.45592  YLD15  0.539699
    CRUDE179  YLD16  0.418013  YLD17  0.526073
    CRUDE179  YLD18  0.346893  YLD19  0.526419
    CRUDE179  YLD20  0.333858  YLD21  0.310717
    CRUDE179  YLD22  0.448287  YLD23  0.204738
    CRUDE179  YLD24  0.440751  YLD25  0.498634
    CRUDE179  YLD26  0.180965  YLD27  0.402848
    CRUDE179  YLD28  0.172173  YLD29  0.5463
    CRUDE179  YLD30  0.424081  YLD31  0.441766
    CRUDE179  YLD32  0.401659  YLD33  0.311591
    CRUDE179  YLD34  0.519991  YLD35  0.278195
    CRUDE179  YLD36  0.212571  YLD37  0.502761
    CRUDE179  YLD38  0.281108  YLD39  0.281062
    CRUDE179  YLD40  0.23151  YLD41  0.53133
    CRUDE179  YLD42  0.191905  YLD43  0.268255
    CRUDE179  YLD44  0.255029  YLD45  0.54607
    CRUDE179  YLD46  0.522265  YLD47  0.211797
    CRUDE179  YLD48  0.515902  YLD49  0.235224
    CRUDE179  YLD50  0.217285  YLD51  0.442255
    CRUDE179  YLD52  0.372707  YLD53  0.298912
    CRUDE179  YLD54  0.309933  YLD55  0.374383
    CRUDE179  YLD56  0.47553  YLD57  0.259205
    CRUDE179  YLD58  0.15693  YLD59  0.269787
    CRUDE179  YLD60  0.498455  YLD61  0.248938
    CRUDE179  YLD62  0.411473  YLD63  0.380964
    CRUDE179  YLD64  0.201497  YLD65  0.266818
    CRUDE179  YLD66  0.27764  YLD67  0.354322
    CRUDE179  YLD68  0.20868  YLD69  0.482746
    CRUDE179  YLD70  0.167113  YLD71  0.343701
    CRUDE179  YLD72  0.494967  YLD73  0.210332
    CRUDE179  YLD74  0.376254  YLD75  0.517849
    CRUDE179  YLD76  0.294281  YLD77  0.280599
    CRUDE179  YLD78  0.294354  YLD79  0.449534
    CRUDE179  YLD80  0.199301  CAP  1
    CRUDE179  SULF  0.497912
    CRUDE180  COST  -70.0475  YLD1  0.247741
    CRUDE180  YLD2  0.267618  YLD3  0.382303
    CRUDE180  YLD4  0.28037  YLD5  0.480736
    CRUDE180  YLD6  0.526955  YLD7  0.373125
    CRUDE180  YLD8  0.266235  YLD9  0.335773
    CRUDE180  YLD10  0.462955  YLD11  0.497905
    CRUDE180  YLD12  0.209271  YLD13  0.177334
    CRUDE180  YLD14  0.421559  YLD15  0.17792
    CRUDE180  YLD16  0.337332  YLD17  0.168714
    CRUDE180  YLD18  0.228004  YLD19  0.499062
    CRUDE180  YLD20  0.420305  YLD21  0.381131
    CRUDE180  YLD22  0.480376  YLD23  0.177888
    CRUDE180  YLD24  0.499605  YLD25  0.317338
    CRUDE180  YLD26  0.355134  YLD27  0.324117
    CRUDE180  YLD28  0.371675  YLD29  0.503129
    CRUDE180  YLD30  0.542759  YLD31  0.373887
    CRUDE180  YLD32  0.298117  YLD33  0.334047
    CRUDE180  YLD34  0.464268  YLD35  0.548519
    CRUDE180  YLD36  0.489975  YLD37  0.313756
    CRUDE180  YLD38  0.494029  YLD39  0.23407
    CRUDE180  YLD40  0.44716  YLD41  0.344053
    CRUDE180  YLD42  0.331691  YLD43  0.382419
    CRUDE180  YLD44  0.251921  YLD45  0.180341
    CRUDE180  YLD46  0.258178  YLD47  0.310129
    CRUDE180  YLD48  0.364769  YLD49  0.258425
    CRUDE180  YLD50  0.319852  YLD51  0.483011
    CRUDE180  YLD52  0.314502  YLD53  0.19326
    CRUDE180  YLD54  0.163618  YLD55  0.20704
    CRUDE180  YLD56  0.302278  YLD57  0.40058
    CRUDE180  YLD58  0.379964  YLD59  0.546095
    CRUDE180  YLD60  0.538026  YLD61  0.310539
    CRUDE180  YLD62  0.490415  YLD63  0.317129
    CRUDE180  YLD64  0.163761  YLD65  0.387929
    CRUDE180  YLD66  0.491134  YLD67  0.475718
    CRUDE180  YLD68  0.48637  YLD69  0.188214
    CRUDE180  YLD70  0.549957  YLD71  0.327197
    CRUDE180  YLD72  0.235176  YLD73  0.155143
    CRUDE180  YLD74  0.201349  YLD75  0.431139
    CRUDE180  YLD76  0.342763  YLD77  0.524583
    CRUDE180  YLD78  0.4782  YLD79  0.275823
    CRUDE180  YLD80  0.20989  CAP  1
    CRUDE180  SULF  0.632436
    CRUDE181  COST  -58.6684  YLD1  0.349299
    CRUDE181  YLD2  0.435624  YLD3  0.258675
    CRUDE181  YLD4  0.386106  YLD5  0.416789
    CRUDE181  YLD6  0.499335  YLD7  0.222238
    CRUDE181  YLD8  0.464788  YLD9  0.20501
    CRUDE181  YLD10  0.443831  YLD11  0.442199
    CRUDE181  YLD12  0.42182  YLD13  0.32215
    CRUDE181  YLD14  0.459195  YLD15  0.371875
    CRUDE181  YLD16  0.459421  YLD17  0.277861
    CRUDE181  YLD18  0.410837  YLD19  0.330835
    CRUDE181  YLD20  0.397444  YLD21  0.27315
    CRUDE181  YLD22  0.428625  YLD23  0.507362
    CRUDE181  YLD24  0.238285  YLD25  0.327758
    CRUDE181  YLD26  0.28732  YLD27  0.360062
    CRUDE181  YLD28  0.385161  YLD29  0.339196
    CRUDE181  YLD30  0.426442  YLD31  0.2936
    CRUDE181  YLD32  0.240461  YLD33  0.15607
    CRUDE181  YLD34  0.280312  YLD35  0.48822
    CRUDE181  YLD36  0.440476  YLD37  0.265952
    CRUDE181  YLD38  0.199051  YLD39  0.349075
    CRUDE181  YLD40  0.424241  YLD41  0.539512
    CRUDE181  YLD42  0.245506  YLD43  0.527692
    CRUDE181  YLD44  0.458904  YLD45  0.414716
    CRUDE181  YLD46  0.310142  YLD47  0.296597
    CRUDE181  YLD48  0.441106  YLD49  0.271699
    CRUDE181  YLD50  0.334389  YLD51  0.435924
    CRUDE181  YLD52  0.334135  YLD53  0.25064
    CRUDE181  YLD54  0.478429  YLD55  0.372687
    CRUDE181  YLD56  0.365399  YLD57  0.481174
    CRUDE181  YLD58  0.234966  YLD59  0.403091
    CRUDE181  YLD60  0.52064  YLD61  0.437546
    CRUDE181  YLD62  0.522643  YLD63  0.216322
    CRUDE181  YLD64  0.315748  YLD65  0.160997
    CRUDE181  YLD66  0.238038  YLD67  0.451204
    CRUDE181  YLD68  0.208489  YLD69  0.194504
    CRUDE181  YLD70  0.295568  YLD71  0.270938
    CRUDE181  YLD72  0.30623  YLD73  0.193992
    CRUDE181  YLD74  0.349592  YLD75  0.457439
    CRUDE181  YLD76  0.266787  YLD77  0.306905
    CRUDE181  YLD78  0.300435  YLD79  0.403331
    CRUDE181  YLD80  0.463065  CAP  1
    CRUDE181  SULF  -1.17817
    CRUDE182  COST  -70.5602  YLD1  0.282139
    CRUDE182  YLD2  0.361059  YLD3  0.309315
    CRUDE182  YLD4  0.323299  YLD5  0.380874
    CRUDE182  YLD6  0.214706  YLD7  0.171543
    CRUDE182  YLD8  0.194774  YLD9  0.286326
    CRUDE182  YLD10  0.270196  YLD11  0.409085
    CRUDE182  YLD12  0.239956  YLD13  0.428319
    CRUDE182  YLD14  0.530577  YLD15  0.449118
    CRUDE182  YLD16  0.19936  YLD17  0.325271
    CRUDE182  YLD18  0.462368  YLD19  0.544322
    CRUDE182  YLD20  0.377421  YLD21  0.34088
    CRUDE182  YLD22  0.519629  YLD23  0.305134
    CRUDE182  YLD24  0.213379  YLD25  0.271313
    CRUDE182  YLD26  0.281428  YLD27  0.229852
    CRUDE182  YLD28  0.523816  YLD29  0.357874
    CRUDE182  YLD30  0.503277  YLD31  0.473343
    CRUDE182  YLD32  0.499132  YLD33  0.263498
    CRUDE182  YLD34  0.4768  YLD35  0.394384
    CRUDE182  YLD36  0.48673  YLD37  0.155806
    CRUDE182  YLD38  0.323385  YLD39  0.340408
    CRUDE182  YLD40  0.453556  YLD41  0.153279
    CRUDE182  YLD42  0.484226  YLD43  0.474725
    CRUDE182  YLD44  0.323863  YLD45  0.329291
    CRUDE182  YLD46  0.498158  YLD47  0.37383
    CRUDE182  YLD48  0.198586  YLD49  0.355792
    CRUDE182  YLD50  0.158197  YLD51  0.442098
    CRUDE182  YLD52  0.196407  YLD53  0.258786
    CRUDE182  YLD54  0.368344  YLD55  0.277703
    CRUDE182  YLD56  0.506722  YLD57  0.432982
    CRUDE182  YLD58  0.233331  YLD59  0.246835
    CRUDE182  YLD60  0.468967  YLD61  0.500413
    CRUDE182  YLD62  0.539031  YLD63  0.211595
    CRUDE182  YLD64  0.227854  YLD65  0.17588
    CRUDE182  YLD66  0.222098  YLD67  0.515494
    CRUDE182  YLD68  0.506537  YLD69  0.510529
    CRUDE182  YLD70  0.174617  YLD71  0.544655
    CRUDE182  YLD72  0.277231  YLD73  0.295464
    CRUDE182  YLD74  0.411455  YLD75  0.300815
    CRUDE182  YLD76  0.388898  YLD77  0.325604
    CRUDE182  YLD78  0.486011  YLD79  0.42541
    CRUDE182  YLD80  0.385244  CAP  1
    CRUDE182  SULF  1.10589
    CRUDE183  COST  -61.297  YLD1  0.523477
    CRUDE183  YLD2  0.363782  YLD3  0.18668
    CRUDE183  YLD4  0.543741  YLD5  0.289429
    CRUDE183  YLD6  0.46451  YLD7  0.278024
    CRUDE183  YLD8  0.292389  YLD9  0.21593
    CRUDE183  YLD10  0.280329  YLD11  0.468496
    CRUDE183  YLD12  0.322552  YLD13  0.333209
    CRUDE183  YLD14  0.460596  YLD15  0.474103
    CRUDE183  YLD16  0.400529  YLD17  0.509704
    CRUDE183  YLD18  0.466585  YLD19  0.150075
    CRUDE183  YLD20  0.173671  YLD21  0.467225
    CRUDE183  YLD22  0.47813  YLD23  0.265152
    CRUDE183  YLD24  0.174882  YLD25  0.436643
    CRUDE183  YLD26  0.390903  YLD27  0.450218
    CRUDE183  YLD28  0.440425  YLD29  0.22623
    CRUDE183  YLD30  0.529279  YLD31  0.305223
    CRUDE183  YLD32  0.475826  YLD33  0.324633
    CRUDE183  YLD34  0.313517  YLD35  0.16605
    CRUDE183  YLD36  0.269605  YLD37  0.379936
    CRUDE183  YLD38  0.308691  YLD39  0.510602
    CRUDE183  YLD40  0.363074  YLD41  0.509526
    CRUDE183  YLD42  0.463568  YLD43  0.446733
    CRUDE183  YLD44  0.282318  YLD45  0.328641
    CRUDE183  YLD46  0.293665  YLD47  0.416204
    CRUDE183  YLD48  0.393414  YLD49  0.435383
    CRUDE183  YLD50  0.156723  YLD51  0.35499
    CRUDE183  YLD52  0.419167  YLD53  0.438267
    CRUDE183  YLD54  0.285257  YLD55  0.306981
    CRUDE183  YLD56  0.515519  YLD57  0.341792
    CRUDE183  YLD58  0.200152  YLD59  0.324711
    CRUDE183  YLD60  0.407389  YLD61  0.324036
    CRUDE183  YLD62  0.462447  YLD63  0.432985
    CRUDE183  YLD64  0.223679  YLD65  0.443548
    CRUDE183  YLD66  0.156243  YLD67  0.483161
    CRUDE183  YLD68  0.329808  YLD69  0.366325
    CRUDE183  YLD70  0.490929  YLD71  0.258795
    CRUDE183  YLD72  0.210444  YLD73  0.382069
    CRUDE183  YLD74  0.485302  YLD75  0.513671
    CRUDE183  YLD76  0.436923  YLD77  0.468825
    CRUDE183  YLD78  0.536176  YLD79  0.41337
    CRUDE183  YLD80  0.302303  CAP  1
    CRUDE183  SULF  1.10519
    CRUDE184  COST  -62.5742  YLD1  0.153014
    CRUDE184  YLD2  0.342435  YLD3  0.284548
    CRUDE184  YLD4  0.209832  YLD5  0.213715
    CRUDE184  YLD6  0.379835  YLD7  0.451275
    CRUDE184  YLD8  0.541225  YLD9  0.218233
    CRUDE184  YLD10  0.467009  YLD11  0.451609
    CRUDE184  YLD12  0.437664  YLD13  0.186838
    CRUDE184  YLD14  0.394535  YLD15  0.315531
    CRUDE184  YLD16  0.261388  YLD17  0.534905
    CRUDE184  YLD18  0.390988  YLD19  0.395592
    CRUDE184  YLD20  0.403121  YLD21  0.542497
    CRUDE184  YLD22  0.374746  YLD23  0.439879
    CRUDE184  YLD24  0.479081  YLD25  0.293465
    CRUDE184  YLD26  0.27893  YLD27  0.448568
    CRUDE184  YLD28  0.517109  YLD29  0.334816
    CRUDE184  YLD30  0.3447  YLD31  0.468386
    CRUDE184  YLD32  0.243569  YLD33  0.403519
    CRUDE184  YLD34  0.280709  YLD35  0.510579
    CRUDE184  YLD36  0.276639  YLD37  0.31091
    CRUDE184  YLD38  0.525222  YLD39  0.163896
    CRUDE184  YLD40  0.40549  YLD41  0.522448
    CRUDE184  YLD42  0.479672  YLD43  0.444799
    CRUDE184  YLD44  0.221465  YLD45  0.333058
    CRUDE184  YLD46  0.390101  YLD47  0.54133
    CRUDE184  YLD48  0.431116  YLD49  0.520483
    CRUDE184  YLD50  0.358085  YLD51  0.434847
    CRUDE184  YLD52  0.322979  YLD53  0.16942
    CRUDE184  YLD54  0.250357  YLD55  0.261727
    CRUDE184  YLD56  0.23631  YLD57  0.383843
    CRUDE184  YLD58  0.225838  YLD59  0.446181
    CRUDE184  YLD60  0.462584  YLD61  0.364152
    CRUDE184  YLD62  0.205881  YLD63  0.539869
    CRUDE184  YLD64  0.265128  YLD65  0.278757
    CRUDE184  YLD66  0.234231  YLD67  0.251551
    CRUDE184  YLD68  0.369922  YLD69  0.437526
    CRUDE184  YLD70  0.547207  YLD71  0.346016
    CRUDE184  YLD72  0.265887  YLD73  0.227205
    CRUDE184  YLD74  0.524591  YLD75  0.465763
    CRUDE184  YLD76  0.328947  YLD77  0.187455
    CRUDE184  YLD78  0.324214  YLD79  0.391317
    CRUDE184  YLD80  0.28316  CAP  1
    CRUDE184  SULF  -0.920162
    CRUDE185  COST  -43.6981  YLD1  0.240133
    CRUDE185  YLD2  0.348805  YLD3  0.359008
    CRUDE185  YLD4  0.335839  YLD5  0.391982
    CRUDE185  YLD6  0.37663  YLD7  0.257733
    CRUDE185  YLD8  0.467596  YLD9  0.529243
    CRUDE185  YLD10  0.334578  YLD11  0.164375
    CRUDE185  YLD12  0.37533  YLD13  0.371352
    CRUDE185  YLD14  0.492924  YLD15  0.231667
    CRUDE185  YLD16  0.491193  YLD17  0.327646
    CRUDE185  YLD18  0.354655  YLD19  0.396571
    CRUDE185  YLD20  0.457568  YLD21  0.522996
    CRUDE185  YLD22  0.418562  YLD23  0.484566
    CRUDE185  YLD24  0.274553  YLD25  0.257117
    CRUDE185  YLD26  0.460757  YLD27  0.208207
    CRUDE185  YLD28  0.513339  YLD29  0.511211
    CRUDE185  YLD30  0.43093  YLD31  0.272302
    CRUDE185  YLD32  0.230253  YLD33  0.330021
    CRUDE185  YLD34  0.447946  YLD35  0.372972
    CRUDE185  YLD36  0.418489  YLD37  0.29986
    CRUDE185  YLD38  0.211254  YLD39  0.277952
    CRUDE185  YLD40  0.531328  YLD41  0.534408
    CRUDE185  YLD42  0.439444  YLD43  0.221208
    CRUDE185  YLD44  0.456133  YLD45  0.253473
    CRUDE185  YLD46  0.197222  YLD47  0.441354
    CRUDE185  YLD48  0.331107  YLD49  0.185375
    CRUDE185  YLD50  0.428414  YLD51  0.319075
    CRUDE185  YLD52  0.476707  YLD53  0.410477
    CRUDE185  YLD54  0.387519  YLD55  0.522564
    CRUDE185  YLD56  0.167438  YLD57  0.54547
    CRUDE185  YLD58  0.162716  YLD59  0.328591
    CRUDE185  YLD60  0.322833  YLD61  0.522713
    CRUDE185  YLD62  0.491245  YLD63  0.243238
    CRUDE185  YLD64  0.249362  YLD65  0.288787
    CRUDE185  YLD66  0.357413  YLD67  0.282519
    CRUDE185  YLD68  0.508633  YLD69  0.240116
    CRUDE185  YLD70  0.476543  YLD71  0.311957
    CRUDE185  YLD72  0.243109  YLD73  0.470786
    CRUDE185  YLD74  0.276966  YLD75  0.450239
    CRUDE185  YLD76  0.499438  YLD77  0.222925
    CRUDE185  YLD78  0.37374  YLD79  0.315447
    CRUDE185  YLD80  0.492303  CAP  1
    CRUDE185  SULF  -0.894076
    CRUDE186  COST  -48.863  YLD1  0.296143
    CRUDE186  YLD2  0.456143  YLD3  0.442909
    CRUDE186  YLD4  0.422183  YLD5  0.277245
    CRUDE186  YLD6  0.306417  YLD7  0.365822
    CRUDE186  YLD8  0.348902  YLD9  0.328098
    CRUDE186  YLD10  0.442327  YLD11  0.307894
    CRUDE186  YLD12  0.321001  YLD13  0.406653
    CRUDE186  YLD14  0.419299  YLD15  0.166937
    CRUDE186  YLD16  0.521353  YLD17  0.450011
    CRUDE186  YLD18  0.174403  YLD19  0.332977
    CRUDE186  YLD20  0.547633  YLD21  0.523546
    CRUDE186  YLD22  0.520523  YLD23  0.494996
    CRUDE186  YLD24  0.310679  YLD25  0.322892
    CRUDE186  YLD26  0.178317  YLD27  0.501191
    CRUDE186  YLD28  0.39183  YLD29  0.170341
    CRUDE186  YLD30  0.490788  YLD31  0.179138
    CRUDE186  YLD32  0.436055  YLD33  0.285127
    CRUDE186  YLD34  0.181862  YLD35  0.49739
    CRUDE186  YLD36  0.162578  YLD37  0.223174
    CRUDE186  YLD38  0.153939  YLD39  0.388663
    CRUDE186  YLD40  0.190435  YLD41  0.155231
    CRUDE186  YLD42  0.483073  YLD43  0.479872
    CRUDE186  YLD44  0.464529  YLD45  0.436225
    CRUDE186  YLD46  0.17251  YLD47  0.407499
    CRUDE186  YLD48  0.247309  YLD49  0.531748
    CRUDE186  YLD50  0.526857  YLD51  0.410596
    CRUDE186  YLD52  0.228515  YLD53  0.238564
    CRUDE186  YLD54  0.23322  YLD55  0.423335
    CRUDE186  YLD56  0.272164  YLD57  0.390795
    CRUDE186  YLD58  0.419693  YLD59  0.177403
    CRUDE186  YLD60  0.38791  YLD61  0.192999
    CRUDE186  YLD62  0.309984  YLD63  0.459259
    CRUDE186  YLD64  0.423918  YLD65  0.233354
    CRUDE186  YLD66  0.365404  YLD67  0.350169
    CRUDE186  YLD68  0.269965  YLD69  0.21651
    CRUDE186  YLD70  0.490753  YLD71  0.2181
    CRUDE186  YLD72  0.519437  YLD73  0.451319
    CRUDE186  YLD74  0.212205  YLD75  0.538376
    CRUDE186  YLD76  0.35681  YLD77  0.539536
    CRUDE186  YLD78  0.401456  YLD79  0.299322
    CRUDE186  YLD80  0.499905  CAP  1
    CRUDE186  SULF  -1.47364
    CRUDE187  COST  -60.9127  YLD1  0.345124
    CRUDE187  YLD2  0.191193  YLD3  0.151339
    CRUDE187  YLD4  0.308218  YLD5  0.496575
    CRUDE187  YLD6  0.350461  YLD7  0.441179
    CRUDE187  YLD8  0.285911  YLD9  0.465521
    CRUDE187  YLD10  0.209194  YLD11  0.522323
    CRUDE187  YLD12  0.280535  YLD13  0.431517
    CRUDE187  YLD14  0.313248  YLD15  0.38189
    CRUDE187  YLD16  0.548559  YLD17  0.362664
    CRUDE187  YLD18  0.265133  YLD19  0.308779
    CRUDE187  YLD20  0.154431  YLD21  0.310889
    CRUDE187  YLD22  0.397667  YLD23  0.276399
    CRUDE187  YLD24  0.3511  YLD25  0.186595
    CRUDE187  YLD26  0.414155  YLD27  0.257676
    CRUDE187  YLD28  0.361105  YLD29  0.495423
    CRUDE187  YLD30  0.292644  YLD31  0.523056
    CRUDE187  YLD32  0.275981  YLD33  0.305239
    CRUDE187  YLD34  0.169425  YLD35  0.483772
    CRUDE187  YLD36  0.440599  YLD37  0.322022
    CRUDE187  YLD38  0.245234  YLD39  0.391921
    CRUDE187  YLD40  0.273539  YLD41  0.21868
    CRUDE187  YLD42  0.230331  YLD43  0.260447
    CRUDE187  YLD44  0.376626  YLD45  0.438631
    CRUDE187  YLD46  0.314798  YLD47  0.284037
    CRUDE187  YLD48  0.50095  YLD49  0.518529
    CRUDE187  YLD50  0.221648  YLD51  0.253616
    CRUDE187  YLD52  0.232022  YLD53  0.182745
    CRUDE187  YLD54  0.27954  YLD55  0.254984
    CRUDE187  YLD56  0.428321  YLD57  0.464247
    CRUDE187  YLD58  0.310559  YLD59  0.217441
    CRUDE187  YLD60  0.28948  YLD61  0.49492
    CRUDE187  YLD62  0.441965  YLD63  0.185043
    CRUDE187  YLD64  0.224711  YLD65  0.328248
    CRUDE187  YLD66  0.251768  YLD67  0.155708
    CRUDE187  YLD68  0.222731  YLD69  0.483982
    CRUDE187  YLD70  0.400374  YLD71  0.231048
    CRUDE187  YLD72  0.446432  YLD73  0.428345
    CRUDE187  YLD74  0.179531  YLD75  0.296479
    CRUDE187  YLD76  0.207701  YLD77  0.352367
    CRUDE187  YLD78  0.523934  YLD79  0.375834
    CRUDE187  YLD80  0.382505  CAP  1
    CRUDE187  SULF  -0.491591
    CRUDE188  COST  -62.7861  YLD1  0.490327
    CRUDE188  YLD2  0.283745  YLD3  0.336924
    CRUDE188  YLD4  0.53988  YLD5  0.547335
    CRUDE188  YLD6  0.308872  YLD7  0.193177
    CRUDE188  YLD8  0.498854  YLD9  0.405842
    CRUDE188  YLD10  0.491023  YLD11  0.20029
    CRUDE188  YLD12  0.485864  YLD13  0.299304
    CRUDE188  YLD14  0.504248  YLD15  0.331164
    CRUDE188  YLD16  0.468403  YLD17  0.365113
    CRUDE188  YLD18  0.187309  YLD19  0.332153
    CRUDE188  YLD20  0.442069  YLD21  0.337516
    CRUDE188  YLD22  0.479923  YLD23  0.490885
    CRUDE188  YLD24  0.485781  YLD25  0.448641
    CRUDE188  YLD26  0.473678  YLD27  0.542902
    CRUDE188  YLD28  0.372976  YLD29  0.286379
    CRUDE188  YLD30  0.254559  YLD31  0.30782
    CRUDE188  YLD32  0.27256  YLD33  0.246917
    CRUDE188  YLD34  0.329181  YLD35  0.483202
    CRUDE188  YLD36  0.484313  YLD37  0.543777
    CRUDE188  YLD38  0.478111  YLD39  0.34205
    CRUDE188  YLD40  0.394543  YLD41  0.411506
    CRUDE188  YLD42  0.330818  YLD43  0.522147
    CRUDE188  YLD44  0.532925  YLD45  0.262959
    CRUDE188  YLD46  0.381567  YLD47  0.163802
    CRUDE188  YLD48  0.447163  YLD49  0.1716
    CRUDE188  YLD50  0.191304  YLD51  0.177903
    CRUDE188  YLD52  0.408304  YLD53  0.270322
    CRUDE188  YLD54  0.404612  YLD55  0.408013
    CRUDE188  YLD56  0.530445  YLD57  0.440642
    CRUDE188  YLD58  0.37461  YLD59  0.466519
    CRUDE188  YLD60  0.280684  YLD61  0.213723
    CRUDE188  YLD62  0.362507  YLD63  0.30263
    CRUDE188  YLD64  0.367247  YLD65  0.170797
    CRUDE188  YLD66  0.17891  YLD67  0.511561
    CRUDE188  YLD68  0.328301  YLD69  0.293449
    CRUDE188  YLD70  0.51893  YLD71  0.517321
    CRUDE188  YLD72  0.276441  YLD73  0.344988
    CRUDE188  YLD74  0.445342  YLD75  0.394389
    CRUDE188  YLD76  0.398917  YLD77  0.167724
    CRUDE188  YLD78  0.252698  YLD79  0.175481
    CRUDE188  YLD80  0.359818  CAP  1
    CRUDE188  SULF  -0.330411
    CRUDE189  COST  -64.0807  YLD1  0.185155
    CRUDE189  YLD2  0.180201  YLD3  0.268801
    CRUDE189  YLD4  0.438755  YLD5  0.450971
    CRUDE189  YLD6  0.365893  YLD7  0.424119
    CRUDE189  YLD8  0.367939  YLD9  0.420571
    CRUDE189  YLD10  0.434354  YLD11  0.444839
    CRUDE189  YLD12  0.207526  YLD13  0.375464
    CRUDE189  YLD14  0.23876  YLD15  0.529498
    CRUDE189  YLD16  0.451494  YLD17  0.26124
    CRUDE189  YLD18  0.535529  YLD19  0.315984
    CRUDE189  YLD20  0.378716  YLD21  0.432254
    CRUDE189  YLD22  0.425524  YLD23  0.166374
    CRUDE189  YLD24  0.410333  YLD25  0.155039
    CRUDE189  YLD26  0.419133  YLD27  0.303161
    CRUDE189  YLD28  0.541332  YLD29  0.509805
    CRUDE189  YLD30  0.528639  YLD31  0.467077
    CRUDE189  YLD32  0.210916  YLD33  0.519798
    CRUDE189  YLD34  0.328256  YLD35  0.42927
    CRUDE189  YLD36  0.316065  YLD37  0.269102
    CRUDE189  YLD38  0.233729  YLD39  0.476266
    CRUDE189  YLD40  0.535622  YLD41  0.160189
    CRUDE189  YLD42  0.426739  YLD43  0.295856
    CRUDE189  YLD44  0.277265  YLD45  0.484123
    CRUDE189  YLD46  0.30708  YLD47  0.26525
    CRUDE189  YLD48  0.509943  YLD49  0.294128
    CRUDE189  YLD50  0.170835  YLD51  0.315389
    CRUDE189  YLD52  0.488401  YLD53  0.239789
    CRUDE189  YLD54  0.502618  YLD55  0.489429
    CRUDE189  YLD56  0.180813  YLD57  0.430596
    CRUDE189  YLD58  0.404783  YLD59  0.409349
    CRUDE189  YLD60  0.452677  YLD61  0.343545
    CRUDE189  YLD62  0.481442  YLD63  0.352675
    CRUDE189  YLD64  0.544571  YLD65  0.270145
    CRUDE189  YLD66  0.447856  YLD67  0.167738
    CRUDE189  YLD68  0.247747  YLD69  0.332013
    CRUDE189  YLD70  0.164295  YLD71  0.493312
    CRUDE189  YLD72  0.455336  YLD73  0.296087
    CRUDE189  YLD74  0.468063  YLD75  0.513972
    CRUDE189  YLD76  0.334892  YLD77  0.168952
    CRUDE189  YLD78  0.3945  YLD79  0.500328
    CRUDE189  YLD80  0.476579  CAP  1
    CRUDE189  SULF  -0.478159
    CRUDE190  COST  -43.0347  YLD1  0.472346
    CRUDE190  YLD2  0.451298  YLD3  0.491129
    CRUDE190  YLD4  0.412794  YLD5  0.186193
    CRUDE190  YLD6  0.40118  YLD7  0.186748
    CRUDE190  YLD8  0.45337  YLD9  0.202677
    CRUDE190  YLD10  0.512777  YLD11  0.539837
    CRUDE190  YLD12  0.322041  YLD13  0.330275
    CRUDE190  YLD14  0.435857  YLD15  0.174242
    CRUDE190  YLD16  0.2362  YLD17  0.236782
    CRUDE190  YLD18  0.204032  YLD19  0.442197
    CRUDE190  YLD20  0.323621  YLD21  0.518877
    CRUDE190  YLD22  0.370775  YLD23  0.169865
    CRUDE190  YLD24  0.396026  YLD25  0.407794
    CRUDE190  YLD26  0.348892  YLD27  0.221154
    CRUDE190  YLD28  0.459267  YLD29  0.526352
    CRUDE190  YLD30  0.440521  YLD31  0.261658
    CRUDE190  YLD32  0.25559  YLD33  0.358697
    CRUDE190  YLD34  0.508258  YLD35  0.266566
    CRUDE190  YLD36  0.455952  YLD37  0.389882
    CRUDE190  YLD38  0.246351  YLD39  0.175089
    CRUDE190  YLD40  0.18823  YLD41  0.175444
    CRUDE190  YLD42  0.404957  YLD43  0.493064
    CRUDE190  YLD44  0.237848  YLD45  0.276738
    CRUDE190  YLD46  0.381094  YLD47  0.457379
    CRUDE190  YLD48  0.477361  YLD49  0.475257
    CRUDE190  YLD50  0.324417  YLD51  0.334711
    CRUDE190  YLD52  0.338879  YLD53  0.370813
    CRUDE190  YLD54  0.363156  YLD55  0.310652
    CRUDE190  YLD56  0.161394  YLD57  0.436548
    CRUDE190  YLD58  0.538994  YLD59  0.37793
    CRUDE190  YLD60  0.331573  YLD61  0.237369
    CRUDE190  YLD62  0.320202  YLD63  0.257499
    CRUDE190  YLD64  0.322953  YLD65  0.36085
    CRUDE190  YLD66  0.45319  YLD67  0.278977
    CRUDE190  YLD68  0.361138  YLD69  0.161189
    CRUDE190  YLD70  0.45669  YLD71  0.229618
    CRUDE190  YLD72  0.158856  YLD73  0.300235
    CRUDE190  YLD74  0.313749  YLD75  0.466356
    CRUDE190  YLD76  0.524269  YLD77  0.512896
    CRUDE190  YLD78  0.279888  YLD79  0.480126
    CRUDE190  YLD80  0.449734  CAP  1
    CRUDE190  SULF  0.0347036
    CRUDE191  COST  -64.6445  YLD1  0.172261
    CRUDE191  YLD2  0.258921  YLD3  0.436221
    CRUDE191  YLD4  0.452824  YLD5  0.265474
    CRUDE191  YLD6  0.419722  YLD7  0.536052
    CRUDE191  YLD8  0.451643  YLD9  0.243674
    CRUDE191  YLD10  0.202949  YLD11  0.170879
    CRUDE191  YLD12  0.511503  YLD13  0.418822
    CRUDE191  YLD14  0.502625  YLD15  0.424158
    CRUDE191  YLD16  0.284403  YLD17  0.265202
    CRUDE191  YLD18  0.21071  YLD19  0.204142
    CRUDE191  YLD20  0.201028  YLD21  0.206798
    CRUDE191  YLD22  0.246735  YLD23  0.399408
    CRUDE191  YLD24  0.220269  YLD25  0.223146
    CRUDE191  YLD26  0.530123  YLD27  0.290688
    CRUDE191  YLD28  0.192506  YLD29  0.418346
    CRUDE191  YLD30  0.237873  YLD31  0.408546
    CRUDE191  YLD32  0.321003  YLD33  0.155364
    CRUDE191  YLD34  0.200461  YLD35  0.284464
    CRUDE191  YLD36  0.219844  YLD37  0.460595
    CRUDE191  YLD38  0.20196  YLD39  0.476195
    CRUDE191  YLD40  0.15902  YLD41  0.238432
    CRUDE191  YLD42  0.436542  YLD43  0.256493
    CRUDE191  YLD44  0.420987  YLD45  0.440037
    CRUDE191  YLD46  0.356034  YLD47  0.232109
    CRUDE191  YLD48  0.54615  YLD49  0.394631
    CRUDE191  YLD50  0.399259  YLD51  0.252563
    CRUDE191  YLD52  0.440782  YLD53  0.292951
    CRUDE191  YLD54  0.453643  YLD55  0.481983
    CRUDE191  YLD56  0.503659  YLD57  0.331764
    CRUDE191  YLD58  0.177306  YLD59  0.217049
    CRUDE191  YLD60  0.234865  YLD61  0.391179
    CRUDE191  YLD62  0.174718  YLD63  0.361831
    CRUDE191  YLD64  0.406749  YLD65  0.336253
    CRUDE191  YLD66  0.549135  YLD67  0.37767
    CRUDE191  YLD68  0.260103  YLD69  0.304352
    CRUDE191  YLD70  0.418284  YLD71  0.500265
    CRUDE191  YLD72  0.36061  YLD73  0.351228
    CRUDE191  YLD74  0.30837  YLD75  0.375352
    CRUDE191  YLD76  0.306758  YLD77  0.499346
    CRUDE191  YLD78  0.236773  YLD79  0.288554
    CRUDE191  YLD80  0.31013  CAP  1
    CRUDE191  SULF  -0.452709
    CRUDE192  COST  -76.8324  YLD1  0.486926
    CRUDE192  YLD2  0.508972  YLD3  0.385643
    CRUDE192  YLD4  0.531059  YLD5  0.193644
    CRUDE192  YLD6  0.362992  YLD7  0.345358
    CRUDE192  YLD8  0.157178  YLD9  0.4647
    CRUDE192  YLD10  0.387206  YLD11  0.422878
    CRUDE192  YLD12  0.48834  YLD13  0.383423
    CRUDE192  YLD14  0.442527  YLD15  0.159986
    CRUDE192  YLD16  0.336273  YLD17  0.372531
    CRUDE192  YLD18  0.505831  YLD19  0.229056
    CRUDE192  YLD20  0.313634  YLD21  0.271697
    CRUDE192  YLD22  0.320399  YLD23  0.175243
    CRUDE192  YLD24  0.355276  YLD25  0.242962
    CRUDE192  YLD26  0.269975  YLD27  0.326072
    CRUDE192  YLD28  0.461371  YLD29  0.41577
    CRUDE192  YLD30  0.329633  YLD31  0.499324
    CRUDE192  YLD32  0.443135  YLD33  0.157779
    CRUDE192  YLD34  0.199314  YLD35  0.273388
    CRUDE192  YLD36  0.278904  YLD37  0.449663
    CRUDE192  YLD38  0.436174  YLD39  0.347902
    CRUDE192  YLD40  0.1723  YLD41  0.354976
    CRUDE192  YLD42  0.239703  YLD43  0.355811
    CRUDE192  YLD44  0.453363  YLD45  0.1984
    CRUDE192  YLD46  0.424283  YLD47  0.434875
    CRUDE192  YLD48  0.226869  YLD49  0.461638
    CRUDE192  YLD50  0.486221  YLD51  0.441084
    CRUDE192  YLD52  0.549732  YLD53  0.536397
    CRUDE192  YLD54  0.455224  YLD55  0.211766
    CRUDE192  YLD56  0.449258  YLD57  0.339664
    CRUDE192  YLD58  0.317167  YLD59  0.485103
    CRUDE192  YLD60  0.230775  YLD61  0.373429
    CRUDE192  YLD62  0.372729  YLD63  0.503046
    CRUDE192  YLD64  0.537749  YLD65  0.549868
    CRUDE192  YLD66  0.510012  YLD67  0.357137
    CRUDE192  YLD68  0.495796  YLD69  0.458175
    CRUDE192  YLD70  0.169834  YLD71  0.233674
    CRUDE192  YLD72  0.250134  YLD73  0.180926
    CRUDE192  YLD74  0.531695  YLD75  0.180485
    CRUDE192  YLD76  0.311146  YLD77  0.33336
    CRUDE192  YLD78  0.183968  YLD79  0.376728
    CRUDE192  YLD80  0.183095  CAP  1
    CRUDE192  SULF  -1.47291
    CRUDE193  COST  -50.8973  YLD1  0.170654
    CRUDE193  YLD2  0.360631  YLD3  0.260906
    CRUDE193  YLD4  0.513127  YLD5  0.410205
    CRUDE193  YLD6  0.438569  YLD7  0.21027
    CRUDE193  YLD8  0.200502  YLD9  0.538306
    CRUDE193  YLD10  0.389648  YLD11  0.337262
    CRUDE193  YLD12  0.310377  YLD13  0.360302
    CRUDE193  YLD14  0.42891  YLD15  0.218574
    CRUDE193  YLD16  0.459352  YLD17  0.161662
    CRUDE193  YLD18  0.527571  YLD19  0.222207
    CRUDE193  YLD20  0.291751  YLD21  0.205699
    CRUDE193  YLD22  0.537097  YLD23  0.279844
    CRUDE193  YLD24  0.436152  YLD25  0.404253
    CRUDE193  YLD26  0.157667  YLD27  0.177723
    CRUDE193  YLD28  0.218215  YLD29  0.331102
    CRUDE193  YLD30  0.468581  YLD31  0.166658
    CRUDE193  YLD32  0.284523  YLD33  0.539185
    CRUDE193  YLD34  0.208981  YLD35  0.158018
    CRUDE193  YLD36  0.539722  YLD37  0.28151
    CRUDE193  YLD38  0.17767  YLD39  0.203504
    CRUDE193  YLD40  0.170962  YLD41  0.368361
    CRUDE193  YLD42  0.189374  YLD43  0.192754
    CRUDE193  YLD44  0.239962  YLD45  0.217481
    CRUDE193  YLD46  0.409813  YLD47  0.381912
    CRUDE193  YLD48  0.184699  YLD49  0.437613
    CRUDE193  YLD50  0.423058  YLD51  0.17942
    CRUDE193  YLD52  0.546106  YLD53  0.53542
    CRUDE193  YLD54  0.415742  YLD55  0.479113
    CRUDE193  YLD56  0.546899  YLD57  0.337145
    CRUDE193  YLD58  0.248359  YLD59  0.534296
    CRUDE193  YLD60  0.493669  YLD61  0.302003
    CRUDE193  YLD62  0.218516  YLD63  0.527775
    CRUDE193  YLD64  0.205056  YLD65  0.305506
    CRUDE193  YLD66  0.520425  YLD67  0.411784
    CRUDE193  YLD68  0.39293  YLD69  0.47851
    CRUDE193  YLD70  0.367589  YLD71  0.400619
    CRUDE193  YLD72  0.195729  YLD73  0.422922
    CRUDE193  YLD74  0.516673  YLD75  0.411089
    CRUDE193  YLD76  0.410309  YLD77  0.215289
    CRUDE193  YLD78  0.398284  YLD79  0.522891
    CRUDE193  YLD80  0.4574  CAP  1
    CRUDE193  SULF  1.5908
    CRUDE194  COST  -57.3986  YLD1  0.157297
    CRUDE194  YLD2  0.4703  YLD3  0.514136
    CRUDE194  YLD4  0.439714  YLD5  0.456076
    CRUDE194  YLD6  0.206511  YLD7  0.286953
    CRUDE194  YLD8  0.413852  YLD9  0.25507
    CRUDE194  YLD10  0.291384  YLD11  0.38167
    CRUDE194  YLD12  0.455243  YLD13  0.24981
    CRUDE194  YLD14  0.451055  YLD15  0.331432
    CRUDE194  YLD16  0.515986  YLD17  0.5129
    CRUDE194  YLD18  0.456332  YLD19  0.254988
    CRUDE194  YLD20  0.271132  YLD21  0.394803
    CRUDE194  YLD22  0.413106  YLD23  0.419102
    CRUDE194  YLD24  0.539304  YLD25  0.547177
    CRUDE194  YLD26  0.322796  YLD27  0.381287
    CRUDE194  YLD28  0.32894  YLD29  0.484216
    CRUDE194  YLD30  0.368825  YLD31  0.482254
    CRUDE194  YLD32  0.281442  YLD33  0.23858
    CRUDE194  YLD34  0.161895  YLD35  0.383028
    CRUDE194  YLD36  0.544531  YLD37  0.394344
    CRUDE194  YLD38  0.282483  YLD39  0.504281
    CRUDE194  YLD40  0.513126  YLD41  0.163704
    CRUDE194  YLD42  0.516723  YLD43  0.414048
    CRUDE194  YLD44  0.180644  YLD45  0.276318
    CRUDE194  YLD46  0.319698  YLD47  0.218743
    CRUDE194  YLD48  0.284801  YLD49  0.348708
    CRUDE194  YLD50  0.233344  YLD51  0.239099
    CRUDE194  YLD52  0.447735  YLD53  0.327486
    CRUDE194  YLD54  0.248335  YLD55  0.366118
    CRUDE194  YLD56  0.308717  YLD57  0.163302
    CRUDE194  YLD58  0.340685  YLD59  0.166355
    CRUDE194  YLD60  0.421104  YLD61  0.495321
    CRUDE194  YLD62  0.536207  YLD63  0.190223
    CRUDE194  YLD64  0.317443  YLD65  0.3048
    CRUDE194  YLD66  0.469282  YLD67  0.361008
    CRUDE194  YLD68  0.150096  YLD69  0.429502
    CRUDE194  YLD70  0.356024  YLD71  0.182512
    CRUDE194  YLD72  0.503503  YLD73  0.290603
    CRUDE194  YLD74  0.243306  YLD75  0.360622
    CRUDE194  YLD76  0.360794  YLD77  0.482114
    CRUDE194  YLD78  0.502834  YLD79  0.258655
    CRUDE194  YLD80  0.21748  CAP  1
    CRUDE194  SULF  -0.204766
    CRUDE195  COST  -58.426  YLD1  0.428785
    CRUDE195  YLD2  0.541573  YLD3  0.16804
    CRUDE195  YLD4  0.449665  YLD5  0.52027
    CRUDE195  YLD6  0.234793  YLD7  0.315367
    CRUDE195  YLD8  0.214648  YLD9  0.258628
    CRUDE195  YLD10  0.333387  YLD11  0.184137
    CRUDE195  YLD12  0.479264  YLD13  0.150807
    CRUDE195  YLD14  0.336022  YLD15  0.331949
    CRUDE195  YLD16  0.225656  YLD17  0.212513
    CRUDE195  YLD18  0.152162  YLD19  0.360103
    CRUDE195  YLD20  0.442352  YLD21  0.27252
    CRUDE195  YLD22  0.375758  YLD23  0.284907
    CRUDE195  YLD24  0.230563  YLD25  0.461087
    CRUDE195  YLD26  0.163205  YLD27  0.389053
    CRUDE195  YLD28  0.234184  YLD29  0.534645
    CRUDE195  YLD30  0.409981  YLD31  0.378533
    CRUDE195  YLD32  0.263965  YLD33  0.472243
    CRUDE195  YLD34  0.178693  YLD35  0.429533
    CRUDE195  YLD36  0.355042  YLD37  0.498506
    CRUDE195  YLD38  0.262999  YLD39  0.409692
    CRUDE195  YLD40  0.438503  YLD41  0.218147
    CRUDE195  YLD42  0.374069  YLD43  0.484432
    CRUDE195  YLD44  0.474207  YLD45  0.38755
    CRUDE195  YLD46  0.319998  YLD47  0.25465
    CRUDE195  YLD48  0.201602  YLD49  0.166487
    CRUDE195  YLD50  0.334708  YLD51  0.449426
    CRUDE195  YLD52  0.445835  YLD53  0.468035
    CRUDE195  YLD54  0.496715  YLD55  0.23919
    CRUDE195  YLD56  0.31642  YLD57  0.246426
    CRUDE195  YLD58  0.518189  YLD59  0.181213
    CRUDE195  YLD60  0.368418  YLD61  0.413925
    CRUDE195  YLD62  0.360785  YLD63  0.258738
    CRUDE195  YLD64  0.490077  YLD65  0.351433
    CRUDE195  YLD66  0.396201  YLD67  0.241601
    CRUDE195  YLD68  0.472189  YLD69  0.426872
    CRUDE195  YLD70  0.426614  YLD71  0.502148
    CRUDE195  YLD72  0.229736  YLD73  0.239904
    CRUDE195  YLD74  0.462323  YLD75  0.223672
    CRUDE195  YLD76  0.29978  YLD77  0.27984
    CRUDE195  YLD78  0.290557  YLD79  0.446982
    CRUDE195  YLD80  0.156551  CAP  1
    CRUDE195  SULF  0.298331
    CRUDE196  COST  -66.5824  YLD1  0.548902
    CRUDE196  YLD2  0.485916  YLD3  0.193787
    CRUDE196  YLD4  0.208369  YLD5  0.325269
    CRUDE196  YLD6  0.477494  YLD7  0.453274
    CRUDE196  YLD8  0.252197  YLD9  0.339159
    CRUDE196  YLD10  0.165193  YLD11  0.167203
    CRUDE196  YLD12  0.505555  YLD13  0.219633
    CRUDE196  YLD14  0.499668  YLD15  0.42428
    CRUDE196  YLD16  0.518947  YLD17  0.238035
    CRUDE196  YLD18  0.150539  YLD19  0.194483
    CRUDE196  YLD20  0.43029  YLD21  0.280443
    CRUDE196  YLD22  0.523183  YLD23  0.22184
    CRUDE196  YLD24  0.153817  YLD25  0.240336
    CRUDE196  YLD26  0.531575  YLD27  0.445572
    CRUDE196  YLD28  0.425833  YLD29  0.460033
    CRUDE196  YLD30  0.451507  YLD31  0.392989
    CRUDE196  YLD32  0.341313  YLD33  0.17331
    CRUDE196  YLD34  0.413948  YLD35  0.491546
    CRUDE196  YLD36  0.523708  YLD37  0.156179
    CRUDE196  YLD38  0.372064  YLD39  0.215418
    CRUDE196  YLD40  0.420843  YLD41  0.349882
    CRUDE196  YLD42  0.21153  YLD43  0.437379
    CRUDE196  YLD44  0.540601  YLD45  0.408205
    CRUDE196  YLD46  0.206311  YLD47  0.348521
    CRUDE196  YLD48  0.359252  YLD49  0.383707
    CRUDE196  YLD50  0.514139  YLD51  0.32485
    CRUDE196  YLD52  0.249048  YLD53  0.155307
    CRUDE196  YLD54  0.32451  YLD55  0.312857
    CRUDE196  YLD56  0.218925  YLD57  0.211826
    CRUDE196  YLD58  0.439594  YLD59  0.50389
    CRUDE196  YLD60  0.310375  YLD61  0.438482
    CRUDE196  YLD62  0.371424  YLD63  0.541654
    CRUDE196  YLD64  0.522922  YLD65  0.226121
    CRUDE196  YLD66  0.201418  YLD67  0.230431
    CRUDE196  YLD68  0.282085  YLD69  0.352496
    CRUDE196  YLD70  0.181013  YLD71  0.1706
    CRUDE196  YLD72  0.478956  YLD73  0.261331
    CRUDE196  YLD74  0.39908  YLD75  0.502901
    CRUDE196  YLD76  0.54591  YLD77  0.317623
    CRUDE196  YLD78  0.371067  YLD79  0.183093
    CRUDE196  YLD80  0.487321  CAP  1
    CRUDE196  SULF  -1.18084
    CRUDE197  COST  -42.5008  YLD1  0.508644
    CRUDE197  YLD2  0.496798  YLD3  0.306652
    CRUDE197  YLD4  0.191117  YLD5  0.51055
    CRUDE197  YLD6  0.279011  YLD7  0.44737
    CRUDE197  YLD8  0.528655  YLD9  0.543536
    CRUDE197  YLD10  0.448344  YLD11  0.416747
    CRUDE197  YLD12  0.367802  YLD13  0.196826
    CRUDE197  YLD14  0.231375  YLD15  0.514085
    CRUDE197  YLD16  0.42825  YLD17  0.35731
    CRUDE197  YLD18  0.30124  YLD19  0.497268
    CRUDE197  YLD20  0.385608  YLD21  0.178366
    CRUDE197  YLD22  0.384605  YLD23  0.26254
    CRUDE197  YLD24  0.180121  YLD25  0.22041
    CRUDE197  YLD26  0.233967  YLD27  0.161668
    CRUDE197  YLD28  0.500924  YLD29  0.398775
    CRUDE197  YLD30  0.398804  YLD31  0.359263
    CRUDE197  YLD32  0.222255  YLD33  0.518465
    CRUDE197  YLD34  0.322634  YLD35  0.206066
    CRUDE197  YLD36  0.359092  YLD37  0.324294
    CRUDE197  YLD38  0.442167  YLD39  0.16346
    CRUDE197  YLD40  0.359029  YLD41  0.387576
    CRUDE197  YLD42  0.467375  YLD43  0.359303
    CRUDE197  YLD44  0.407869  YLD45  0.308542
    CRUDE197  YLD46  0.355295  YLD47  0.31735
    CRUDE197  YLD48  0.403212  YLD49  0.169427
    CRUDE197  YLD50  0.280696  YLD51  0.432113
    CRUDE197  YLD52  0.483416  YLD53  0.369125
    CRUDE197  YLD54  0.167684  YLD55  0.545197
    CRUDE197  YLD56  0.196339  YLD57  0.504578
    CRUDE197  YLD58  0.41478  YLD59  0.476221
    CRUDE197  YLD60  0.322327  YLD61  0.210264
    CRUDE197  YLD62  0.512906  YLD63  0.258167
    CRUDE197  YLD64  0.390494  YLD65  0.500522
    CRUDE197  YLD66  0.398925  YLD67  0.512899
    CRUDE197  YLD68  0.278083  YLD69  0.365332
    CRUDE197  YLD70  0.472112  YLD71  0.371977
    CRUDE197  YLD72  0.315289  YLD73  0.222118
    CRUDE197  YLD74  0.211689  YLD75  0.287299
    CRUDE197  YLD76  0.270874  YLD77  0.422991
    CRUDE197  YLD78  0.406854  YLD79  0.359349
    CRUDE197  YLD80  0.381302  CAP  1
    CRUDE197  SULF  0.313575
    CRUDE198  COST  -73.3558  YLD1  0.380399
    CRUDE198  YLD2  0.313194  YLD3  0.199775
    CRUDE198  YLD4  0.378362  YLD5  0.501156
    CRUDE198  YLD6  0.159158  YLD7  0.394776
    CRUDE198  YLD8  0.374073  YLD9  0.257584
    CRUDE198  YLD10  0.369729  YLD11  0.479324
    CRUDE198  YLD12  0.231784  YLD13  0.329634
    CRUDE198  YLD14  0.200955  YLD15  0.405613
    CRUDE198  YLD16  0.394308  YLD17  0.434046
    CRUDE198  YLD18  0.207358  YLD19  0.268945
    CRUDE198  YLD20  0.525466  YLD21  0.289918
    CRUDE198  YLD22  0.360433  YLD23  0.33303
    CRUDE198  YLD24  0.300341  YLD25  0.496493
    CRUDE198  YLD26  0.465571  YLD27  0.366495
    CRUDE198  YLD28  0.266145  YLD29  0.392717
    CRUDE198  YLD30  0.366032  YLD31  0.49979
    CRUDE198  YLD32  0.344252  YLD33  0.499767
    CRUDE198  YLD34  0.455441  YLD35  0.367673
    CRUDE198  YLD36  0.266635  YLD37  0.239709
    CRUDE198  YLD38  0.363151  YLD39  0.206444
    CRUDE198  YLD40  0.462781  YLD41  0.209361
    CRUDE198  YLD42  0.515972  YLD43  0.168046
    CRUDE198  YLD44  0.261147  YLD45  0.181136
    CRUDE198  YLD46  0.384872  YLD47  0.461426
    CRUDE198  YLD48  0.381315  YLD49  0.391491
    CRUDE198  YLD50  0.349492  YLD51  0.376994
    CRUDE198  YLD52  0.312041  YLD53  0.44732
    CRUDE198  YLD54  0.247845  YLD55  0.463422
    CRUDE198  YLD56  0.381487  YLD57  0.259988
    CRUDE198  YLD58  0.326498  YLD59  0.397174
    CRUDE198  YLD60  0.172974  YLD61  0.503266
    CRUDE198  YLD62  0.399834  YLD63  0.427083
    CRUDE198  YLD64  0.207368  YLD65  0.378907
    CRUDE198  YLD66  0.172382  YLD67  0.255587
    CRUDE198  YLD68  0.303225  YLD69  0.447053
    CRUDE198  YLD70  0.205761  YLD71  0.461885
    CRUDE198  YLD72  0.155716  YLD73  0.510627
    CRUDE198  YLD74  0.292708  YLD75  0.304992
    CRUDE198  YLD76  0.261012  YLD77  0.291359
    CRUDE198  YLD78  0.31586  YLD79  0.503588
    CRUDE198  YLD80  0.506666  CAP  1
    CRUDE198  SULF  0.25194
    CRUDE199  COST  -41.9298  YLD1  0.516958
    CRUDE199  YLD2  0.370689  YLD3  0.532566
    CRUDE199  YLD4  0.157347  YLD5  0.276878
    CRUDE199  YLD6  0.211516  YLD7  0.192372
    CRUDE199  YLD8  0.450292  YLD9  0.312789
    CRUDE199  YLD10  0.173096  YLD11  0.462806
    CRUDE199  YLD12  0.252124  YLD13  0.394903
    CRUDE199  YLD14  0.264204  YLD15  0.531414
    CRUDE199  YLD16  0.229937  YLD17  0.188292
    CRUDE199  YLD18  0.157354  YLD19  0.215015
    CRUDE199  YLD20  0.289942  YLD21  0.494999
    CRUDE199  YLD22  0.453724  YLD23  0.340154
    CRUDE199  YLD24  0.478218  YLD25  0.327674
    CRUDE199  YLD26  0.459829  YLD27  0.171163
    CRUDE199  YLD28  0.182804  YLD29  0.489788
    CRUDE199  YLD30  0.449846  YLD31  0.167373
    CRUDE199  YLD32  0.43167  YLD33  0.378437
    CRUDE199  YLD34  0.547039  YLD35  0.153203
    CRUDE199  YLD36  0.25676  YLD37  0.305453
    CRUDE199  YLD38  0.52241  YLD39  0.393519
    CRUDE199  YLD40  0.212259  YLD41  0.309537
    CRUDE199  YLD42  0.217825  YLD43  0.523376
    CRUDE199  YLD44  0.548669  YLD45  0.299454
    CRUDE199  YLD46  0.340596  YLD47  0.443762
    CRUDE199  YLD48  0.253696  YLD49  0.470164
    CRUDE199  YLD50  0.533426  YLD51  0.530285
    CRUDE199  YLD52  0.534798  YLD53  0.236777
    CRUDE199  YLD54  0.456219  YLD55  0.380035
    CRUDE199  YLD56  0.295714  YLD57  0.205377
    CRUDE199  YLD58  0.418445  YLD59  0.527986
    CRUDE199  YLD60  0.331964  YLD61  0.216816
    CRUDE199  YLD62  0.271092  YLD63  0.251381
    CRUDE199  YLD64  0.510589  YLD65  0.226843
    CRUDE199  YLD66  0.50412  YLD67  0.262391
    CRUDE199  YLD68  0.402105  YLD69  0.248921
    CRUDE199  YLD70  0.317466  YLD71  0.196734
    CRUDE199  YLD72  0.443013  YLD73  0.217615
    CRUDE199  YLD74  0.220989  YLD75  0.418961
    CRUDE199  YLD76  0.495771  YLD77  0.401468
    CRUDE199  YLD78  0.511339  YLD79  0.370684
    CRUDE199  YLD80  0.343835  CAP  1
    CRUDE199  SULF  0.641268
    CRUDE200  COST  -66.9954  YLD1  0.15212
    CRUDE200  YLD2  0.251555  YLD3  0.469196
    CRUDE200  YLD4  0.342943  YLD5  0.49756
    CRUDE200  YLD6  0.239446  YLD7  0.210628
    CRUDE200  YLD8  0.373192  YLD9  0.506592
    CRUDE200  YLD10  0.422302  YLD11  0.367522
    CRUDE200  YLD12  0.268278  YLD13  0.235234
    CRUDE200  YLD14  0.362631  YLD15  0.502646
    CRUDE200  YLD16  0.17221  YLD17  0.277078
    CRUDE200  YLD18  0.335627  YLD19  0.420249
    CRUDE200  YLD20  0.247521  YLD21  0.243229
    CRUDE200  YLD22  0.435066  YLD23  0.4632
    CRUDE200  YLD24  0.152857  YLD25  0.204821
    CRUDE200  YLD26  0.237092  YLD27  0.430458
    CRUDE200  YLD28  0.269397  YLD29  0.366482
    CRUDE200  YLD30  0.441025  YLD31  0.254411
    CRUDE200  YLD32  0.161916  YLD33  0.153599
    CRUDE200  YLD34  0.413614  YLD35  0.188037
    CRUDE200  YLD36  0.521802  YLD37  0.316396
    CRUDE200  YLD38  0.530577  YLD39  0.221718
    CRUDE200  YLD40  0.306776  YLD41  0.511761
    CRUDE200  YLD42  0.476965  YLD43  0.432196
    CRUDE200  YLD44  0.507307  YLD45  0.425507
    CRUDE200  YLD46  0.280283  YLD47  0.37983
    CRUDE200  YLD48  0.51353  YLD49  0.383997
    CRUDE200  YLD50  0.443883  YLD51  0.389118
    CRUDE200  YLD52  0.182571  YLD53  0.174469
    CRUDE200  YLD54  0.177653  YLD55  0.196066
    CRUDE200  YLD56  0.182127  YLD57  0.197907
    CRUDE200  YLD58  0.16295  YLD59  0.408572
    CRUDE200  YLD60  0.468182  YLD61  0.239114
    CRUDE200  YLD62  0.268438  YLD63  0.292546
    CRUDE200  YLD64  0.219779  YLD65  0.467377
    CRUDE200  YLD66  0.342729  YLD67  0.315181
    CRUDE200  YLD68  0.326824  YLD69  0.242607
    CRUDE200  YLD70  0.502515  YLD71  0.311792
    CRUDE200  YLD72  0.388544  YLD73  0.50317
    CRUDE200  YLD74  0.268062  YLD75  0.345519
    CRUDE200  YLD76  0.151349  YLD77  0.504113
    CRUDE200  YLD78  0.295102  YLD79  0.396501
    CRUDE200  YLD80  0.520592  CAP  1
    CRUDE200  SULF  -0.816041
    PROD1  COST  116.441  YLD1  -1
    PROD1  DEM1  1
    PROD2  COST  127.403  YLD2  -1
    PROD2  DEM2  1
    PROD3  COST  124.759  YLD3  -1
    PROD3  DEM3  1
    PROD4  COST  117.273  YLD4  -1
    PROD4  DEM4  1
    PROD5  COST  110.834  YLD5  -1
    PROD5  DEM5  1
    PROD6  COST  96.9989  YLD6  -1
    PROD6  DEM6  1
    PROD7  COST  93.744  YLD7  -1
    PROD7  DEM7  1
    PROD8  COST  157.098  YLD8  -1
    PROD8  DEM8  1
    PROD9  COST  149.3  YLD9  -1
    PROD9  DEM9  1
    PROD10  COST  114.843  YLD10  -1
    PROD10  DEM10  1
    PROD11  COST  156.976  YLD11  -1
    PROD11  DEM11  1
    PROD12  COST  137.374  YLD12  -1
    PROD12  DEM12  1
    PROD13  COST  123.776  YLD13  -1
    PROD13  DEM13  1
    PROD14  COST  124.512  YLD14  -1
    PROD14  DEM14  1
    PROD15  COST  95.8299  YLD15  -1
    PROD15  DEM15  1
    PROD16  COST  96.4193  YLD16  -1
    PROD16  DEM16  1
    PROD17  COST  132.171  YLD17  -1
    PROD17  DEM17  1
    PROD18  COST  128.759  YLD18  -1
    PROD18  DEM18  1
    PROD19  COST  104.891  YLD19  -1
    PROD19  DEM19  1
    PROD20  COST  156.234  YLD20  -1
    PROD20  DEM20  1
    PROD21  COST  144.691  YLD21  -1
    PROD21  DEM21  1
    PROD22  COST  97.9425  YLD22  -1
    PROD22  DEM22  1
    PROD23  COST  155.165  YLD23  -1
    PROD23  DEM23  1
    PROD24  COST  158.197  YLD24  -1
    PROD24  DEM24  1
    PROD25  COST  159.715  YLD25  -1
    PROD25  DEM25  1
    PROD26  COST  93.911  YLD26  -1
    PROD26  DEM26  1
    PROD27  COST  141.592  YLD27  -1
    PROD27  DEM27  1
    PROD28  COST  128.214  YLD28  -1
    PROD28  DEM28  1
    PROD29  COST  139.408  YLD29  -1
    PROD29  DEM29  1
    PROD30  COST  157.806  YLD30  -1
    PROD30  DEM30  1
    PROD31  COST  138.162  YLD31  -1
    PROD31  DEM31  1
    PROD32  COST  148.587  YLD32  -1
    PROD32  DEM32  1
    PROD33  COST  150.681  YLD33  -1
    PROD33  DEM33  1
    PROD34  COST  148.694  YLD34  -1
    PROD34  DEM34  1
    PROD35  COST  119.826  YLD35  -1
    PROD35  DEM35  1
    PROD36  COST  105.58  YLD36  -1
    PROD36  DEM36  1
    PROD37  COST  117.766  YLD37  -1
    PROD37  DEM37  1
    PROD38  COST  152.433  YLD38  -1
    PROD38  DEM38  1
    PROD39  COST  100.262  YLD39  -1
    PROD39  DEM39  1
    PROD40  COST  125.933  YLD40  -1
    PROD40  DEM40  1
    PROD41  COST  106.326  YLD41  -1
    PROD41  DEM41  1
    PROD42  COST  130.691  YLD42  -1
    PROD42  DEM42  1
    PROD43  COST  150.42  YLD43  -1
    PROD43  DEM43  1
    PROD44  COST  151.625  YLD44  -1
    PROD44  DEM44  1
    PROD45  COST  106.568  YLD45  -1
    PROD45  DEM45  1
    PROD46  COST  153.539  YLD46  -1
    PROD46  DEM46  1
    PROD47  COST  131.432  YLD47  -1
    PROD47  DEM47  1
    PROD48  COST  114.515  YLD48  -1
    PROD48  DEM48  1
    PROD49  COST  139.573  YLD49  -1
    PROD49  DEM49  1
    PROD50  COST  123.717  YLD50  -1
    PROD50  DEM50  1
    PROD51  COST  116.459  YLD51  -1
    PROD51  DEM51  1
    PROD52  COST  139.356  YLD52  -1
    PROD52  DEM52  1
    PROD53  COST  107.411  YLD53  -1
    PROD53  DEM53  1
    PROD54  COST  113.118  YLD54  -1
    PROD54  DEM54  1
    PROD55  COST  120.412  YLD55  -1
    PROD55  DEM55  1
    PROD56  COST  107.758  YLD56  -1
    PROD56  DEM56  1
    PROD57  COST  118.364  YLD57  -1
    PROD57  DEM57  1
    PROD58  COST  130.003  YLD58  -1
    PROD58  DEM58  1
    PROD59  COST  141.868  YLD59  -1
    PROD59  DEM59  1
    PROD60  COST  143.704  YLD60  -1
    PROD60  DEM60  1
    PROD61  COST  147.595  YLD61  -1
    PROD61  DEM61  1
    PROD62  COST  142.095  YLD62  -1
    PROD62  DEM62  1
    PROD63  COST  137.673  YLD63  -1
    PROD63  DEM63  1
    PROD64  COST  106.625  YLD64  -1
    PROD64  DEM64  1
    PROD65  COST  118.016  YLD65  -1
    PROD65  DEM65  1
    PROD66  COST  123.44  YLD66  -1
    PROD66  DEM66  1
    PROD67  COST  95.8024  YLD67  -1
    PROD67  DEM67  1
    PROD68  COST  126.986  YLD68  -1
    PROD68  DEM68  1
    PROD69  COST  120.544  YLD69  -1
    PROD69  DEM69  1
    PROD70  COST  146.148  YLD70  -1
    PROD70  DEM70  1
    PROD71  COST  158.453  YLD71  -1
    PROD71  DEM71  1
    PROD72  COST  128.92  YLD72  -1
    PROD72  DEM72  1
    PROD73  COST  112.588  YLD73  -1
    PROD73  DEM73  1
    PROD74  COST  93.0381  YLD74  -1
    PROD74  DEM74  1
    PROD75  COST  154.725  YLD75  -1
    PROD75  DEM75  1
    PROD76  COST  154.338  YLD76  -1
    PROD76  DEM76  1
    PROD77  COST  107.709  YLD77  -1
    PROD77  DEM77  1
    PROD78  COST  138.679  YLD78  -1
    PROD78  DEM78  1
    PROD79  COST  95.2804  YLD79  -1
    PROD79  DEM79  1
    PROD80  COST  101.635  YLD80  -1
    PROD80  DEM80  1
RHS
    RHS       CAP  1e+06
    RHS       DEM1  2415.89
    RHS       DEM2  3125
    RHS       DEM3  2203.95
    RHS       DEM4  1004.65
    RHS       DEM5  2518.98
    RHS       DEM6  3125
    RHS       DEM7  1600.1
    RHS       DEM8  3019.21
    RHS       DEM9  1849.29
    RHS       DEM10  1298.5
    RHS       DEM11  3125
    RHS       DEM12  3125
    RHS       DEM13  2242.82
    RHS       DEM14  3125
    RHS       DEM15  3125
    RHS       DEM16  3125
    RHS       DEM17  3125
    RHS       DEM18  1715.71
    RHS       DEM19  2970.44
    RHS       DEM20  2468.33
    RHS       DEM21  2883.83
    RHS       DEM22  3125
    RHS       DEM23  2842.8
    RHS       DEM24  1251.4
    RHS       DEM25  3125
    RHS       DEM26  3125
    RHS       DEM27  3125
    RHS       DEM28  3125
    RHS       DEM29  1278.55
    RHS       DEM30  3125
    RHS       DEM31  3125
    RHS       DEM32  1857.36
    RHS       DEM33  2884.12
    RHS       DEM34  2837.77
    RHS       DEM35  3125
    RHS       DEM36  2038.46
    RHS       DEM37  3125
    RHS       DEM38  1963.81
    RHS       DEM39  2785.78
    RHS       DEM40  1490.82
    RHS       DEM41  1149.2
    RHS       DEM42  2282.35
    RHS       DEM43  2098.29
    RHS       DEM44  2627.74
    RHS       DEM45  3125
    RHS       DEM46  3088.92
    RHS       DEM47  3125
    RHS       DEM48  3125
    RHS       DEM49  3125
    RHS       DEM50  3125
    RHS       DEM51  1391.98
    RHS       DEM52  3125
    RHS       DEM53  3125
    RHS       DEM54  3125
    RHS       DEM55  3125
    RHS       DEM56  1069.98
    RHS       DEM57  3125
    RHS       DEM58  2888.79
    RHS       DEM59  2574.38
    RHS       DEM60  2579.79
    RHS       DEM61  2696.6
    RHS       DEM62  1968.72
    RHS       DEM63  2309.33
    RHS       DEM64  3125
    RHS       DEM65  2472.67
    RHS       DEM66  3106.9
    RHS       DEM67  3125
    RHS       DEM68  3109.71
    RHS       DEM69  2297.81
    RHS       DEM70  3095
    RHS       DEM71  1456.35
    RHS       DEM72  1520.03
    RHS       DEM73  3125
    RHS       DEM74  3125
    RHS       DEM75  3125
    RHS       DEM76  1298.45
    RHS       DEM77  2611.58
    RHS       DEM78  1010.21
    RHS       DEM79  3044.83
    RHS       DEM80  1772.82
BOUNDS
 UP BND       CRUDE1  1e+06
 UP BND       CRUDE2  1e+06
 UP BND       CRUDE3  1e+06
 UP BND       CRUDE4  1e+06
 UP BND       CRUDE5  1e+06
 UP BND       CRUDE6  1e+06
 UP BND       CRUDE7  1e+06
 UP BND       CRUDE8  1e+06
 UP BND       CRUDE9  1e+06
 UP BND       CRUDE10  1e+06
 UP BND       CRUDE11  1e+06
 UP BND       CRUDE12  1e+06
 UP BND       CRUDE13  1e+06
 UP BND       CRUDE14  1e+06
 UP BND       CRUDE15  1e+06
 UP BND       CRUDE16  1e+06
 UP BND       CRUDE17  1e+06
 UP BND       CRUDE18  1e+06
 UP BND       CRUDE19  1e+06
 UP BND       CRUDE20  1e+06
 UP BND       CRUDE21  1e+06
 UP BND       CRUDE22  1e+06
 UP BND       CRUDE23  1e+06
 UP BND       CRUDE24  1e+06
 UP BND       CRUDE25  1e+06
 UP BND       CRUDE26  1e+06
 UP BND       CRUDE27  1e+06
 UP BND       CRUDE28  1e+06
 UP BND       CRUDE29  1e+06
 UP BND       CRUDE30  1e+06
 UP BND       CRUDE31  1e+06
 UP BND       CRUDE32  1e+06
 UP BND       CRUDE33  1e+06
 UP BND       CRUDE34  1e+06
 UP BND       CRUDE35  1e+06
 UP BND       CRUDE36  1e+06
 UP BND       CRUDE37  1e+06
 UP BND       CRUDE38  1e+06
 UP BND       CRUDE39  1e+06
 UP BND       CRUDE40  1e+06
 UP BND       CRUDE41  1e+06
 UP BND       CRUDE42  1e+06
 UP BND       CRUDE43  1e+06
 UP BND       CRUDE44  1e+06
 UP BND       CRUDE45  1e+06
 UP BND       CRUDE46  1e+06
 UP BND       CRUDE47  1e+06
 UP BND       CRUDE48  1e+06
 UP BND       CRUDE49  1e+06
 UP BND       CRUDE50  1e+06
 UP BND       CRUDE51  1e+06
 UP BND       CRUDE52  1e+06
 UP BND       CRUDE53  1e+06
 UP BND       CRUDE54  1e+06
 UP BND       CRUDE55  1e+06
 UP BND       CRUDE56  1e+06
 UP BND       CRUDE57  1e+06
 UP BND       CRUDE58  1e+06
 UP BND       CRUDE59  1e+06
 UP BND       CRUDE60  1e+06
 UP BND       CRUDE61  1e+06
 UP BND       CRUDE62  1e+06
 UP BND       CRUDE63  1e+06
 UP BND       CRUDE64  1e+06
 UP BND       CRUDE65  1e+06
 UP BND       CRUDE66  1e+06
 UP BND       CRUDE67  1e+06
 UP BND       CRUDE68  1e+06
 UP BND       CRUDE69  1e+06
 UP BND       CRUDE70  1e+06
 UP BND       CRUDE71  1e+06
 UP BND       CRUDE72  1e+06
 UP BND       CRUDE73  1e+06
 UP BND       CRUDE74  1e+06
 UP BND       CRUDE75  1e+06
 UP BND       CRUDE76  1e+06
 UP BND       CRUDE77  1e+06
 UP BND       CRUDE78  1e+06
 UP BND       CRUDE79  1e+06
 UP BND       CRUDE80  1e+06
 UP BND       CRUDE81  1e+06
 UP BND       CRUDE82  1e+06
 UP BND       CRUDE83  1e+06
 UP BND       CRUDE84  1e+06
 UP BND       CRUDE85  1e+06
 UP BND       CRUDE86  1e+06
 UP BND       CRUDE87  1e+06
 UP BND       CRUDE88  1e+06
 UP BND       CRUDE89  1e+06
 UP BND       CRUDE90  1e+06
 UP BND       CRUDE91  1e+06
 UP BND       CRUDE92  1e+06
 UP BND       CRUDE93  1e+06
 UP BND       CRUDE94  1e+06
 UP BND       CRUDE95  1e+06
 UP BND       CRUDE96  1e+06
 UP BND       CRUDE97  1e+06
 UP BND       CRUDE98  1e+06
 UP BND       CRUDE99  1e+06
 UP BND       CRUDE100  1e+06
 UP BND       CRUDE101  1e+06
 UP BND       CRUDE102  1e+06
 UP BND       CRUDE103  1e+06
 UP BND       CRUDE104  1e+06
 UP BND       CRUDE105  1e+06
 UP BND       CRUDE106  1e+06
 UP BND       CRUDE107  1e+06
 UP BND       CRUDE108  1e+06
 UP BND       CRUDE109  1e+06
 UP BND       CRUDE110  1e+06
 UP BND       CRUDE111  1e+06
 UP BND       CRUDE112  1e+06
 UP BND       CRUDE113  1e+06
 UP BND       CRUDE114  1e+06
 UP BND       CRUDE115  1e+06
 UP BND       CRUDE116  1e+06
 UP BND       CRUDE117  1e+06
 UP BND       CRUDE118  1e+06
 UP BND       CRUDE119  1e+06
 UP BND       CRUDE120  1e+06
 UP BND       CRUDE121  1e+06
 UP BND       CRUDE122  1e+06
 UP BND       CRUDE123  1e+06
 UP BND       CRUDE124  1e+06
 UP BND       CRUDE125  1e+06
 UP BND       CRUDE126  1e+06
 UP BND       CRUDE127  1e+06
 UP BND       CRUDE128  1e+06
 UP BND       CRUDE129  1e+06
 UP BND       CRUDE130  1e+06
 UP BND       CRUDE131  1e+06
 UP BND       CRUDE132  1e+06
 UP BND       CRUDE133  1e+06
 UP BND       CRUDE134  1e+06
 UP BND       CRUDE135  1e+06
 UP BND       CRUDE136  1e+06
 UP BND       CRUDE137  1e+06
 UP BND       CRUDE138  1e+06
 UP BND       CRUDE139  1e+06
 UP BND       CRUDE140  1e+06
 UP BND       CRUDE141  1e+06
 UP BND       CRUDE142  1e+06
 UP BND       CRUDE143  1e+06
 UP BND       CRUDE144  1e+06
 UP BND       CRUDE145  1e+06
 UP BND       CRUDE146  1e+06
 UP BND       CRUDE147  1e+06
 UP BND       CRUDE148  1e+06
 UP BND       CRUDE149  1e+06
 UP BND       CRUDE150  1e+06
 UP BND       CRUDE151  1e+06
 UP BND       CRUDE152  1e+06
 UP BND       CRUDE153  1e+06
 UP BND       CRUDE154  1e+06
 UP BND       CRUDE155  1e+06
 UP BND       CRUDE156  1e+06
 UP BND       CRUDE157  1e+06
 UP BND       CRUDE158  1e+06
 UP BND       CRUDE159  1e+06
 UP BND       CRUDE160  1e+06
 UP BND       CRUDE161  1e+06
 UP BND       CRUDE162  1e+06
 UP BND       CRUDE163  1e+06
 UP BND       CRUDE164  1e+06
 UP BND       CRUDE165  1e+06
 UP BND       CRUDE166  1e+06
 UP BND       CRUDE167  1e+06
 UP BND       CRUDE168  1e+06
 UP BND       CRUDE169  1e+06
 UP BND       CRUDE170  1e+06
 UP BND       CRUDE171  1e+06
 UP BND       CRUDE172  1e+06
 UP BND       CRUDE173  1e+06
 UP BND       CRUDE174  1e+06
 UP BND       CRUDE175  1e+06
 UP BND       CRUDE176  1e+06
 UP BND       CRUDE177  1e+06
 UP BND       CRUDE178  1e+06
 UP BND       CRUDE179  1e+06
 UP BND       CRUDE180  1e+06
 UP BND       CRUDE181  1e+06
 UP BND       CRUDE182  1e+06
 UP BND       CRUDE183  1e+06
 UP BND       CRUDE184  1e+06
 UP BND       CRUDE185  1e+06
 UP BND       CRUDE186  1e+06
 UP BND       CRUDE187  1e+06
 UP BND       CRUDE188  1e+06
 UP BND       CRUDE189  1e+06
 UP BND       CRUDE190  1e+06
 UP BND       CRUDE191  1e+06
 UP BND       CRUDE192  1e+06
 UP BND       CRUDE193  1e+06
 UP BND       CRUDE194  1e+06
 UP BND       CRUDE195  1e+06
 UP BND       CRUDE196  1e+06
 UP BND       CRUDE197  1e+06
 UP BND       CRUDE198  1e+06
 UP BND       CRUDE199  1e+06
 UP BND       CRUDE200  1e+06
 UP BND       PROD1  800000
 UP BND       PROD2  800000
 UP BND       PROD3  800000
 UP BND       PROD4  800000
 UP BND       PROD5  800000
 UP BND       PROD6  800000
 UP BND       PROD7  800000
 UP BND       PROD8  800000
 UP BND       PROD9  800000
 UP BND       PROD10  800000
 UP BND       PROD11  800000
 UP BND       PROD12  800000
 UP BND       PROD13  800000
 UP BND       PROD14  800000
 UP BND       PROD15  800000
 UP BND       PROD16  800000
 UP BND       PROD17  800000
 UP BND       PROD18  800000
 UP BND       PROD19  800000
 UP BND       PROD20  800000
 UP BND       PROD21  800000
 UP BND       PROD22  800000
 UP BND       PROD23  800000
 UP BND       PROD24  800000
 UP BND       PROD25  800000
 UP BND       PROD26  800000
 UP BND       PROD27  800000
 UP BND       PROD28  800000
 UP BND       PROD29  800000
 UP BND       PROD30  800000
 UP BND       PROD31  800000
 UP BND       PROD32  800000
 UP BND       PROD33  800000
 UP BND       PROD34  800000
 UP BND       PROD35  800000
 UP BND       PROD36  800000
 UP BND       PROD37  800000
 UP BND       PROD38  800000
 UP BND       PROD39  800000
 UP BND       PROD40  800000
 UP BND       PROD41  800000
 UP BND       PROD42  800000
 UP BND       PROD43  800000
 UP BND       PROD44  800000
 UP BND       PROD45  800000
 UP BND       PROD46  800000
 UP BND       PROD47  800000
 UP BND       PROD48  800000
 UP BND       PROD49  800000
 UP BND       PROD50  800000
 UP BND       PROD51  800000
 UP BND       PROD52  800000
 UP BND       PROD53  800000
 UP BND       PROD54  800000
 UP BND       PROD55  800000
 UP BND       PROD56  800000
 UP BND       PROD57  800000
 UP BND       PROD58  800000
 UP BND       PROD59  800000
 UP BND       PROD60  800000
 UP BND       PROD61  800000
 UP BND       PROD62  800000
 UP BND       PROD63  800000
 UP BND       PROD64  800000
 UP BND       PROD65  800000
 UP BND       PROD66  800000
 UP BND       PROD67  800000
 UP BND       PROD68  800000
 UP BND       PROD69  800000
 UP BND       PROD70  800000
 UP BND       PROD71  800000
 UP BND       PROD72  800000
 UP BND       PROD73  800000
 UP BND       PROD74  800000
 UP BND       PROD75  800000
 UP BND       PROD76  800000
 UP BND       PROD77  800000
 UP BND       PROD78  800000
 UP BND       PROD79  800000
 UP BND       PROD80  800000
ENDATA
