NAME          BLEND_S42
OBJSENSE
 MAX
ROWS
 N  COST
 G  YLD1
 G  YLD2
 G  YLD3
 G  YLD4
 G  YLD5
 G  YLD6
 G  YLD7
 G  YLD8
 G  YLD9
 G  YLD10
 G  YLD11
 G  YLD12
 G  YLD13
 G  YLD14
 G  YLD15
 G  YLD16
 G  YLD17
 G  YLD18
 G  YLD19
 G  YLD20
 G  YLD21
 G  YLD22
 G  YLD23
 G  YLD24
 G  YLD25
 G  YLD26
 G  YLD27
 G  YLD28
 G  YLD29
 G  YLD30
 L  CAP
 G  DEM1
 G  DEM2
 G  DEM3
 G  DEM4
 G  DEM5
 G  DEM6
 G  DEM7
 G  DEM8
 G  DEM9
 G  DEM10
 G  DEM11
 G  DEM12
 G  DEM13
 G  DEM14
 G  DEM15
 G  DEM16
 G  DEM17
 G  DEM18
 G  DEM19
 G  DEM20
 G  DEM21
 G  DEM22
 G  DEM23
 G  DEM24
 G  DEM25
 G  DEM26
 G  DEM27
 G  DEM28
 G  DEM29
 G  DEM30
 L  SULF
COLUMNS
    CRUDE1  COST  -69.8271  YLD1  0.403741
    CRUDE1  YLD2  0.344245  YLD3  0.317912
    CRUDE1  YLD4  0.213459  YLD5  0.442659
    CRUDE1  YLD6  0.301195  YLD7  0.517671
    CRUDE1  YLD8  0.330364  YLD9  0.424866
    CRUDE1  YLD10  0.434381  YLD11  0.322611
    CRUDE1  YLD12  0.216208  YLD13  0.258921
    CRUDE1  YLD14  0.408022  YLD15  0.150936
    CRUDE1  YLD16  0.224189  YLD17  0.335352
    CRUDE1  YLD18  0.280573  YLD19  0.439769
    CRUDE1  YLD20  0.278838  YLD21  0.355598
    CRUDE1  YLD22  0.365962  YLD23  0.265474
    CRUDE1  YLD24  0.185851  YLD25  0.156328
    CRUDE1  YLD26  0.19706  YLD27  0.304584
    CRUDE1  YLD28  0.306957  YLD29  0.195583
    CRUDE1  YLD30  0.227582  CAP  1
    CRUDE1  SULF  -0.416024
    CRUDE2  COST  -68.9845  YLD1  0.422282
    CRUDE2  YLD2  0.32937  YLD3  0.252483
    CRUDE2  YLD4  0.198066  YLD5  0.201076
    CRUDE2  YLD6  0.432034  YLD7  0.183099
    CRUDE2  YLD8  0.514189  YLD9  0.487776
    CRUDE2  YLD10  0.229803  YLD11  0.283126
    CRUDE2  YLD12  0.224528  YLD13  0.508972
    CRUDE2  YLD14  0.318682  YLD15  0.53708
    CRUDE2  YLD16  0.303586  YLD17  0.399175
    CRUDE2  YLD18  0.373938  YLD19  0.448335
    CRUDE2  YLD20  0.540987  YLD21  0.385223
    CRUDE2  YLD22  0.163675  YLD23  0.193644
    CRUDE2  YLD24  0.437054  YLD25  0.286436
    CRUDE2  YLD26  0.240943  YLD27  0.375776
    CRUDE2  YLD28  0.532489  YLD29  0.344406
    CRUDE2  YLD30  0.501927  CAP  1
    CRUDE2  SULF  0.948247
    CRUDE3  COST  -52.2916  YLD1  0.362374
    CRUDE3  YLD2  0.547783  YLD3  0.394605
    CRUDE3  YLD4  0.286752  YLD5  0.250007
    CRUDE3  YLD6  0.24949  YLD7  0.500665
    CRUDE3  YLD8  0.269184  YLD9  0.449846
    CRUDE3  YLD10  0.444499  YLD11  0.44222
    CRUDE3  YLD12  0.484996  YLD13  0.360631
    CRUDE3  YLD14  0.20291  YLD15  0.152102
    CRUDE3  YLD16  0.523036  YLD17  0.449149
    CRUDE3  YLD18  0.196338  YLD19  0.230144
    CRUDE3  YLD20  0.230344  YLD21  0.161758
    CRUDE3  YLD22  0.544677  YLD23  0.410205
    CRUDE3  YLD24  0.309962  YLD25  0.477483
    CRUDE3  YLD26  0.28667  YLD27  0.226713
    CRUDE3  YLD28  0.203258  YLD29  0.518119
    CRUDE3  YLD30  0.413024  CAP  1
    CRUDE3  SULF  -0.691442
    CRUDE4  COST  -52.9624  YLD1  0.329113
    CRUDE4  YLD2  0.22037  YLD3  0.182638
    CRUDE4  YLD4  0.18672  YLD5  0.382218
    CRUDE4  YLD6  0.282101  YLD7  0.370635
    CRUDE4  YLD8  0.359441  YLD9  0.162189
    CRUDE4  YLD10  0.361936  YLD11  0.427487
    CRUDE4  YLD12  0.282859  YLD13  0.4703
    CRUDE4  YLD14  0.510229  YLD15  0.191237
    CRUDE4  YLD16  0.178012  YLD17  0.163946
    CRUDE4  YLD18  0.300678  YLD19  0.497249
    CRUDE4  YLD20  0.427278  YLD21  0.308206
    CRUDE4  YLD22  0.199188  YLD23  0.456076
    CRUDE4  YLD24  0.54069  YLD25  0.391288
    CRUDE4  YLD26  0.302364  YLD27  0.234702
    CRUDE4  YLD28  0.19086  YLD29  0.358307
    CRUDE4  YLD30  0.274372  CAP  1
    CRUDE4  SULF  0.0798794
    CRUDE5  COST  -37.1433  YLD1  0.371157
    CRUDE5  YLD2  0.15723  YLD3  0.152074
    CRUDE5  YLD4  0.187663  YLD5  0.496847
    CRUDE5  YLD6  0.323781  YLD7  0.215934
    CRUDE5  YLD8  0.429057  YLD9  0.496886
    CRUDE5  YLD10  0.432892  YLD11  0.216692
    CRUDE5  YLD12  0.274578  YLD13  0.541573
    CRUDE5  YLD14  0.426489  YLD15  0.275839
    CRUDE5  YLD16  0.153794  YLD17  0.507969
    CRUDE5  YLD18  0.153629  YLD19  0.43597
    CRUDE5  YLD20  0.478576  YLD21  0.392475
    CRUDE5  YLD22  0.242452  YLD23  0.52027
    CRUDE5  YLD24  0.47927  YLD25  0.284891
    CRUDE5  YLD26  0.288529  YLD27  0.343841
    CRUDE5  YLD28  0.413477  YLD29  0.3966
    CRUDE5  YLD30  0.446939  CAP  1
    CRUDE5  SULF  1.12657
    CRUDE6  COST  -32.8206  YLD1  0.387079
    CRUDE6  YLD2  0.347557  YLD3  0.401158
    CRUDE6  YLD4  0.274565  YLD5  0.374747
    CRUDE6  YLD6  0.251473  YLD7  0.314502
    CRUDE6  YLD8  0.468589  YLD9  0.291659
    CRUDE6  YLD10  0.457112  YLD11  0.501452
    CRUDE6  YLD12  0.240958  YLD13  0.485916
    CRUDE6  YLD14  0.423274  YLD15  0.472972
    CRUDE6  YLD16  0.171074  YLD17  0.494051
    CRUDE6  YLD18  0.477472  YLD19  0.3751
    CRUDE6  YLD20  0.166473  YLD21  0.389089
    CRUDE6  YLD22  0.170679  YLD23  0.325269
    CRUDE6  YLD24  0.358992  YLD25  0.51221
    CRUDE6  YLD26  0.245622  YLD27  0.451701
    CRUDE6  YLD28  0.527132  YLD29  0.212655
    CRUDE6  YLD30  0.476047  CAP  1
    CRUDE6  SULF  1.36124
    CRUDE7  COST  -76.9276  YLD1  0.182341
    CRUDE7  YLD2  0.221529  YLD3  0.22771
    CRUDE7  YLD4  0.541804  YLD5  0.245439
    CRUDE7  YLD6  0.312081  YLD7  0.461041
    CRUDE7  YLD8  0.333739  YLD9  0.308866
    CRUDE7  YLD10  0.184916  YLD11  0.348169
    CRUDE7  YLD12  0.393158  YLD13  0.496798
    CRUDE7  YLD14  0.479034  YLD15  0.53484
    CRUDE7  YLD16  0.185417  YLD17  0.332973
    CRUDE7  YLD18  0.201379  YLD19  0.338613
    CRUDE7  YLD20  0.418154  YLD21  0.467182
    CRUDE7  YLD22  0.406001  YLD23  0.51055
    CRUDE7  YLD24  0.199289  YLD25  0.459049
    CRUDE7  YLD26  0.35389  YLD27  0.397799
    CRUDE7  YLD28  0.473553  YLD29  0.167494
    CRUDE7  YLD30  0.395991  CAP  1
    CRUDE7  SULF  -1.01879
    CRUDE8  COST  -79.6106  YLD1  0.297862
    CRUDE8  YLD2  0.296588  YLD3  0.178376
    CRUDE8  YLD4  0.220132  YLD5  0.421938
    CRUDE8  YLD6  0.378589  YLD7  0.342148
    CRUDE8  YLD8  0.486837  YLD9  0.191948
    CRUDE8  YLD10  0.352442  YLD11  0.446584
    CRUDE8  YLD12  0.301722  YLD13  0.313194
    CRUDE8  YLD14  0.361865  YLD15  0.466005
    CRUDE8  YLD16  0.165039  YLD17  0.306468
    CRUDE8  YLD18  0.263337  YLD19  0.367293
    CRUDE8  YLD20  0.53062  YLD21  0.412004
    CRUDE8  YLD22  0.23988  YLD23  0.501156
    CRUDE8  YLD24  0.493766  YLD25  0.255958
    CRUDE8  YLD26  0.480114  YLD27  0.268942
    CRUDE8  YLD28  0.180567  YLD29  0.194323
    CRUDE8  YLD30  0.425154  CAP  1
    CRUDE8  SULF  1.01633
    CRUDE9  COST  -60.5827  YLD1  0.246864
    CRUDE9  YLD2  0.447668  YLD3  0.308714
    CRUDE9  YLD4  0.156864  YLD5  0.445964
    CRUDE9  YLD6  0.44639  YLD7  0.544114
    CRUDE9  YLD8  0.457567  YLD9  0.444962
    CRUDE9  YLD10  0.522806  YLD11  0.37926
    CRUDE9  YLD12  0.4477  YLD13  0.370689
    CRUDE9  YLD14  0.476022  YLD15  0.426224
    CRUDE9  YLD16  0.341913  YLD17  0.259184
    CRUDE9  YLD18  0.157371  YLD19  0.213698
    CRUDE9  YLD20  0.199688  YLD21  0.546853
    CRUDE9  YLD22  0.222004  YLD23  0.276878
    CRUDE9  YLD24  0.469912  YLD25  0.408116
    CRUDE9  YLD26  0.261881  YLD27  0.322135
    CRUDE9  YLD28  0.261747  YLD29  0.389413
    CRUDE9  YLD30  0.300104  CAP  1
    CRUDE9  SULF  -0.99804
    CRUDE10  COST  -31.1531  YLD1  0.471256
    CRUDE10  YLD2  0.438376  YLD3  0.170307
    CRUDE10  YLD4  0.455346  YLD5  0.245294
    CRUDE10  YLD6  0.456878  YLD7  0.300696
    CRUDE10  YLD8  0.176494  YLD9  0.222914
    CRUDE10  YLD10  0.278257  YLD11  0.549077
    CRUDE10  YLD12  0.232232  YLD13  0.251555
    CRUDE10  YLD14  0.349236  YLD15  0.35852
    CRUDE10  YLD16  0.382303  YLD17  0.340671
    CRUDE10  YLD18  0.322896  YLD19  0.23148
    CRUDE10  YLD20  0.508489  YLD21  0.263542
    CRUDE10  YLD22  0.185422  YLD23  0.49756
    CRUDE10  YLD24  0.223834  YLD25  0.3883
    CRUDE10  YLD26  0.526955  YLD27  0.218266
    CRUDE10  YLD28  0.522128  YLD29  0.188005
    CRUDE10  YLD30  0.365478  CAP  1
    CRUDE10  SULF  0.710397
    CRUDE11  COST  -49.993  YLD1  0.33812
    CRUDE11  YLD2  0.273224  YLD3  0.504647
    CRUDE11  YLD4  0.472765  YLD5  0.301092
    CRUDE11  YLD6  0.479116  YLD7  0.449831
    CRUDE11  YLD8  0.168345  YLD9  0.375586
    CRUDE11  YLD10  0.387553  YLD11  0.450961
    CRUDE11  YLD12  0.465116  YLD13  0.228445
    CRUDE11  YLD14  0.17687  YLD15  0.184682
    CRUDE11  YLD16  0.258675  YLD17  0.167751
    CRUDE11  YLD18  0.486049  YLD19  0.186466
    CRUDE11  YLD20  0.387911  YLD21  0.29366
    CRUDE11  YLD22  0.191324  YLD23  0.300269
    CRUDE11  YLD24  0.268111  YLD25  0.310475
    CRUDE11  YLD26  0.499335  YLD27  0.179852
    CRUDE11  YLD28  0.251223  YLD29  0.300397
    CRUDE11  YLD30  0.359664  CAP  1
    CRUDE11  SULF  -0.867362
    CRUDE12  COST  -78.6878  YLD1  0.543369
    CRUDE12  YLD2  0.367016  YLD3  0.161047
    CRUDE12  YLD4  0.288522  YLD5  0.363731
    CRUDE12  YLD6  0.447685  YLD7  0.307196
    CRUDE12  YLD8  0.398322  YLD9  0.486284
    CRUDE12  YLD10  0.297692  YLD11  0.432792
    CRUDE12  YLD12  0.391489  YLD13  0.352203
    CRUDE12  YLD14  0.312099  YLD15  0.533268
    CRUDE12  YLD16  0.309315  YLD17  0.490877
    CRUDE12  YLD18  0.30686  YLD19  0.211463
    CRUDE12  YLD20  0.396642  YLD21  0.303539
    CRUDE12  YLD22  0.383868  YLD23  0.268748
    CRUDE12  YLD24  0.467363  YLD25  0.296782
    CRUDE12  YLD26  0.214706  YLD27  0.463078
    CRUDE12  YLD28  0.462468  YLD29  0.370037
    CRUDE12  YLD30  0.489219  CAP  1
    CRUDE12  SULF  -0.253214
    CRUDE13  COST  -34.5303  YLD1  0.30953
    CRUDE13  YLD2  0.353526  YLD3  0.381546
    CRUDE13  YLD4  0.33587  YLD5  0.348624
    CRUDE13  YLD6  0.422416  YLD7  0.481666
    CRUDE13  YLD8  0.288965  YLD9  0.185682
    CRUDE13  YLD10  0.331707  YLD11  0.461429
    CRUDE13  YLD12  0.195707  YLD13  0.38802
    CRUDE13  YLD14  0.348986  YLD15  0.453357
    CRUDE13  YLD16  0.18668  YLD17  0.164169
    CRUDE13  YLD18  0.221799  YLD19  0.331477
    CRUDE13  YLD20  0.395178  YLD21  0.336325
    CRUDE13  YLD22  0.425283  YLD23  0.40963
    CRUDE13  YLD24  0.224091  YLD25  0.287424
    CRUDE13  YLD26  0.46451  YLD27  0.256155
    CRUDE13  YLD28  0.480053  YLD29  0.305461
    CRUDE13  YLD30  0.485986  CAP  1
    CRUDE13  SULF  1.01931
    CRUDE14  COST  -49.1231  YLD1  0.476573
    CRUDE14  YLD2  0.404533  YLD3  0.32539
    CRUDE14  YLD4  0.409909  YLD5  0.305847
    CRUDE14  YLD6  0.245003  YLD7  0.377633
    CRUDE14  YLD8  0.233652  YLD9  0.364134
    CRUDE14  YLD10  0.369441  YLD11  0.207251
    CRUDE14  YLD12  0.315802  YLD13  0.285708
    CRUDE14  YLD14  0.438081  YLD15  0.40558
    CRUDE14  YLD16  0.284548  YLD17  0.281621
    CRUDE14  YLD18  0.45148  YLD19  0.362142
    CRUDE14  YLD20  0.269534  YLD21  0.484399
    CRUDE14  YLD22  0.308952  YLD23  0.281352
    CRUDE14  YLD24  0.517101  YLD25  0.396862
    CRUDE14  YLD26  0.379835  YLD27  0.221107
    CRUDE14  YLD28  0.348181  YLD29  0.215474
    CRUDE14  YLD30  0.483072  CAP  1
    CRUDE14  SULF  2.2233
    CRUDE15  COST  -53.3381  YLD1  0.469338
    CRUDE15  YLD2  0.250185  YLD3  0.41881
    CRUDE15  YLD4  0.169224  YLD5  0.269054
    CRUDE15  YLD6  0.310089  YLD7  0.175405
    CRUDE15  YLD8  0.38186  YLD9  0.243287
    CRUDE15  YLD10  0.369569  YLD11  0.231818
    CRUDE15  YLD12  0.495407  YLD13  0.377777
    CRUDE15  YLD14  0.192631  YLD15  0.453614
    CRUDE15  YLD16  0.359008  YLD17  0.522636
    CRUDE15  YLD18  0.465523  YLD19  0.157145
    CRUDE15  YLD20  0.524081  YLD21  0.244317
    CRUDE15  YLD22  0.341959  YLD23  0.402083
    CRUDE15  YLD24  0.319811  YLD25  0.326964
    CRUDE15  YLD26  0.37663  YLD27  0.426647
    CRUDE15  YLD28  0.30454  YLD29  0.259517
    CRUDE15  YLD30  0.154413  CAP  1
    CRUDE15  SULF  1.81644
    CRUDE16  COST  -64.0154  YLD1  0.210287
    CRUDE16  YLD2  0.385948  YLD3  0.281261
    CRUDE16  YLD4  0.529658  YLD5  0.189994
    CRUDE16  YLD6  0.341086  YLD7  0.164729
    CRUDE16  YLD8  0.286625  YLD9  0.287171
    CRUDE16  YLD10  0.230692  YLD11  0.435626
    CRUDE16  YLD12  0.519184  YLD13  0.504984
    CRUDE16  YLD14  0.206007  YLD15  0.439641
    CRUDE16  YLD16  0.442909  YLD17  0.444085
    CRUDE16  YLD18  0.219501  YLD19  0.468719
    CRUDE16  YLD20  0.52894  YLD21  0.4604
    CRUDE16  YLD22  0.424387  YLD23  0.393933
    CRUDE16  YLD24  0.184816  YLD25  0.482745
    CRUDE16  YLD26  0.306417  YLD27  0.397221
    CRUDE16  YLD28  0.33005  YLD29  0.521327
    CRUDE16  YLD30  0.449818  CAP  1
    CRUDE16  SULF  0.465289
    CRUDE17  COST  -30.6632  YLD1  0.35328
    CRUDE17  YLD2  0.541557  YLD3  0.212017
    CRUDE17  YLD4  0.504672  YLD5  0.171394
    CRUDE17  YLD6  0.183157  YLD7  0.203541
    CRUDE17  YLD8  0.364905  YLD9  0.339588
    CRUDE17  YLD10  0.423829  YLD11  0.347593
    CRUDE17  YLD12  0.33628  YLD13  0.372689
    CRUDE17  YLD14  0.255474  YLD15  0.404893
    CRUDE17  YLD16  0.151339  YLD17  0.262556
    CRUDE17  YLD18  0.458342  YLD19  0.267667
    CRUDE17  YLD20  0.400122  YLD21  0.312124
    CRUDE17  YLD22  0.156952  YLD23  0.375376
    CRUDE17  YLD24  0.476299  YLD25  0.417841
    CRUDE17  YLD26  0.350461  YLD27  0.403276
    CRUDE17  YLD28  0.240786  YLD29  0.420393
    CRUDE17  YLD30  0.453471  CAP  1
    CRUDE17  SULF  2.08791
    CRUDE18  COST  -58.1644  YLD1  0.428325
    CRUDE18  YLD2  0.344697  YLD3  0.542736
    CRUDE18  YLD4  0.254357  YLD5  0.533417
    CRUDE18  YLD6  0.361348  YLD7  0.155469
    CRUDE18  YLD8  0.334048  YLD9  0.292042
    CRUDE18  YLD10  0.185147  YLD11  0.451854
    CRUDE18  YLD12  0.342335  YLD13  0.438325
    CRUDE18  YLD14  0.256599  YLD15  0.542231
    CRUDE18  YLD16  0.336924  YLD17  0.25106
    CRUDE18  YLD18  0.528919  YLD19  0.514734
    CRUDE18  YLD20  0.463369  YLD21  0.390742
    CRUDE18  YLD22  0.279252  YLD23  0.302168
    CRUDE18  YLD24  0.299404  YLD25  0.177973
    CRUDE18  YLD26  0.308872  YLD27  0.241558
    CRUDE18  YLD28  0.505756  YLD29  0.348419
    CRUDE18  YLD30  0.421352  CAP  1
    CRUDE18  SULF  0.250515
    CRUDE19  COST  -30.7983  YLD1  0.493344
    CRUDE19  YLD2  0.51244  YLD3  0.485573
    CRUDE19  YLD4  0.156122  YLD5  0.488857
    CRUDE19  YLD6  0.324534  YLD7  0.180144
    CRUDE19  YLD8  0.383906  YLD9  0.409529
    CRUDE19  YLD10  0.20553  YLD11  0.191166
    CRUDE19  YLD12  0.517382  YLD13  0.472126
    CRUDE19  YLD14  0.442874  YLD15  0.511346
    CRUDE19  YLD16  0.268801  YLD17  0.152033
    CRUDE19  YLD18  0.216551  YLD19  0.537005
    CRUDE19  YLD20  0.394903  YLD21  0.403016
    CRUDE19  YLD22  0.539239  YLD23  0.3694
    CRUDE19  YLD24  0.3606  YLD25  0.406067
    CRUDE19  YLD26  0.365893  YLD27  0.243058
    CRUDE19  YLD28  0.330248  YLD29  0.155086
    CRUDE19  YLD30  0.452506  CAP  1
    CRUDE19  SULF  -0.259409
    CRUDE20  COST  -42.0513  YLD1  0.280384
    CRUDE20  YLD2  0.323758  YLD3  0.494162
    CRUDE20  YLD4  0.523375  YLD5  0.291962
    CRUDE20  YLD6  0.470844  YLD7  0.426686
    CRUDE20  YLD8  0.31012  YLD9  0.341833
    CRUDE20  YLD10  0.151084  YLD11  0.364593
    CRUDE20  YLD12  0.384827  YLD13  0.545492
    CRUDE20  YLD14  0.250292  YLD15  0.408666
    CRUDE20  YLD16  0.491129  YLD17  0.428286
    CRUDE20  YLD18  0.458394  YLD19  0.224184
    CRUDE20  YLD20  0.343759  YLD21  0.299139
    CRUDE20  YLD22  0.382045  YLD23  0.388594
    CRUDE20  YLD24  0.194922  YLD25  0.258459
    CRUDE20  YLD26  0.40118  YLD27  0.238321
    CRUDE20  YLD28  0.502984  YLD29  0.546966
    CRUDE20  YLD30  0.486788  CAP  1
    CRUDE20  SULF  1.23341
    CRUDE21  COST  -60.4998  YLD1  0.238096
    CRUDE21  YLD2  0.290031  YLD3  0.250101
    CRUDE21  YLD4  0.350416  YLD5  0.53272
    CRUDE21  YLD6  0.54116  YLD7  0.363739
    CRUDE21  YLD8  0.429067  YLD9  0.38368
    CRUDE21  YLD10  0.196678  YLD11  0.301529
    CRUDE21  YLD12  0.163139  YLD13  0.391279
    CRUDE21  YLD14  0.403239  YLD15  0.42727
    CRUDE21  YLD16  0.436221  YLD17  0.169513
    CRUDE21  YLD18  0.433429  YLD19  0.334839
    CRUDE21  YLD20  0.414328  YLD21  0.355046
    CRUDE21  YLD22  0.25169  YLD23  0.368275
    CRUDE21  YLD24  0.151034  YLD25  0.387125
    CRUDE21  YLD26  0.419722  YLD27  0.219501
    CRUDE21  YLD28  0.192277  YLD29  0.418582
    CRUDE21  YLD30  0.338128  CAP  1
    CRUDE21  SULF  1.72818
    CRUDE22  COST  -38.6682  YLD1  0.43446
    CRUDE22  YLD2  0.408041  YLD3  0.165534
    CRUDE22  YLD4  0.365751  YLD5  0.420708
    CRUDE22  YLD6  0.372402  YLD7  0.449964
    CRUDE22  YLD8  0.222027  YLD9  0.444729
    CRUDE22  YLD10  0.339266  YLD11  0.3328
    CRUDE22  YLD12  0.5151  YLD13  0.47274
    CRUDE22  YLD14  0.34771  YLD15  0.170638
    CRUDE22  YLD16  0.385643  YLD17  0.363041
    CRUDE22  YLD18  0.33943  YLD19  0.150493
    CRUDE22  YLD20  0.371201  YLD21  0.315212
    CRUDE22  YLD22  0.358692  YLD23  0.327768
    CRUDE22  YLD24  0.405194  YLD25  0.422053
    CRUDE22  YLD26  0.362992  YLD27  0.412289
    CRUDE22  YLD28  0.54531  YLD29  0.276769
    CRUDE22  YLD30  0.35082  CAP  1
    CRUDE22  SULF  0.269141
    CRUDE23  COST  -39.1118  YLD1  0.4738
    CRUDE23  YLD2  0.41757  YLD3  0.271306
    CRUDE23  YLD4  0.423586  YLD5  0.343008
    CRUDE23  YLD6  0.279075  YLD7  0.515266
    CRUDE23  YLD8  0.428601  YLD9  0.373097
    CRUDE23  YLD10  0.392441  YLD11  0.391583
    CRUDE23  YLD12  0.249291  YLD13  0.53506
    CRUDE23  YLD14  0.379318  YLD15  0.417967
    CRUDE23  YLD16  0.260906  YLD17  0.534849
    CRUDE23  YLD18  0.173168  YLD19  0.389331
    CRUDE23  YLD20  0.38899  YLD21  0.177653
    CRUDE23  YLD22  0.287061  YLD23  0.155867
    CRUDE23  YLD24  0.35607  YLD25  0.242332
    CRUDE23  YLD26  0.438569  YLD27  0.489206
    CRUDE23  YLD28  0.327309  YLD29  0.501707
    CRUDE23  YLD30  0.199886  CAP  1
    CRUDE23  SULF  1.47133
    CRUDE24  COST  -51.2578  YLD1  0.289466
    CRUDE24  YLD2  0.495667  YLD3  0.364833
    CRUDE24  YLD4  0.39634  YLD5  0.34721
    CRUDE24  YLD6  0.16736  YLD7  0.38406
    CRUDE24  YLD8  0.314664  YLD9  0.384614
    CRUDE24  YLD10  0.467716  YLD11  0.350915
    CRUDE24  YLD12  0.381053  YLD13  0.527764
    CRUDE24  YLD14  0.485243  YLD15  0.167666
    CRUDE24  YLD16  0.514136  YLD17  0.193788
    CRUDE24  YLD18  0.179878  YLD19  0.392923
    CRUDE24  YLD20  0.463533  YLD21  0.324866
    CRUDE24  YLD22  0.362898  YLD23  0.384825
    CRUDE24  YLD24  0.387415  YLD25  0.332743
    CRUDE24  YLD26  0.206511  YLD27  0.439727
    CRUDE24  YLD28  0.169132  YLD29  0.253373
    CRUDE24  YLD30  0.30415  CAP  1
    CRUDE24  SULF  -0.335152
    CRUDE25  COST  -58.385  YLD1  0.188471
    CRUDE25  YLD2  0.242074  YLD3  0.28066
    CRUDE25  YLD4  0.527557  YLD5  0.183314
    CRUDE25  YLD6  0.519857  YLD7  0.440448
    CRUDE25  YLD8  0.499727  YLD9  0.375783
    CRUDE25  YLD10  0.19268  YLD11  0.365944
    CRUDE25  YLD12  0.216205  YLD13  0.206433
    CRUDE25  YLD14  0.311753  YLD15  0.385306
    CRUDE25  YLD16  0.16804  YLD17  0.507792
    CRUDE25  YLD18  0.490966  YLD19  0.249016
    CRUDE25  YLD20  0.342362  YLD21  0.188957
    CRUDE25  YLD22  0.200297  YLD23  0.217378
    CRUDE25  YLD24  0.467498  YLD25  0.22613
    CRUDE25  YLD26  0.234793  YLD27  0.466837
    CRUDE25  YLD28  0.165209  YLD29  0.367607
    CRUDE25  YLD30  0.407346  CAP  1
    CRUDE25  SULF  -0.918025
    CRUDE26  COST  -72.1142  YLD1  0.526209
    CRUDE26  YLD2  0.349677  YLD3  0.481148
    CRUDE26  YLD4  0.527701  YLD5  0.186682
    CRUDE26  YLD6  0.517646  YLD7  0.452832
    CRUDE26  YLD8  0.356094  YLD9  0.301509
    CRUDE26  YLD10  0.490291  YLD11  0.344543
    CRUDE26  YLD12  0.163552  YLD13  0.312557
    CRUDE26  YLD14  0.458365  YLD15  0.549741
    CRUDE26  YLD16  0.193787  YLD17  0.54659
    CRUDE26  YLD18  0.546059  YLD19  0.373365
    CRUDE26  YLD20  0.166302  YLD21  0.312008
    CRUDE26  YLD22  0.203086  YLD23  0.40703
    CRUDE26  YLD24  0.408642  YLD25  0.170936
    CRUDE26  YLD26  0.477494  YLD27  0.311919
    CRUDE26  YLD28  0.448483  YLD29  0.404428
    CRUDE26  YLD30  0.46216  CAP  1
    CRUDE26  SULF  0.46283
    CRUDE27  COST  -49.7575  YLD1  0.309029
    CRUDE27  YLD2  0.378802  YLD3  0.258617
    CRUDE27  YLD4  0.49688  YLD5  0.390976
    CRUDE27  YLD6  0.251196  YLD7  0.30114
    CRUDE27  YLD8  0.539244  YLD9  0.284979
    CRUDE27  YLD10  0.44839  YLD11  0.313582
    CRUDE27  YLD12  0.274589  YLD13  0.279596
    CRUDE27  YLD14  0.318814  YLD15  0.372323
    CRUDE27  YLD16  0.306652  YLD17  0.174607
    CRUDE27  YLD18  0.420421  YLD19  0.240216
    CRUDE27  YLD20  0.2156  YLD21  0.387167
    CRUDE27  YLD22  0.207417  YLD23  0.453738
    CRUDE27  YLD24  0.219909  YLD25  0.301391
    CRUDE27  YLD26  0.279011  YLD27  0.41163
    CRUDE27  YLD28  0.413614  YLD29  0.238425
    CRUDE27  YLD30  0.236884  CAP  1
    CRUDE27  SULF  2.03662
    CRUDE28  COST  -66.3636  YLD1  0.357101
    CRUDE28  YLD2  0.457422  YLD3  0.536101
    CRUDE28  YLD4  0.404561  YLD5  0.371481
    CRUDE28  YLD6  0.428164  YLD7  0.246434
    CRUDE28  YLD8  0.390774  YLD9  0.509859
    CRUDE28  YLD10  0.313407  YLD11  0.458753
    CRUDE28  YLD12  0.462198  YLD13  0.18477
    CRUDE28  YLD14  0.291549  YLD15  0.339284
    CRUDE28  YLD16  0.199775  YLD17  0.503163
    CRUDE28  YLD18  0.328383  YLD19  0.21433
    CRUDE28  YLD20  0.325443  YLD21  0.381766
    CRUDE28  YLD22  0.525928  YLD23  0.350178
    CRUDE28  YLD24  0.294309  YLD25  0.295178
    CRUDE28  YLD26  0.159158  YLD27  0.291694
    CRUDE28  YLD28  0.470852  YLD29  0.541359
    CRUDE28  YLD30  0.205129  CAP  1
    CRUDE28  SULF  0.0562255
    CRUDE29  COST  -58.5222  YLD1  0.485084
    CRUDE29  YLD2  0.167442  YLD3  0.332906
    CRUDE29  YLD4  0.47038  YLD5  0.235091
    CRUDE29  YLD6  0.180174  YLD7  0.232018
    CRUDE29  YLD8  0.23954  YLD9  0.393022
    CRUDE29  YLD10  0.523175  YLD11  0.154881
    CRUDE29  YLD12  0.261035  YLD13  0.403296
    CRUDE29  YLD14  0.533451  YLD15  0.275142
    CRUDE29  YLD16  0.532566  YLD17  0.356432
    CRUDE29  YLD18  0.409029  YLD19  0.410608
    CRUDE29  YLD20  0.439931  YLD21  0.415049
    CRUDE29  YLD22  0.44316  YLD23  0.366945
    CRUDE29  YLD24  0.512356  YLD25  0.548192
    CRUDE29  YLD26  0.211516  YLD27  0.360202
    CRUDE29  YLD28  0.192147  YLD29  0.449277
    CRUDE29  YLD30  0.415217  CAP  1
    CRUDE29  SULF  0.697394
    CRUDE30  COST  -78.0586  YLD1  0.420276
    CRUDE30  YLD2  0.54782  YLD3  0.486809
    CRUDE30  YLD4  0.420867  YLD5  0.528478
    CRUDE30  YLD6  0.216486  YLD7  0.250577
    CRUDE30  YLD8  0.478716  YLD9  0.247741
    CRUDE30  YLD10  0.546372  YLD11  0.389377
    CRUDE30  YLD12  0.238039  YLD13  0.444362
    CRUDE30  YLD14  0.223748  YLD15  0.198209
    CRUDE30  YLD16  0.469196  YLD17  0.512605
    CRUDE30  YLD18  0.387758  YLD19  0.28037
    CRUDE30  YLD20  0.387311  YLD21  0.188105
    CRUDE30  YLD22  0.214953  YLD23  0.530591
    CRUDE30  YLD24  0.457978  YLD25  0.328541
    CRUDE30  YLD26  0.239446  YLD27  0.342654
    CRUDE30  YLD28  0.164228  YLD29  0.373125
    CRUDE30  YLD30  0.150752  CAP  1
    CRUDE30  SULF  1.7656
    CRUDE31  COST  -67.366  YLD1  0.444086
    CRUDE31  YLD2  0.337978  YLD3  0.227752
    CRUDE31  YLD4  0.379347  YLD5  0.462518
    CRUDE31  YLD6  0.236724  YLD7  0.259893
    CRUDE31  YLD8  0.288033  YLD9  0.349299
    CRUDE31  YLD10  0.232001  YLD11  0.376203
    CRUDE31  YLD12  0.235072  YLD13  0.489251
    CRUDE31  YLD14  0.186135  YLD15  0.442409
    CRUDE31  YLD16  0.253593  YLD17  0.378528
    CRUDE31  YLD18  0.303445  YLD19  0.386106
    CRUDE31  YLD20  0.410118  YLD21  0.410849
    CRUDE31  YLD22  0.22534  YLD23  0.488867
    CRUDE31  YLD24  0.372655  YLD25  0.283428
    CRUDE31  YLD26  0.532929  YLD27  0.220755
    CRUDE31  YLD28  0.353432  YLD29  0.222238
    CRUDE31  YLD30  0.221349  CAP  1
    CRUDE31  SULF  0.759625
    CRUDE32  COST  -59.3376  YLD1  0.233629
    CRUDE32  YLD2  0.261824  YLD3  0.314542
    CRUDE32  YLD4  0.2014  YLD5  0.195386
    CRUDE32  YLD6  0.267798  YLD7  0.232891
    CRUDE32  YLD8  0.289048  YLD9  0.282139
    CRUDE32  YLD10  0.301691  YLD11  0.436472
    CRUDE32  YLD12  0.356069  YLD13  0.199111
    CRUDE32  YLD14  0.458394  YLD15  0.22704
    CRUDE32  YLD16  0.385422  YLD17  0.414845
    CRUDE32  YLD18  0.17625  YLD19  0.323299
    CRUDE32  YLD20  0.341712  YLD21  0.274859
    CRUDE32  YLD22  0.442332  YLD23  0.515695
    CRUDE32  YLD24  0.252258  YLD25  0.38219
    CRUDE32  YLD26  0.379217  YLD27  0.304832
    CRUDE32  YLD28  0.305038  YLD29  0.171543
    CRUDE32  YLD30  0.161629  CAP  1
    CRUDE32  SULF  2.16398
    CRUDE33  COST  -60.3517  YLD1  0.366579
    CRUDE33  YLD2  0.503398  YLD3  0.429805
    CRUDE33  YLD4  0.474482  YLD5  0.522372
    CRUDE33  YLD6  0.548333  YLD7  0.501288
    CRUDE33  YLD8  0.162722  YLD9  0.523477
    CRUDE33  YLD10  0.52058  YLD11  0.389612
    CRUDE33  YLD12  0.540217  YLD13  0.500578
    CRUDE33  YLD14  0.1773  YLD15  0.196113
    CRUDE33  YLD16  0.542932  YLD17  0.367512
    CRUDE33  YLD18  0.478605  YLD19  0.543741
    CRUDE33  YLD20  0.396297  YLD21  0.309618
    CRUDE33  YLD22  0.212466  YLD23  0.475507
    CRUDE33  YLD24  0.270824  YLD25  0.185507
    CRUDE33  YLD26  0.523092  YLD27  0.535529
    CRUDE33  YLD28  0.334779  YLD29  0.278024
    CRUDE33  YLD30  0.216754  CAP  1
    CRUDE33  SULF  -0.110562
    CRUDE34  COST  -44.8137  YLD1  0.428314
    CRUDE34  YLD2  0.449088  YLD3  0.205341
    CRUDE34  YLD4  0.478256  YLD5  0.539699
    CRUDE34  YLD6  0.42877  YLD7  0.4528
    CRUDE34  YLD8  0.369486  YLD9  0.153014
    CRUDE34  YLD10  0.438639  YLD11  0.48072
    CRUDE34  YLD12  0.333596  YLD13  0.40717
    CRUDE34  YLD14  0.484832  YLD15  0.318705
    CRUDE34  YLD16  0.50368  YLD17  0.495797
    CRUDE34  YLD18  0.298733  YLD19  0.209832
    CRUDE34  YLD20  0.281607  YLD21  0.493194
    CRUDE34  YLD22  0.243825  YLD23  0.193567
    CRUDE34  YLD24  0.442783  YLD25  0.534666
    CRUDE34  YLD26  0.380065  YLD27  0.249432
    CRUDE34  YLD28  0.546635  YLD29  0.451275
    CRUDE34  YLD30  0.222528  CAP  1
    CRUDE34  SULF  -0.475978
    CRUDE35  COST  -30.7818  YLD1  0.24142
    CRUDE35  YLD2  0.531229  YLD3  0.203098
    CRUDE35  YLD4  0.400376  YLD5  0.548372
    CRUDE35  YLD6  0.303681  YLD7  0.168759
    CRUDE35  YLD8  0.363769  YLD9  0.240133
    CRUDE35  YLD10  0.169238  YLD11  0.53363
    CRUDE35  YLD12  0.372922  YLD13  0.431578
    CRUDE35  YLD14  0.324877  YLD15  0.468137
    CRUDE35  YLD16  0.390319  YLD17  0.443564
    CRUDE35  YLD18  0.477514  YLD19  0.335839
    CRUDE35  YLD20  0.338073  YLD21  0.153612
    CRUDE35  YLD22  0.535339  YLD23  0.209597
    CRUDE35  YLD24  0.49047  YLD25  0.403984
    CRUDE35  YLD26  0.341742  YLD27  0.203521
    CRUDE35  YLD28  0.5383  YLD29  0.257733
    CRUDE35  YLD30  0.305069  CAP  1
    CRUDE35  SULF  0.375866
    CRUDE36  COST  -49.7441  YLD1  0.219982
    CRUDE36  YLD2  0.2823  YLD3  0.537815
    CRUDE36  YLD4  0.478171  YLD5  0.172348
    CRUDE36  YLD6  0.44484  YLD7  0.257469
    CRUDE36  YLD8  0.292397  YLD9  0.296143
    CRUDE36  YLD10  0.462606  YLD11  0.28701
    CRUDE36  YLD12  0.494253  YLD13  0.51425
    CRUDE36  YLD14  0.516205  YLD15  0.448026
    CRUDE36  YLD16  0.51149  YLD17  0.358504
    CRUDE36  YLD18  0.251003  YLD19  0.422183
    CRUDE36  YLD20  0.447712  YLD21  0.385365
    CRUDE36  YLD22  0.252123  YLD23  0.36065
    CRUDE36  YLD24  0.41857  YLD25  0.451935
    CRUDE36  YLD26  0.275491  YLD27  0.317432
    CRUDE36  YLD28  0.526926  YLD29  0.365822
    CRUDE36  YLD30  0.310931  CAP  1
    CRUDE36  SULF  -0.052848
    CRUDE37  COST  -30.704  YLD1  0.542867
    CRUDE37  YLD2  0.371106  YLD3  0.435838
    CRUDE37  YLD4  0.410594  YLD5  0.444814
    CRUDE37  YLD6  0.516102  YLD7  0.158874
    CRUDE37  YLD8  0.507687  YLD9  0.345124
    CRUDE37  YLD10  0.481176  YLD11  0.24094
    CRUDE37  YLD12  0.364028  YLD13  0.399905
    CRUDE37  YLD14  0.438613  YLD15  0.171953
    CRUDE37  YLD16  0.545674  YLD17  0.497264
    CRUDE37  YLD18  0.150412  YLD19  0.308218
    CRUDE37  YLD20  0.498733  YLD21  0.389486
    CRUDE37  YLD22  0.414653  YLD23  0.248428
    CRUDE37  YLD24  0.473812  YLD25  0.218191
    CRUDE37  YLD26  0.392548  YLD27  0.466135
    CRUDE37  YLD28  0.463537  YLD29  0.441179
    CRUDE37  YLD30  0.499705  CAP  1
    CRUDE37  SULF  -0.365179
    CRUDE38  COST  -65.5671  YLD1  0.356654
    CRUDE38  YLD2  0.378917  YLD3  0.166427
    CRUDE38  YLD4  0.232674  YLD5  0.368366
    CRUDE38  YLD6  0.533481  YLD7  0.349266
    CRUDE38  YLD8  0.201499  YLD9  0.490327
    CRUDE38  YLD10  0.450201  YLD11  0.319439
    CRUDE38  YLD12  0.223785  YLD13  0.284346
    CRUDE38  YLD14  0.394162  YLD15  0.332057
    CRUDE38  YLD16  0.447341  YLD17  0.248114
    CRUDE38  YLD18  0.213575  YLD19  0.53988
    CRUDE38  YLD20  0.323462  YLD21  0.308664
    CRUDE38  YLD22  0.541453  YLD23  0.340678
    CRUDE38  YLD24  0.456662  YLD25  0.313791
    CRUDE38  YLD26  0.205679  YLD27  0.382859
    CRUDE38  YLD28  0.291937  YLD29  0.193177
    CRUDE38  YLD30  0.354044  CAP  1
    CRUDE38  SULF  1.58622
    CRUDE39  COST  -60.298  YLD1  0.254332
    CRUDE39  YLD2  0.542133  YLD3  0.309528
    CRUDE39  YLD4  0.259584  YLD5  0.432333
    CRUDE39  YLD6  0.173146  YLD7  0.340484
    CRUDE39  YLD8  0.28204  YLD9  0.185155
    CRUDE39  YLD10  0.469815  YLD11  0.265172
    CRUDE39  YLD12  0.269838  YLD13  0.480043
    CRUDE39  YLD14  0.529723  YLD15  0.358974
    CRUDE39  YLD16  0.175995  YLD17  0.212936
    CRUDE39  YLD18  0.337416  YLD19  0.438755
    CRUDE39  YLD20  0.167465  YLD21  0.244811
    CRUDE39  YLD22  0.299719  YLD23  0.307746
    CRUDE39  YLD24  0.209882  YLD25  0.319076
    CRUDE39  YLD26  0.509305  YLD27  0.42239
    CRUDE39  YLD28  0.314852  YLD29  0.424119
    CRUDE39  YLD30  0.439362  CAP  1
    CRUDE39  SULF  2.03543
    CRUDE40  COST  -62.5539  YLD1  0.548501
    CRUDE40  YLD2  0.180139  YLD3  0.323408
    CRUDE40  YLD4  0.235836  YLD5  0.537461
    CRUDE40  YLD6  0.307809  YLD7  0.482549
    CRUDE40  YLD8  0.278633  YLD9  0.472346
    CRUDE40  YLD10  0.480053  YLD11  0.39598
    CRUDE40  YLD12  0.273975  YLD13  0.295224
    CRUDE40  YLD14  0.30866  YLD15  0.407819
    CRUDE40  YLD16  0.310632  YLD17  0.21416
    CRUDE40  YLD18  0.527721  YLD19  0.412794
    CRUDE40  YLD20  0.214669  YLD21  0.24387
    CRUDE40  YLD22  0.157006  YLD23  0.369766
    CRUDE40  YLD24  0.319578  YLD25  0.478723
    CRUDE40  YLD26  0.481733  YLD27  0.225878
    CRUDE40  YLD28  0.369846  YLD29  0.186748
    CRUDE40  YLD30  0.191655  CAP  1
    CRUDE40  SULF  1.99801
    CRUDE41  COST  -72.5019  YLD1  0.536168
    CRUDE41  YLD2  0.272279  YLD3  0.447617
    CRUDE41  YLD4  0.300904  YLD5  0.425212
    CRUDE41  YLD6  0.192702  YLD7  0.273111
    CRUDE41  YLD8  0.186916  YLD9  0.172261
    CRUDE41  YLD10  0.224562  YLD11  0.514741
    CRUDE41  YLD12  0.308927  YLD13  0.163691
    CRUDE41  YLD14  0.531635  YLD15  0.410067
    CRUDE41  YLD16  0.48513  YLD17  0.283604
    CRUDE41  YLD18  0.190877  YLD19  0.452824
    CRUDE41  YLD20  0.158344  YLD21  0.503484
    CRUDE41  YLD22  0.247659  YLD23  0.44875
    CRUDE41  YLD24  0.211194  YLD25  0.150495
    CRUDE41  YLD26  0.277013  YLD27  0.397579
    CRUDE41  YLD28  0.482214  YLD29  0.536052
    CRUDE41  YLD30  0.240176  CAP  1
    CRUDE41  SULF  0.461828
    CRUDE42  COST  -34.7705  YLD1  0.373317
    CRUDE42  YLD2  0.226364  YLD3  0.250344
    CRUDE42  YLD4  0.165585  YLD5  0.484786
    CRUDE42  YLD6  0.284264  YLD7  0.476554
    CRUDE42  YLD8  0.342458  YLD9  0.486926
    CRUDE42  YLD10  0.244277  YLD11  0.205646
    CRUDE42  YLD12  0.320716  YLD13  0.482262
    CRUDE42  YLD14  0.204001  YLD15  0.295879
    CRUDE42  YLD16  0.242228  YLD17  0.245476
    CRUDE42  YLD18  0.491684  YLD19  0.531059
    CRUDE42  YLD20  0.411305  YLD21  0.32681
    CRUDE42  YLD22  0.482351  YLD23  0.436196
    CRUDE42  YLD24  0.244094  YLD25  0.270341
    CRUDE42  YLD26  0.531119  YLD27  0.2794
    CRUDE42  YLD28  0.177485  YLD29  0.345358
    CRUDE42  YLD30  0.431177  CAP  1
    CRUDE42  SULF  0.202341
    CRUDE43  COST  -63.4421  YLD1  0.503055
    CRUDE43  YLD2  0.25739  YLD3  0.223733
    CRUDE43  YLD4  0.397302  YLD5  0.496747
    CRUDE43  YLD6  0.217872  YLD7  0.53719
    CRUDE43  YLD8  0.425114  YLD9  0.170654
    CRUDE43  YLD10  0.403503  YLD11  0.190318
    CRUDE43  YLD12  0.469913  YLD13  0.288077
    CRUDE43  YLD14  0.343502  YLD15  0.374271
    CRUDE43  YLD16  0.482257  YLD17  0.522036
    CRUDE43  YLD18  0.36081  YLD19  0.513127
    CRUDE43  YLD20  0.282926  YLD21  0.282356
    CRUDE43  YLD22  0.495844  YLD23  0.358494
    CRUDE43  YLD24  0.497704  YLD25  0.542495
    CRUDE43  YLD26  0.48008  YLD27  0.483721
    CRUDE43  YLD28  0.319719  YLD29  0.21027
    CRUDE43  YLD30  0.171122  CAP  1
    CRUDE43  SULF  1.17618
    CRUDE44  COST  -59.5649  YLD1  0.225483
    CRUDE44  YLD2  0.344112  YLD3  0.182349
    CRUDE44  YLD4  0.284622  YLD5  0.485392
    CRUDE44  YLD6  0.408739  YLD7  0.185363
    CRUDE44  YLD8  0.354663  YLD9  0.157297
    CRUDE44  YLD10  0.513146  YLD11  0.252406
    CRUDE44  YLD12  0.289755  YLD13  0.459534
    CRUDE44  YLD14  0.257964  YLD15  0.342425
    CRUDE44  YLD16  0.198136  YLD17  0.192334
    CRUDE44  YLD18  0.480368  YLD19  0.439714
    CRUDE44  YLD20  0.366991  YLD21  0.329511
    CRUDE44  YLD22  0.457408  YLD23  0.478957
    CRUDE44  YLD24  0.339157  YLD25  0.339955
    CRUDE44  YLD26  0.416523  YLD27  0.40172
    CRUDE44  YLD28  0.183047  YLD29  0.286953
    CRUDE44  YLD30  0.344639  CAP  1
    CRUDE44  SULF  -0.114777
    CRUDE45  COST  -58.0622  YLD1  0.261549
    CRUDE45  YLD2  0.299075  YLD3  0.321326
    CRUDE45  YLD4  0.412289  YLD5  0.320437
    CRUDE45  YLD6  0.305307  YLD7  0.466727
    CRUDE45  YLD8  0.212791  YLD9  0.428785
    CRUDE45  YLD10  0.276479  YLD11  0.440438
    CRUDE45  YLD12  0.337293  YLD13  0.295103
    CRUDE45  YLD14  0.365937  YLD15  0.503999
    CRUDE45  YLD16  0.168778  YLD17  0.429596
    CRUDE45  YLD18  0.26935  YLD19  0.449665
    CRUDE45  YLD20  0.347311  YLD21  0.417756
    CRUDE45  YLD22  0.195244  YLD23  0.322345
    CRUDE45  YLD24  0.364143  YLD25  0.303011
    CRUDE45  YLD26  0.198705  YLD27  0.229543
    CRUDE45  YLD28  0.355863  YLD29  0.315367
    CRUDE45  YLD30  0.389748  CAP  1
    CRUDE45  SULF  0.2423
    CRUDE46  COST  -78.5856  YLD1  0.430143
    CRUDE46  YLD2  0.307877  YLD3  0.4254
    CRUDE46  YLD4  0.304159  YLD5  0.239031
    CRUDE46  YLD6  0.241758  YLD7  0.385982
    CRUDE46  YLD8  0.300914  YLD9  0.548902
    CRUDE46  YLD10  0.385323  YLD11  0.387185
    CRUDE46  YLD12  0.39999  YLD13  0.494427
    CRUDE46  YLD14  0.214806  YLD15  0.362106
    CRUDE46  YLD16  0.303636  YLD17  0.225689
    CRUDE46  YLD18  0.485979  YLD19  0.208369
    CRUDE46  YLD20  0.182611  YLD21  0.208303
    CRUDE46  YLD22  0.468204  YLD23  0.508686
    CRUDE46  YLD24  0.221378  YLD25  0.197932
    CRUDE46  YLD26  0.341294  YLD27  0.175847
    CRUDE46  YLD28  0.50956  YLD29  0.453274
    CRUDE46  YLD30  0.390858  CAP  1
    CRUDE46  SULF  1.78006
    CRUDE47  COST  -66.0865  YLD1  0.488664
    CRUDE47  YLD2  0.487685  YLD3  0.173277
    CRUDE47  YLD4  0.422645  YLD5  0.308661
    CRUDE47  YLD6  0.256375  YLD7  0.342018
    CRUDE47  YLD8  0.151038  YLD9  0.508644
    CRUDE47  YLD10  0.423193  YLD11  0.190885
    CRUDE47  YLD12  0.30109  YLD13  0.237804
    CRUDE47  YLD14  0.486612  YLD15  0.326413
    CRUDE47  YLD16  0.164693  YLD17  0.502655
    CRUDE47  YLD18  0.459129  YLD19  0.191117
    CRUDE47  YLD20  0.311305  YLD21  0.329774
    CRUDE47  YLD22  0.517471  YLD23  0.178512
    CRUDE47  YLD24  0.274909  YLD25  0.539666
    CRUDE47  YLD26  0.352443  YLD27  0.167053
    CRUDE47  YLD28  0.462994  YLD29  0.44737
    CRUDE47  YLD30  0.159173  CAP  1
    CRUDE47  SULF  -0.242609
    CRUDE48  COST  -42.8034  YLD1  0.49253
    CRUDE48  YLD2  0.522007  YLD3  0.516085
    CRUDE48  YLD4  0.28625  YLD5  0.506759
    CRUDE48  YLD6  0.294138  YLD7  0.318214
    CRUDE48  YLD8  0.49732  YLD9  0.380399
    CRUDE48  YLD10  0.330779  YLD11  0.5175
    CRUDE48  YLD12  0.484626  YLD13  0.539819
    CRUDE48  YLD14  0.488563  YLD15  0.311794
    CRUDE48  YLD16  0.532908  YLD17  0.534526
    CRUDE48  YLD18  0.242021  YLD19  0.378362
    CRUDE48  YLD20  0.238224  YLD21  0.385154
    CRUDE48  YLD22  0.390244  YLD23  0.531864
    CRUDE48  YLD24  0.242098  YLD25  0.158011
    CRUDE48  YLD26  0.243021  YLD27  0.298563
    CRUDE48  YLD28  0.241137  YLD29  0.394776
    CRUDE48  YLD30  0.278843  CAP  1
    CRUDE48  SULF  -0.887928
    CRUDE49  COST  -65.5331  YLD1  0.311803
    CRUDE49  YLD2  0.178166  YLD3  0.326941
    CRUDE49  YLD4  0.254278  YLD5  0.208642
    CRUDE49  YLD6  0.25398  YLD7  0.463867
    CRUDE49  YLD8  0.183807  YLD9  0.516958
    CRUDE49  YLD10  0.435513  YLD11  0.466034
    CRUDE49  YLD12  0.384981  YLD13  0.461904
    CRUDE49  YLD14  0.532095  YLD15  0.378971
    CRUDE49  YLD16  0.480482  YLD17  0.336188
    CRUDE49  YLD18  0.202534  YLD19  0.157347
    CRUDE49  YLD20  0.31736  YLD21  0.529433
    CRUDE49  YLD22  0.52635  YLD23  0.411877
    CRUDE49  YLD24  0.232474  YLD25  0.444872
    CRUDE49  YLD26  0.181986  YLD27  0.25634
    CRUDE49  YLD28  0.540396  YLD29  0.192372
    CRUDE49  YLD30  0.404596  CAP  1
    CRUDE49  SULF  -0.655419
    CRUDE50  COST  -51.9668  YLD1  0.505108
    CRUDE50  YLD2  0.233567  YLD3  0.245915
    CRUDE50  YLD4  0.348415  YLD5  0.35533
    CRUDE50  YLD6  0.331296  YLD7  0.405745
    CRUDE50  YLD8  0.388911  YLD9  0.15212
    CRUDE50  YLD10  0.509867  YLD11  0.159209
    CRUDE50  YLD12  0.267618  YLD13  0.195695
    CRUDE50  YLD14  0.211869  YLD15  0.471591
    CRUDE50  YLD16  0.470308  YLD17  0.501629
    CRUDE50  YLD18  0.497222  YLD19  0.342943
    CRUDE50  YLD20  0.231431  YLD21  0.251011
    CRUDE50  YLD22  0.480736  YLD23  0.30203
    CRUDE50  YLD24  0.405184  YLD25  0.45744
    CRUDE50  YLD26  0.460689  YLD27  0.408436
    CRUDE50  YLD28  0.41694  YLD29  0.210628
    CRUDE50  YLD30  0.2096  CAP  1
    CRUDE50  SULF  -0.355686
    CRUDE51  COST  -74.7882  YLD1  0.490371
    CRUDE51  YLD2  0.418457  YLD3  0.187549
    CRUDE51  YLD4  0.427156  YLD5  0.243291
    CRUDE51  YLD6  0.162926  YLD7  0.472018
    CRUDE51  YLD8  0.544503  YLD9  0.540027
    CRUDE51  YLD10  0.399641  YLD11  0.410547
    CRUDE51  YLD12  0.435624  YLD13  0.376311
    CRUDE51  YLD14  0.399333  YLD15  0.365361
    CRUDE51  YLD16  0.401911  YLD17  0.152058
    CRUDE51  YLD18  0.535295  YLD19  0.23414
    CRUDE51  YLD20  0.486181  YLD21  0.2937
    CRUDE51  YLD22  0.416789  YLD23  0.228862
    CRUDE51  YLD24  0.252754  YLD25  0.247463
    CRUDE51  YLD26  0.198814  YLD27  0.349734
    CRUDE51  YLD28  0.154171  YLD29  0.187503
    CRUDE51  YLD30  0.428166  CAP  1
    CRUDE51  SULF  0.547363
    CRUDE52  COST  -58.1638  YLD1  0.524254
    CRUDE52  YLD2  0.293459  YLD3  0.223146
    CRUDE52  YLD4  0.289335  YLD5  0.382522
    CRUDE52  YLD6  0.261905  YLD7  0.51126
    CRUDE52  YLD8  0.364636  YLD9  0.3463
    CRUDE52  YLD10  0.365912  YLD11  0.458499
    CRUDE52  YLD12  0.361059  YLD13  0.544147
    CRUDE52  YLD14  0.339695  YLD15  0.414662
    CRUDE52  YLD16  0.23653  YLD17  0.477979
    CRUDE52  YLD18  0.162521  YLD19  0.288407
    CRUDE52  YLD20  0.219677  YLD21  0.301743
    CRUDE52  YLD22  0.380874  YLD23  0.341673
    CRUDE52  YLD24  0.402806  YLD25  0.418623
    CRUDE52  YLD26  0.387716  YLD27  0.256408
    CRUDE52  YLD28  0.252165  YLD29  0.380869
    CRUDE52  YLD30  0.44837  CAP  1
    CRUDE52  SULF  1.27384
    CRUDE53  COST  -36.9666  YLD1  0.464136
    CRUDE53  YLD2  0.251665  YLD3  0.523846
    CRUDE53  YLD4  0.524659  YLD5  0.495255
    CRUDE53  YLD6  0.314483  YLD7  0.396905
    CRUDE53  YLD8  0.519617  YLD9  0.439158
    CRUDE53  YLD10  0.325498  YLD11  0.299774
    CRUDE53  YLD12  0.363782  YLD13  0.338426
    CRUDE53  YLD14  0.287753  YLD15  0.445142
    CRUDE53  YLD16  0.357304  YLD17  0.24145
    CRUDE53  YLD18  0.442508  YLD19  0.460322
    CRUDE53  YLD20  0.534312  YLD21  0.392215
    CRUDE53  YLD22  0.289429  YLD23  0.227823
    CRUDE53  YLD24  0.173382  YLD25  0.187172
    CRUDE53  YLD26  0.52458  YLD27  0.209695
    CRUDE53  YLD28  0.254285  YLD29  0.500855
    CRUDE53  YLD30  0.542788  CAP  1
    CRUDE53  SULF  0.973218
    CRUDE54  COST  -56.9921  YLD1  0.417595
    CRUDE54  YLD2  0.268116  YLD3  0.405308
    CRUDE54  YLD4  0.165675  YLD5  0.502144
    CRUDE54  YLD6  0.391113  YLD7  0.542185
    CRUDE54  YLD8  0.244447  YLD9  0.478345
    CRUDE54  YLD10  0.380995  YLD11  0.177569
    CRUDE54  YLD12  0.342435  YLD13  0.222843
    CRUDE54  YLD14  0.290616  YLD15  0.358067
    CRUDE54  YLD16  0.38891  YLD17  0.513481
    CRUDE54  YLD18  0.51381  YLD19  0.526495
    CRUDE54  YLD20  0.316363  YLD21  0.292693
    CRUDE54  YLD22  0.213715  YLD23  0.216533
    CRUDE54  YLD24  0.20671  YLD25  0.252819
    CRUDE54  YLD26  0.500442  YLD27  0.20088
    CRUDE54  YLD28  0.177702  YLD29  0.32352
    CRUDE54  YLD30  0.233937  CAP  1
    CRUDE54  SULF  -0.351257
    CRUDE55  COST  -77.1427  YLD1  0.382275
    CRUDE55  YLD2  0.27902  YLD3  0.356679
    CRUDE55  YLD4  0.317178  YLD5  0.244674
    CRUDE55  YLD6  0.258383  YLD7  0.393235
    CRUDE55  YLD8  0.453982  YLD9  0.437383
    CRUDE55  YLD10  0.292145  YLD11  0.180928
    CRUDE55  YLD12  0.348805  YLD13  0.343911
    CRUDE55  YLD14  0.315117  YLD15  0.320727
    CRUDE55  YLD16  0.360013  YLD17  0.150448
    CRUDE55  YLD18  0.492944  YLD19  0.178967
    CRUDE55  YLD20  0.488498  YLD21  0.363405
    CRUDE55  YLD22  0.391982  YLD23  0.396941
    CRUDE55  YLD24  0.259816  YLD25  0.465161
    CRUDE55  YLD26  0.261101  YLD27  0.495864
    CRUDE55  YLD28  0.533931  YLD29  0.214339
    CRUDE55  YLD30  0.480052  CAP  1
    CRUDE55  SULF  0.954897
    CRUDE56  COST  -64.7392  YLD1  0.298913
    CRUDE56  YLD2  0.489468  YLD3  0.412845
    CRUDE56  YLD4  0.537032  YLD5  0.513077
    CRUDE56  YLD6  0.203274  YLD7  0.404658
    CRUDE56  YLD8  0.362506  YLD9  0.364015
    CRUDE56  YLD10  0.306593  YLD11  0.191699
    CRUDE56  YLD12  0.456143  YLD13  0.354983
    CRUDE56  YLD14  0.43197  YLD15  0.500666
    CRUDE56  YLD16  0.254093  YLD17  0.372473
    CRUDE56  YLD18  0.535808  YLD19  0.363697
    CRUDE56  YLD20  0.401506  YLD21  0.462716
    CRUDE56  YLD22  0.277245  YLD23  0.359234
    CRUDE56  YLD24  0.388819  YLD25  0.495874
    CRUDE56  YLD26  0.490579  YLD27  0.247391
    CRUDE56  YLD28  0.341302  YLD29  0.373217
    CRUDE56  YLD30  0.358119  CAP  1
    CRUDE56  SULF  1.88418
    CRUDE57  COST  -61.2177  YLD1  0.526053
    CRUDE57  YLD2  0.204649  YLD3  0.324269
    CRUDE57  YLD4  0.369189  YLD5  0.386755
    CRUDE57  YLD6  0.18048  YLD7  0.371926
    CRUDE57  YLD8  0.438206  YLD9  0.340648
    CRUDE57  YLD10  0.362743  YLD11  0.486176
    CRUDE57  YLD12  0.191193  YLD13  0.446675
    CRUDE57  YLD14  0.389314  YLD15  0.317002
    CRUDE57  YLD16  0.356099  YLD17  0.452654
    CRUDE57  YLD18  0.454038  YLD19  0.503013
    CRUDE57  YLD20  0.44414  YLD21  0.432154
    CRUDE57  YLD22  0.496575  YLD23  0.418038
    CRUDE57  YLD24  0.420336  YLD25  0.393395
    CRUDE57  YLD26  0.150133  YLD27  0.410684
    CRUDE57  YLD28  0.508326  YLD29  0.474701
    CRUDE57  YLD30  0.299385  CAP  1
    CRUDE57  SULF  -0.0457678
    CRUDE58  COST  -35.2747  YLD1  0.539466
    CRUDE58  YLD2  0.433564  YLD3  0.442016
    CRUDE58  YLD4  0.319388  YLD5  0.290087
    CRUDE58  YLD6  0.526213  YLD7  0.186401
    CRUDE58  YLD8  0.174937  YLD9  0.485433
    CRUDE58  YLD10  0.176648  YLD11  0.514274
    CRUDE58  YLD12  0.283745  YLD13  0.429538
    CRUDE58  YLD14  0.333873  YLD15  0.334777
    CRUDE58  YLD16  0.346475  YLD17  0.253475
    CRUDE58  YLD18  0.32692  YLD19  0.183003
    CRUDE58  YLD20  0.45709  YLD21  0.328547
    CRUDE58  YLD22  0.547335  YLD23  0.521842
    CRUDE58  YLD24  0.327087  YLD25  0.352735
    CRUDE58  YLD26  0.157075  YLD27  0.474274
    CRUDE58  YLD28  0.278886  YLD29  0.446685
    CRUDE58  YLD30  0.198951  CAP  1
    CRUDE58  SULF  0.485205
    CRUDE59  COST  -40.922  YLD1  0.263568
    CRUDE59  YLD2  0.371128  YLD3  0.169086
    CRUDE59  YLD4  0.377408  YLD5  0.433272
    CRUDE59  YLD6  0.316656  YLD7  0.440559
    CRUDE59  YLD8  0.209096  YLD9  0.232031
    CRUDE59  YLD10  0.24161  YLD11  0.199124
    CRUDE59  YLD12  0.180201  YLD13  0.31102
    CRUDE59  YLD14  0.180373  YLD15  0.546137
    CRUDE59  YLD16  0.548534  YLD17  0.227253
    CRUDE59  YLD18  0.274781  YLD19  0.479806
    CRUDE59  YLD20  0.351938  YLD21  0.495686
    CRUDE59  YLD22  0.450971  YLD23  0.362904
    CRUDE59  YLD24  0.328316  YLD25  0.213722
    CRUDE59  YLD26  0.391021  YLD27  0.395633
    CRUDE59  YLD28  0.200093  YLD29  0.50258
    CRUDE59  YLD30  0.444202  CAP  1
    CRUDE59  SULF  0.353124
    CRUDE60  COST  -74.164  YLD1  0.272146
    CRUDE60  YLD2  0.268604  YLD3  0.376415
    CRUDE60  YLD4  0.38037  YLD5  0.342667
    CRUDE60  YLD6  0.382465  YLD7  0.368979
    CRUDE60  YLD8  0.203247  YLD9  0.537198
    CRUDE60  YLD10  0.36714  YLD11  0.244362
    CRUDE60  YLD12  0.451298  YLD13  0.237209
    CRUDE60  YLD14  0.181106  YLD15  0.150095
    CRUDE60  YLD16  0.508974  YLD17  0.183639
    CRUDE60  YLD18  0.278297  YLD19  0.293121
    CRUDE60  YLD20  0.36732  YLD21  0.373256
    CRUDE60  YLD22  0.186193  YLD23  0.382373
    CRUDE60  YLD24  0.439807  YLD25  0.175244
    CRUDE60  YLD26  0.295919  YLD27  0.493826
    CRUDE60  YLD28  0.339734  YLD29  0.261161
    CRUDE60  YLD30  0.244343  CAP  1
    CRUDE60  SULF  0.0489796
    PROD1  COST  98.5462  YLD1  -1
    PROD1  DEM1  1
    PROD2  COST  114.941  YLD2  -1
    PROD2  DEM2  1
    PROD3  COST  153.478  YLD3  -1
    PROD3  DEM3  1
    PROD4  COST  109.049  YLD4  -1
    PROD4  DEM4  1
    PROD5  COST  135.338  YLD5  -1
    PROD5  DEM5  1
    PROD6  COST  90.0364  YLD6  -1
    PROD6  DEM6  1
    PROD7  COST  114.68  YLD7  -1
    PROD7  DEM7  1
    PROD8  COST  111.335  YLD8  -1
    PROD8  DEM8  1
    PROD9  COST  101.526  YLD9  -1
    PROD9  DEM9  1
    PROD10  COST  127.386  YLD10  -1
    PROD10  DEM10  1
    PROD11  COST  123.938  YLD11  -1
    PROD11  DEM11  1
    PROD12  COST  138.471  YLD12  -1
    PROD12  DEM12  1
    PROD13  COST  108.859  YLD13  -1
    PROD13  DEM13  1
    PROD14  COST  107.089  YLD14  -1
    PROD14  DEM14  1
    PROD15  COST  101.78  YLD15  -1
    PROD15  DEM15  1
    PROD16  COST  105.313  YLD16  -1
    PROD16  DEM16  1
    PROD17  COST  129.067  YLD17  -1
    PROD17  DEM17  1
    PROD18  COST  118.269  YLD18  -1
    PROD18  DEM18  1
    PROD19  COST  94.5425  YLD19  -1
    PROD19  DEM19  1
    PROD20  COST  107.774  YLD20  -1
    PROD20  DEM20  1
    PROD21  COST  107.281  YLD21  -1
    PROD21  DEM21  1
    PROD22  COST  138.741  YLD22  -1
    PROD22  DEM22  1
    PROD23  COST  139.859  YLD23  -1
    PROD23  DEM23  1
    PROD24  COST  100.366  YLD24  -1
    PROD24  DEM24  1
    PROD25  COST  159.842  YLD25  -1
    PROD25  DEM25  1
    PROD26  COST  108.675  YLD26  -1
    PROD26  DEM26  1
    PROD27  COST  158.363  YLD27  -1
    PROD27  DEM27  1
    PROD28  COST  118.773  YLD28  -1
    PROD28  DEM28  1
    PROD29  COST  92.3136  YLD29  -1
    PROD29  DEM29  1
    PROD30  COST  114.155  YLD30  -1
    PROD30  DEM30  1
RHS
    RHS       CAP  300000
    RHS       DEM1  2485.69
    RHS       DEM2  1250.17
    RHS       DEM3  2500
    RHS       DEM4  2500
    RHS       DEM5  2500
    RHS       DEM6  2197.77
    RHS       DEM7  1693.92
    RHS       DEM8  2500
    RHS       DEM9  2500
    RHS       DEM10  1713.01
    RHS       DEM11  2500
    RHS       DEM12  2500
    RHS       DEM13  2500
    RHS       DEM14  2500
    RHS       DEM15  2500
    RHS       DEM16  1811.75
    RHS       DEM17  2500
    RHS       DEM18  2500
    RHS       DEM19  1661.18
    RHS       DEM20  2500
    RHS       DEM21  2500
    RHS       DEM22  2500
    RHS       DEM23  2500
    RHS       DEM24  2500
    RHS       DEM25  2500
    RHS       DEM26  1224.54
    RHS       DEM27  2500
    RHS       DEM28  1902.17
    RHS       DEM29  2500
    RHS       DEM30  2500
BOUNDS
 UP BND       CRUDE1  300000
 UP BND       CRUDE2  300000
 UP BND       CRUDE3  300000
 UP BND       CRUDE4  300000
 UP BND       CRUDE5  300000
 UP BND       CRUDE6  300000
 UP BND       CRUDE7  300000
 UP BND       CRUDE8  300000
 UP BND       CRUDE9  300000
 UP BND       CRUDE10  300000
 UP BND       CRUDE11  300000
 UP BND       CRUDE12  300000
 UP BND       CRUDE13  300000
 UP BND       CRUDE14  300000
 UP BND       CRUDE15  300000
 UP BND       CRUDE16  300000
 UP BND       CRUDE17  300000
 UP BND       CRUDE18  300000
 UP BND       CRUDE19  300000
 UP BND       CRUDE20  300000
 UP BND       CRUDE21  300000
 UP BND       CRUDE22  300000
 UP BND       CRUDE23  300000
 UP BND       CRUDE24  300000
 UP BND       CRUDE25  300000
 UP BND       CRUDE26  300000
 UP BND       CRUDE27  300000
 UP BND       CRUDE28  300000
 UP BND       CRUDE29  300000
 UP BND       CRUDE30  300000
 UP BND       CRUDE31  300000
 UP BND       CRUDE32  300000
 UP BND       CRUDE33  300000
 UP BND       CRUDE34  300000
 UP BND       CRUDE35  300000
 UP BND       CRUDE36  300000
 UP BND       CRUDE37  300000
 UP BND       CRUDE38  300000
 UP BND       CRUDE39  300000
 UP BND       CRUDE40  300000
 UP BND       CRUDE41  300000
 UP BND       CRUDE42  300000
 UP BND       CRUDE43  300000
 UP BND       CRUDE44  300000
 UP BND       CRUDE45  300000
 UP BND       CRUDE46  300000
 UP BND       CRUDE47  300000
 UP BND       CRUDE48  300000
 UP BND       CRUDE49  300000
 UP BND       CRUDE50  300000
 UP BND       CRUDE51  300000
 UP BND       CRUDE52  300000
 UP BND       CRUDE53  300000
 UP BND       CRUDE54  300000
 UP BND       CRUDE55  300000
 UP BND       CRUDE56  300000
 UP BND       CRUDE57  300000
 UP BND       CRUDE58  300000
 UP BND       CRUDE59  300000
 UP BND       CRUDE60  300000
 UP BND       PROD1  240000
 UP BND       PROD2  240000
 UP BND       PROD3  240000
 UP BND       PROD4  240000
 UP BND       PROD5  240000
 UP BND       PROD6  240000
 UP BND       PROD7  240000
 UP BND       PROD8  240000
 UP BND       PROD9  240000
 UP BND       PROD10  240000
 UP BND       PROD11  240000
 UP BND       PROD12  240000
 UP BND       PROD13  240000
 UP BND       PROD14  240000
 UP BND       PROD15  240000
 UP BND       PROD16  240000
 UP BND       PROD17  240000
 UP BND       PROD18  240000
 UP BND       PROD19  240000
 UP BND       PROD20  240000
 UP BND       PROD21  240000
 UP BND       PROD22  240000
 UP BND       PROD23  240000
 UP BND       PROD24  240000
 UP BND       PROD25  240000
 UP BND       PROD26  240000
 UP BND       PROD27  240000
 UP BND       PROD28  240000
 UP BND       PROD29  240000
 UP BND       PROD30  240000
ENDATA
