NAME          SCHED_S42
ROWS
 N  COST
 G  DEM_T1
 G  DEM_T2
 G  DEM_T3
 G  DEM_T4
 G  DEM_T5
 G  DEM_T6
 G  DEM_T7
 G  DEM_T8
 G  DEM_T9
 G  DEM_T10
 G  DEM_T11
 G  DEM_T12
 G  DEM_T13
 G  DEM_T14
 G  DEM_T15
 G  DEM_T16
 G  DEM_T17
 G  DEM_T18
 G  DEM_T19
 G  DEM_T20
 G  DEM_T21
 G  DEM_T22
 G  DEM_T23
 G  DEM_T24
 G  DEM_T25
 G  DEM_T26
 G  DEM_T27
 G  DEM_T28
 G  DEM_T29
 G  DEM_T30
 G  DEM_T31
 G  DEM_T32
 G  DEM_T33
 G  DEM_T34
 G  DEM_T35
 G  DEM_T36
 G  DEM_T37
 G  DEM_T38
 G  DEM_T39
 G  DEM_T40
 G  DEM_T41
 G  DEM_T42
 G  DEM_T43
 G  DEM_T44
 G  DEM_T45
 G  DEM_T46
 G  DEM_T47
 G  DEM_T48
 L  SU_T1U1
 L  SU_T1U2
 L  SU_T1U3
 L  SU_T1U4
 L  SU_T1U5
 L  SU_T1U6
 L  SU_T1U7
 L  SU_T1U8
 L  SU_T1U9
 L  SU_T1U10
 L  SU_T1U11
 L  SU_T1U12
 L  SU_T2U1
 L  SU_T2U2
 L  SU_T2U3
 L  SU_T2U4
 L  SU_T2U5
 L  SU_T2U6
 L  SU_T2U7
 L  SU_T2U8
 L  SU_T2U9
 L  SU_T2U10
 L  SU_T2U11
 L  SU_T2U12
 L  SU_T3U1
 L  SU_T3U2
 L  SU_T3U3
 L  SU_T3U4
 L  SU_T3U5
 L  SU_T3U6
 L  SU_T3U7
 L  SU_T3U8
 L  SU_T3U9
 L  SU_T3U10
 L  SU_T3U11
 L  SU_T3U12
 L  SU_T4U1
 L  SU_T4U2
 L  SU_T4U3
 L  SU_T4U4
 L  SU_T4U5
 L  SU_T4U6
 L  SU_T4U7
 L  SU_T4U8
 L  SU_T4U9
 L  SU_T4U10
 L  SU_T4U11
 L  SU_T4U12
 L  SU_T5U1
 L  SU_T5U2
 L  SU_T5U3
 L  SU_T5U4
 L  SU_T5U5
 L  SU_T5U6
 L  SU_T5U7
 L  SU_T5U8
 L  SU_T5U9
 L  SU_T5U10
 L  SU_T5U11
 L  SU_T5U12
 L  SU_T6U1
 L  SU_T6U2
 L  SU_T6U3
 L  SU_T6U4
 L  SU_T6U5
 L  SU_T6U6
 L  SU_T6U7
 L  SU_T6U8
 L  SU_T6U9
 L  SU_T6U10
 L  SU_T6U11
 L  SU_T6U12
 L  SU_T7U1
 L  SU_T7U2
 L  SU_T7U3
 L  SU_T7U4
 L  SU_T7U5
 L  SU_T7U6
 L  SU_T7U7
 L  SU_T7U8
 L  SU_T7U9
 L  SU_T7U10
 L  SU_T7U11
 L  SU_T7U12
 L  SU_T8U1
 L  SU_T8U2
 L  SU_T8U3
 L  SU_T8U4
 L  SU_T8U5
 L  SU_T8U6
 L  SU_T8U7
 L  SU_T8U8
 L  SU_T8U9
 L  SU_T8U10
 L  SU_T8U11
 L  SU_T8U12
 L  SU_T9U1
 L  SU_T9U2
 L  SU_T9U3
 L  SU_T9U4
 L  SU_T9U5
 L  SU_T9U6
 L  SU_T9U7
 L  SU_T9U8
 L  SU_T9U9
 L  SU_T9U10
 L  SU_T9U11
 L  SU_T9U12
 L  SU_T10U1
 L  SU_T10U2
 L  SU_T10U3
 L  SU_T10U4
 L  SU_T10U5
 L  SU_T10U6
 L  SU_T10U7
 L  SU_T10U8
 L  SU_T10U9
 L  SU_T10U10
 L  SU_T10U11
 L  SU_T10U12
 L  SU_T11U1
 L  SU_T11U2
 L  SU_T11U3
 L  SU_T11U4
 L  SU_T11U5
 L  SU_T11U6
 L  SU_T11U7
 L  SU_T11U8
 L  SU_T11U9
 L  SU_T11U10
 L  SU_T11U11
 L  SU_T11U12
 L  SU_T12U1
 L  SU_T12U2
 L  SU_T12U3
 L  SU_T12U4
 L  SU_T12U5
 L  SU_T12U6
 L  SU_T12U7
 L  SU_T12U8
 L  SU_T12U9
 L  SU_T12U10
 L  SU_T12U11
 L  SU_T12U12
 L  SU_T13U1
 L  SU_T13U2
 L  SU_T13U3
 L  SU_T13U4
 L  SU_T13U5
 L  SU_T13U6
 L  SU_T13U7
 L  SU_T13U8
 L  SU_T13U9
 L  SU_T13U10
 L  SU_T13U11
 L  SU_T13U12
 L  SU_T14U1
 L  SU_T14U2
 L  SU_T14U3
 L  SU_T14U4
 L  SU_T14U5
 L  SU_T14U6
 L  SU_T14U7
 L  SU_T14U8
 L  SU_T14U9
 L  SU_T14U10
 L  SU_T14U11
 L  SU_T14U12
 L  SU_T15U1
 L  SU_T15U2
 L  SU_T15U3
 L  SU_T15U4
 L  SU_T15U5
 L  SU_T15U6
 L  SU_T15U7
 L  SU_T15U8
 L  SU_T15U9
 L  SU_T15U10
 L  SU_T15U11
 L  SU_T15U12
 L  SU_T16U1
 L  SU_T16U2
 L  SU_T16U3
 L  SU_T16U4
 L  SU_T16U5
 L  SU_T16U6
 L  SU_T16U7
 L  SU_T16U8
 L  SU_T16U9
 L  SU_T16U10
 L  SU_T16U11
 L  SU_T16U12
 L  SU_T17U1
 L  SU_T17U2
 L  SU_T17U3
 L  SU_T17U4
 L  SU_T17U5
 L  SU_T17U6
 L  SU_T17U7
 L  SU_T17U8
 L  SU_T17U9
 L  SU_T17U10
 L  SU_T17U11
 L  SU_T17U12
 L  SU_T18U1
 L  SU_T18U2
 L  SU_T18U3
 L  SU_T18U4
 L  SU_T18U5
 L  SU_T18U6
 L  SU_T18U7
 L  SU_T18U8
 L  SU_T18U9
 L  SU_T18U10
 L  SU_T18U11
 L  SU_T18U12
 L  SU_T19U1
 L  SU_T19U2
 L  SU_T19U3
 L  SU_T19U4
 L  SU_T19U5
 L  SU_T19U6
 L  SU_T19U7
 L  SU_T19U8
 L  SU_T19U9
 L  SU_T19U10
 L  SU_T19U11
 L  SU_T19U12
 L  SU_T20U1
 L  SU_T20U2
 L  SU_T20U3
 L  SU_T20U4
 L  SU_T20U5
 L  SU_T20U6
 L  SU_T20U7
 L  SU_T20U8
 L  SU_T20U9
 L  SU_T20U10
 L  SU_T20U11
 L  SU_T20U12
 L  SU_T21U1
 L  SU_T21U2
 L  SU_T21U3
 L  SU_T21U4
 L  SU_T21U5
 L  SU_T21U6
 L  SU_T21U7
 L  SU_T21U8
 L  SU_T21U9
 L  SU_T21U10
 L  SU_T21U11
 L  SU_T21U12
 L  SU_T22U1
 L  SU_T22U2
 L  SU_T22U3
 L  SU_T22U4
 L  SU_T22U5
 L  SU_T22U6
 L  SU_T22U7
 L  SU_T22U8
 L  SU_T22U9
 L  SU_T22U10
 L  SU_T22U11
 L  SU_T22U12
 L  SU_T23U1
 L  SU_T23U2
 L  SU_T23U3
 L  SU_T23U4
 L  SU_T23U5
 L  SU_T23U6
 L  SU_T23U7
 L  SU_T23U8
 L  SU_T23U9
 L  SU_T23U10
 L  SU_T23U11
 L  SU_T23U12
 L  SU_T24U1
 L  SU_T24U2
 L  SU_T24U3
 L  SU_T24U4
 L  SU_T24U5
 L  SU_T24U6
 L  SU_T24U7
 L  SU_T24U8
 L  SU_T24U9
 L  SU_T24U10
 L  SU_T24U11
 L  SU_T24U12
 L  SU_T25U1
 L  SU_T25U2
 L  SU_T25U3
 L  SU_T25U4
 L  SU_T25U5
 L  SU_T25U6
 L  SU_T25U7
 L  SU_T25U8
 L  SU_T25U9
 L  SU_T25U10
 L  SU_T25U11
 L  SU_T25U12
 L  SU_T26U1
 L  SU_T26U2
 L  SU_T26U3
 L  SU_T26U4
 L  SU_T26U5
 L  SU_T26U6
 L  SU_T26U7
 L  SU_T26U8
 L  SU_T26U9
 L  SU_T26U10
 L  SU_T26U11
 L  SU_T26U12
 L  SU_T27U1
 L  SU_T27U2
 L  SU_T27U3
 L  SU_T27U4
 L  SU_T27U5
 L  SU_T27U6
 L  SU_T27U7
 L  SU_T27U8
 L  SU_T27U9
 L  SU_T27U10
 L  SU_T27U11
 L  SU_T27U12
 L  SU_T28U1
 L  SU_T28U2
 L  SU_T28U3
 L  SU_T28U4
 L  SU_T28U5
 L  SU_T28U6
 L  SU_T28U7
 L  SU_T28U8
 L  SU_T28U9
 L  SU_T28U10
 L  SU_T28U11
 L  SU_T28U12
 L  SU_T29U1
 L  SU_T29U2
 L  SU_T29U3
 L  SU_T29U4
 L  SU_T29U5
 L  SU_T29U6
 L  SU_T29U7
 L  SU_T29U8
 L  SU_T29U9
 L  SU_T29U10
 L  SU_T29U11
 L  SU_T29U12
 L  SU_T30U1
 L  SU_T30U2
 L  SU_T30U3
 L  SU_T30U4
 L  SU_T30U5
 L  SU_T30U6
 L  SU_T30U7
 L  SU_T30U8
 L  SU_T30U9
 L  SU_T30U10
 L  SU_T30U11
 L  SU_T30U12
 L  SU_T31U1
 L  SU_T31U2
 L  SU_T31U3
 L  SU_T31U4
 L  SU_T31U5
 L  SU_T31U6
 L  SU_T31U7
 L  SU_T31U8
 L  SU_T31U9
 L  SU_T31U10
 L  SU_T31U11
 L  SU_T31U12
 L  SU_T32U1
 L  SU_T32U2
 L  SU_T32U3
 L  SU_T32U4
 L  SU_T32U5
 L  SU_T32U6
 L  SU_T32U7
 L  SU_T32U8
 L  SU_T32U9
 L  SU_T32U10
 L  SU_T32U11
 L  SU_T32U12
 L  SU_T33U1
 L  SU_T33U2
 L  SU_T33U3
 L  SU_T33U4
 L  SU_T33U5
 L  SU_T33U6
 L  SU_T33U7
 L  SU_T33U8
 L  SU_T33U9
 L  SU_T33U10
 L  SU_T33U11
 L  SU_T33U12
 L  SU_T34U1
 L  SU_T34U2
 L  SU_T34U3
 L  SU_T34U4
 L  SU_T34U5
 L  SU_T34U6
 L  SU_T34U7
 L  SU_T34U8
 L  SU_T34U9
 L  SU_T34U10
 L  SU_T34U11
 L  SU_T34U12
 L  SU_T35U1
 L  SU_T35U2
 L  SU_T35U3
 L  SU_T35U4
 L  SU_T35U5
 L  SU_T35U6
 L  SU_T35U7
 L  SU_T35U8
 L  SU_T35U9
 L  SU_T35U10
 L  SU_T35U11
 L  SU_T35U12
 L  SU_T36U1
 L  SU_T36U2
 L  SU_T36U3
 L  SU_T36U4
 L  SU_T36U5
 L  SU_T36U6
 L  SU_T36U7
 L  SU_T36U8
 L  SU_T36U9
 L  SU_T36U10
 L  SU_T36U11
 L  SU_T36U12
 L  SU_T37U1
 L  SU_T37U2
 L  SU_T37U3
 L  SU_T37U4
 L  SU_T37U5
 L  SU_T37U6
 L  SU_T37U7
 L  SU_T37U8
 L  SU_T37U9
 L  SU_T37U10
 L  SU_T37U11
 L  SU_T37U12
 L  SU_T38U1
 L  SU_T38U2
 L  SU_T38U3
 L  SU_T38U4
 L  SU_T38U5
 L  SU_T38U6
 L  SU_T38U7
 L  SU_T38U8
 L  SU_T38U9
 L  SU_T38U10
 L  SU_T38U11
 L  SU_T38U12
 L  SU_T39U1
 L  SU_T39U2
 L  SU_T39U3
 L  SU_T39U4
 L  SU_T39U5
 L  SU_T39U6
 L  SU_T39U7
 L  SU_T39U8
 L  SU_T39U9
 L  SU_T39U10
 L  SU_T39U11
 L  SU_T39U12
 L  SU_T40U1
 L  SU_T40U2
 L  SU_T40U3
 L  SU_T40U4
 L  SU_T40U5
 L  SU_T40U6
 L  SU_T40U7
 L  SU_T40U8
 L  SU_T40U9
 L  SU_T40U10
 L  SU_T40U11
 L  SU_T40U12
 L  SU_T41U1
 L  SU_T41U2
 L  SU_T41U3
 L  SU_T41U4
 L  SU_T41U5
 L  SU_T41U6
 L  SU_T41U7
 L  SU_T41U8
 L  SU_T41U9
 L  SU_T41U10
 L  SU_T41U11
 L  SU_T41U12
 L  SU_T42U1
 L  SU_T42U2
 L  SU_T42U3
 L  SU_T42U4
 L  SU_T42U5
 L  SU_T42U6
 L  SU_T42U7
 L  SU_T42U8
 L  SU_T42U9
 L  SU_T42U10
 L  SU_T42U11
 L  SU_T42U12
 L  SU_T43U1
 L  SU_T43U2
 L  SU_T43U3
 L  SU_T43U4
 L  SU_T43U5
 L  SU_T43U6
 L  SU_T43U7
 L  SU_T43U8
 L  SU_T43U9
 L  SU_T43U10
 L  SU_T43U11
 L  SU_T43U12
 L  SU_T44U1
 L  SU_T44U2
 L  SU_T44U3
 L  SU_T44U4
 L  SU_T44U5
 L  SU_T44U6
 L  SU_T44U7
 L  SU_T44U8
 L  SU_T44U9
 L  SU_T44U10
 L  SU_T44U11
 L  SU_T44U12
 L  SU_T45U1
 L  SU_T45U2
 L  SU_T45U3
 L  SU_T45U4
 L  SU_T45U5
 L  SU_T45U6
 L  SU_T45U7
 L  SU_T45U8
 L  SU_T45U9
 L  SU_T45U10
 L  SU_T45U11
 L  SU_T45U12
 L  SU_T46U1
 L  SU_T46U2
 L  SU_T46U3
 L  SU_T46U4
 L  SU_T46U5
 L  SU_T46U6
 L  SU_T46U7
 L  SU_T46U8
 L  SU_T46U9
 L  SU_T46U10
 L  SU_T46U11
 L  SU_T46U12
 L  SU_T47U1
 L  SU_T47U2
 L  SU_T47U3
 L  SU_T47U4
 L  SU_T47U5
 L  SU_T47U6
 L  SU_T47U7
 L  SU_T47U8
 L  SU_T47U9
 L  SU_T47U10
 L  SU_T47U11
 L  SU_T47U12
 L  SU_T48U1
 L  SU_T48U2
 L  SU_T48U3
 L  SU_T48U4
 L  SU_T48U5
 L  SU_T48U6
 L  SU_T48U7
 L  SU_T48U8
 L  SU_T48U9
 L  SU_T48U10
 L  SU_T48U11
 L  SU_T48U12
COLUMNS
    MARK0000  'MARKER'                 'INTORG'
    X_T1U1  COST  33.8963  DEM_T1  1
    X_T1U1  SU_T1U1  1  SU_T2U1  -1
    X_T1U2  COST  33.3907  DEM_T1  1
    X_T1U2  SU_T1U2  1  SU_T2U2  -1
    X_T1U3  COST  23.375  DEM_T1  1
    X_T1U3  SU_T1U3  1  SU_T2U3  -1
    X_T1U4  COST  23.7775  DEM_T1  1
    X_T1U4  SU_T1U4  1  SU_T2U4  -1
    X_T1U5  COST  14.286  DEM_T1  1
    X_T1U5  SU_T1U5  1  SU_T2U5  -1
    X_T1U6  COST  11.6923  DEM_T1  1
    X_T1U6  SU_T1U6  1  SU_T2U6  -1
    X_T1U7  COST  38.1566  DEM_T1  1
    X_T1U7  SU_T1U7  1  SU_T2U7  -1
    X_T1U8  COST  39.7663  DEM_T1  1
    X_T1U8  SU_T1U8  1  SU_T2U8  -1
    X_T1U9  COST  28.3496  DEM_T1  1
    X_T1U9  SU_T1U9  1  SU_T2U9  -1
    X_T1U10  COST  10.6919  DEM_T1  1
    X_T1U10  SU_T1U10  1  SU_T2U10  -1
    X_T1U11  COST  21.9958  DEM_T1  1
    X_T1U11  SU_T1U11  1  SU_T2U11  -1
    X_T1U12  COST  39.2127  DEM_T1  1
    X_T1U12  SU_T1U12  1  SU_T2U12  -1
    X_T2U1  COST  12.7182  DEM_T2  1
    X_T2U1  SU_T2U1  1  SU_T3U1  -1
    X_T2U2  COST  21.4739  DEM_T2  1
    X_T2U2  SU_T2U2  1  SU_T3U2  -1
    X_T2U3  COST  24.0029  DEM_T2  1
    X_T2U3  SU_T2U3  1  SU_T3U3  -1
    X_T2U4  COST  30.4092  DEM_T2  1
    X_T2U4  SU_T2U4  1  SU_T3U4  -1
    X_T2U5  COST  10.3979  DEM_T2  1
    X_T2U5  SU_T2U5  1  SU_T3U5  -1
    X_T2U6  COST  26.8986  DEM_T2  1
    X_T2U6  SU_T2U6  1  SU_T3U6  -1
    X_T2U7  COST  10.479  DEM_T2  1
    X_T2U7  SU_T2U7  1  SU_T3U7  -1
    X_T2U8  COST  17.2308  DEM_T2  1
    X_T2U8  SU_T2U8  1  SU_T3U8  -1
    X_T2U9  COST  28.2999  DEM_T2  1
    X_T2U9  SU_T2U9  1  SU_T3U9  -1
    X_T2U10  COST  15.2009  DEM_T2  1
    X_T2U10  SU_T2U10  1  SU_T3U10  -1
    X_T2U11  COST  15.4671  DEM_T2  1
    X_T2U11  SU_T2U11  1  SU_T3U11  -1
    X_T2U12  COST  22.7547  DEM_T2  1
    X_T2U12  SU_T2U12  1  SU_T3U12  -1
    X_T3U1  COST  27.031  DEM_T3  1
    X_T3U1  SU_T3U1  1  SU_T4U1  -1
    X_T3U2  COST  35.2685  DEM_T3  1
    X_T3U2  SU_T3U2  1  SU_T4U2  -1
    X_T3U3  COST  21.8545  DEM_T3  1
    X_T3U3  SU_T3U3  1  SU_T4U3  -1
    X_T3U4  COST  31.8182  DEM_T3  1
    X_T3U4  SU_T3U4  1  SU_T4U4  -1
    X_T3U5  COST  27.1133  DEM_T3  1
    X_T3U5  SU_T3U5  1  SU_T4U5  -1
    X_T3U6  COST  38.8352  DEM_T3  1
    X_T3U6  SU_T3U6  1  SU_T4U6  -1
    X_T3U7  COST  32.4196  DEM_T3  1
    X_T3U7  SU_T3U7  1  SU_T4U7  -1
    X_T3U8  COST  27.6025  DEM_T3  1
    X_T3U8  SU_T3U8  1  SU_T4U8  -1
    X_T3U9  COST  28.211  DEM_T3  1
    X_T3U9  SU_T3U9  1  SU_T4U9  -1
    X_T3U10  COST  18.8882  DEM_T3  1
    X_T3U10  SU_T3U10  1  SU_T4U10  -1
    X_T3U11  COST  10.4691  DEM_T3  1
    X_T3U11  SU_T3U11  1  SU_T4U11  -1
    X_T3U12  COST  21.8464  DEM_T3  1
    X_T3U12  SU_T3U12  1  SU_T4U12  -1
    X_T4U1  COST  10.4224  DEM_T4  1
    X_T4U1  SU_T4U1  1  SU_T5U1  -1
    X_T4U2  COST  31.3403  DEM_T4  1
    X_T4U2  SU_T4U2  1  SU_T5U2  -1
    X_T4U3  COST  28.1788  DEM_T4  1
    X_T4U3  SU_T4U3  1  SU_T5U3  -1
    X_T4U4  COST  29.5323  DEM_T4  1
    X_T4U4  SU_T4U4  1  SU_T5U4  -1
    X_T4U5  COST  35.5012  DEM_T4  1
    X_T4U5  SU_T4U5  1  SU_T5U5  -1
    X_T4U6  COST  12.8623  DEM_T4  1
    X_T4U6  SU_T4U6  1  SU_T5U6  -1
    X_T4U7  COST  30.0652  DEM_T4  1
    X_T4U7  SU_T4U7  1  SU_T5U7  -1
    X_T4U8  COST  27.7389  DEM_T4  1
    X_T4U8  SU_T4U8  1  SU_T5U8  -1
    X_T4U9  COST  26.8373  DEM_T4  1
    X_T4U9  SU_T4U9  1  SU_T5U9  -1
    X_T4U10  COST  39.1514  DEM_T4  1
    X_T4U10  SU_T4U10  1  SU_T5U10  -1
    X_T4U11  COST  31.6519  DEM_T4  1
    X_T4U11  SU_T4U11  1  SU_T5U11  -1
    X_T4U12  COST  17.682  DEM_T4  1
    X_T4U12  SU_T4U12  1  SU_T5U12  -1
    X_T5U1  COST  31.3199  DEM_T5  1
    X_T5U1  SU_T5U1  1  SU_T6U1  -1
    X_T5U2  COST  23.1801  DEM_T5  1
    X_T5U2  SU_T5U2  1  SU_T6U2  -1
    X_T5U3  COST  36.8729  DEM_T5  1
    X_T5U3  SU_T5U3  1  SU_T6U3  -1
    X_T5U4  COST  26.8983  DEM_T5  1
    X_T5U4  SU_T5U4  1  SU_T6U4  -1
    X_T5U5  COST  14.1799  DEM_T5  1
    X_T5U5  SU_T5U5  1  SU_T6U5  -1
    X_T5U6  COST  26.1952  DEM_T5  1
    X_T5U6  SU_T5U6  1  SU_T6U6  -1
    X_T5U7  COST  38.2856  DEM_T5  1
    X_T5U7  SU_T5U7  1  SU_T6U7  -1
    X_T5U8  COST  30.8435  DEM_T5  1
    X_T5U8  SU_T5U8  1  SU_T6U8  -1
    X_T5U9  COST  28.7306  DEM_T5  1
    X_T5U9  SU_T5U9  1  SU_T6U9  -1
    X_T5U10  COST  13.1648  DEM_T5  1
    X_T5U10  SU_T5U10  1  SU_T6U10  -1
    X_T5U11  COST  16.5532  DEM_T5  1
    X_T5U11  SU_T5U11  1  SU_T6U11  -1
    X_T5U12  COST  36.4984  DEM_T5  1
    X_T5U12  SU_T5U12  1  SU_T6U12  -1
    X_T6U1  COST  13.6626  DEM_T6  1
    X_T6U1  SU_T6U1  1  SU_T7U1  -1
    X_T6U2  COST  37.2049  DEM_T6  1
    X_T6U2  SU_T6U2  1  SU_T7U2  -1
    X_T6U3  COST  29.4307  DEM_T6  1
    X_T6U3  SU_T6U3  1  SU_T7U3  -1
    X_T6U4  COST  20.5771  DEM_T6  1
    X_T6U4  SU_T6U4  1  SU_T7U4  -1
    X_T6U5  COST  14.9397  DEM_T6  1
    X_T6U5  SU_T6U5  1  SU_T7U5  -1
    X_T6U6  COST  24.5449  DEM_T6  1
    X_T6U6  SU_T6U6  1  SU_T7U6  -1
    X_T6U7  COST  18.0824  DEM_T6  1
    X_T6U7  SU_T6U7  1  SU_T7U7  -1
    X_T6U8  COST  15.0487  DEM_T6  1
    X_T6U8  SU_T6U8  1  SU_T7U8  -1
    X_T6U9  COST  26.7431  DEM_T6  1
    X_T6U9  SU_T6U9  1  SU_T7U9  -1
    X_T6U10  COST  11.9468  DEM_T6  1
    X_T6U10  SU_T6U10  1  SU_T7U10  -1
    X_T6U11  COST  17.4063  DEM_T6  1
    X_T6U11  SU_T6U11  1  SU_T7U11  -1
    X_T6U12  COST  31.3681  DEM_T6  1
    X_T6U12  SU_T6U12  1  SU_T7U12  -1
    X_T7U1  COST  39.9322  DEM_T7  1
    X_T7U1  SU_T7U1  1  SU_T8U1  -1
    X_T7U2  COST  39.2984  DEM_T7  1
    X_T7U2  SU_T7U2  1  SU_T8U2  -1
    X_T7U3  COST  10.9915  DEM_T7  1
    X_T7U3  SU_T7U3  1  SU_T8U3  -1
    X_T7U4  COST  29.0305  DEM_T7  1
    X_T7U4  SU_T7U4  1  SU_T8U4  -1
    X_T7U5  COST  25.928  DEM_T7  1
    X_T7U5  SU_T7U5  1  SU_T8U5  -1
    X_T7U6  COST  26.5868  DEM_T7  1
    X_T7U6  SU_T7U6  1  SU_T8U6  -1
    X_T7U7  COST  12.4256  DEM_T7  1
    X_T7U7  SU_T7U7  1  SU_T8U7  -1
    X_T7U8  COST  17.2648  DEM_T7  1
    X_T7U8  SU_T7U8  1  SU_T8U8  -1
    X_T7U9  COST  24.109  DEM_T7  1
    X_T7U9  SU_T7U9  1  SU_T8U9  -1
    X_T7U10  COST  21.9647  DEM_T7  1
    X_T7U10  SU_T7U10  1  SU_T8U10  -1
    X_T7U11  COST  33.9504  DEM_T7  1
    X_T7U11  SU_T7U11  1  SU_T8U11  -1
    X_T7U12  COST  25.246  DEM_T7  1
    X_T7U12  SU_T7U12  1  SU_T8U12  -1
    X_T8U1  COST  35.7508  DEM_T8  1
    X_T8U1  SU_T8U1  1  SU_T9U1  -1
    X_T8U2  COST  16.6072  DEM_T8  1
    X_T8U2  SU_T8U2  1  SU_T9U2  -1
    X_T8U3  COST  34.285  DEM_T8  1
    X_T8U3  SU_T8U3  1  SU_T9U3  -1
    X_T8U4  COST  12.8853  DEM_T8  1
    X_T8U4  SU_T8U4  1  SU_T9U4  -1
    X_T8U5  COST  21.9272  DEM_T8  1
    X_T8U5  SU_T8U5  1  SU_T9U5  -1
    X_T8U6  COST  35.1313  DEM_T8  1
    X_T8U6  SU_T8U6  1  SU_T9U6  -1
    X_T8U7  COST  32.0565  DEM_T8  1
    X_T8U7  SU_T8U7  1  SU_T9U7  -1
    X_T8U8  COST  26.2434  DEM_T8  1
    X_T8U8  SU_T8U8  1  SU_T9U8  -1
    X_T8U9  COST  16.8565  DEM_T8  1
    X_T8U9  SU_T8U9  1  SU_T9U9  -1
    X_T8U10  COST  39.4651  DEM_T8  1
    X_T8U10  SU_T8U10  1  SU_T9U10  -1
    X_T8U11  COST  17.8249  DEM_T8  1
    X_T8U11  SU_T8U11  1  SU_T9U11  -1
    X_T8U12  COST  38.9626  DEM_T8  1
    X_T8U12  SU_T8U12  1  SU_T9U12  -1
    X_T9U1  COST  36.4791  DEM_T9  1
    X_T9U1  SU_T9U1  1  SU_T10U1  -1
    X_T9U2  COST  18.3661  DEM_T9  1
    X_T9U2  SU_T9U2  1  SU_T10U2  -1
    X_T9U3  COST  35.3998  DEM_T9  1
    X_T9U3  SU_T9U3  1  SU_T10U3  -1
    X_T9U4  COST  22.1352  DEM_T9  1
    X_T9U4  SU_T9U4  1  SU_T10U4  -1
    X_T9U5  COST  35.5279  DEM_T9  1
    X_T9U5  SU_T9U5  1  SU_T10U5  -1
    X_T9U6  COST  33.5602  DEM_T9  1
    X_T9U6  SU_T9U6  1  SU_T10U6  -1
    X_T9U7  COST  27.4206  DEM_T9  1
    X_T9U7  SU_T9U7  1  SU_T10U7  -1
    X_T9U8  COST  38.204  DEM_T9  1
    X_T9U8  SU_T9U8  1  SU_T10U8  -1
    X_T9U9  COST  18.5176  DEM_T9  1
    X_T9U9  SU_T9U9  1  SU_T10U9  -1
    X_T9U10  COST  24.5684  DEM_T9  1
    X_T9U10  SU_T9U10  1  SU_T10U10  -1
    X_T9U11  COST  39.8337  DEM_T9  1
    X_T9U11  SU_T9U11  1  SU_T10U11  -1
    X_T9U12  COST  10.5423  DEM_T9  1
    X_T9U12  SU_T9U12  1  SU_T10U12  -1
    X_T10U1  COST  15.3647  DEM_T10  1
    X_T10U1  SU_T10U1  1  SU_T11U1  -1
    X_T10U2  COST  32.3251  DEM_T10  1
    X_T10U2  SU_T10U2  1  SU_T11U2  -1
    X_T10U3  COST  19.2418  DEM_T10  1
    X_T10U3  SU_T10U3  1  SU_T11U3  -1
    X_T10U4  COST  25.2644  DEM_T10  1
    X_T10U4  SU_T10U4  1  SU_T11U4  -1
    X_T10U5  COST  17.5139  DEM_T10  1
    X_T10U5  SU_T10U5  1  SU_T11U5  -1
    X_T10U6  COST  39.3668  DEM_T10  1
    X_T10U6  SU_T10U6  1  SU_T11U6  -1
    X_T10U7  COST  37.183  DEM_T10  1
    X_T10U7  SU_T10U7  1  SU_T11U7  -1
    X_T10U8  COST  20.5024  DEM_T10  1
    X_T10U8  SU_T10U8  1  SU_T11U8  -1
    X_T10U9  COST  30.0677  DEM_T10  1
    X_T10U9  SU_T10U9  1  SU_T11U9  -1
    X_T10U10  COST  16.9056  DEM_T10  1
    X_T10U10  SU_T10U10  1  SU_T11U10  -1
    X_T10U11  COST  27.1601  DEM_T10  1
    X_T10U11  SU_T10U11  1  SU_T11U11  -1
    X_T10U12  COST  11.3081  DEM_T10  1
    X_T10U12  SU_T10U12  1  SU_T11U12  -1
    X_T11U1  COST  24.0983  DEM_T11  1
    X_T11U1  SU_T11U1  1  SU_T12U1  -1
    X_T11U2  COST  36.5048  DEM_T11  1
    X_T11U2  SU_T11U2  1  SU_T12U2  -1
    X_T11U3  COST  38.5922  DEM_T11  1
    X_T11U3  SU_T11U3  1  SU_T12U3  -1
    X_T11U4  COST  26.5829  DEM_T11  1
    X_T11U4  SU_T11U4  1  SU_T12U4  -1
    X_T11U5  COST  39.4099  DEM_T11  1
    X_T11U5  SU_T11U5  1  SU_T12U5  -1
    X_T11U6  COST  19.1709  DEM_T11  1
    X_T11U6  SU_T11U6  1  SU_T12U6  -1
    X_T11U7  COST  18.0542  DEM_T11  1
    X_T11U7  SU_T11U7  1  SU_T12U7  -1
    X_T11U8  COST  21.1806  DEM_T11  1
    X_T11U8  SU_T11U8  1  SU_T12U8  -1
    X_T11U9  COST  35.3264  DEM_T11  1
    X_T11U9  SU_T11U9  1  SU_T12U9  -1
    X_T11U10  COST  12.1125  DEM_T11  1
    X_T11U10  SU_T11U10  1  SU_T12U10  -1
    X_T11U11  COST  30.1343  DEM_T11  1
    X_T11U11  SU_T11U11  1  SU_T12U11  -1
    X_T11U12  COST  17.6249  DEM_T11  1
    X_T11U12  SU_T11U12  1  SU_T12U12  -1
    X_T12U1  COST  19.6765  DEM_T12  1
    X_T12U1  SU_T12U1  1  SU_T13U1  -1
    X_T12U2  COST  14.0986  DEM_T12  1
    X_T12U2  SU_T12U2  1  SU_T13U2  -1
    X_T12U3  COST  26.5846  DEM_T12  1
    X_T12U3  SU_T12U3  1  SU_T13U3  -1
    X_T12U4  COST  22.5934  DEM_T12  1
    X_T12U4  SU_T12U4  1  SU_T13U4  -1
    X_T12U5  COST  28.3454  DEM_T12  1
    X_T12U5  SU_T12U5  1  SU_T13U5  -1
    X_T12U6  COST  10.1555  DEM_T12  1
    X_T12U6  SU_T12U6  1  SU_T13U6  -1
    X_T12U7  COST  15.8282  DEM_T12  1
    X_T12U7  SU_T12U7  1  SU_T13U7  -1
    X_T12U8  COST  21.9035  DEM_T12  1
    X_T12U8  SU_T12U8  1  SU_T13U8  -1
    X_T12U9  COST  36.5985  DEM_T12  1
    X_T12U9  SU_T12U9  1  SU_T13U9  -1
    X_T12U10  COST  27.3659  DEM_T12  1
    X_T12U10  SU_T12U10  1  SU_T13U10  -1
    X_T12U11  COST  30.1608  DEM_T12  1
    X_T12U11  SU_T12U11  1  SU_T13U11  -1
    X_T12U12  COST  14.6512  DEM_T12  1
    X_T12U12  SU_T12U12  1  SU_T13U12  -1
    X_T13U1  COST  35.168  DEM_T13  1
    X_T13U1  SU_T13U1  1  SU_T14U1  -1
    X_T13U2  COST  17.5075  DEM_T13  1
    X_T13U2  SU_T13U2  1  SU_T14U2  -1
    X_T13U3  COST  19.098  DEM_T13  1
    X_T13U3  SU_T13U3  1  SU_T14U3  -1
    X_T13U4  COST  19.7995  DEM_T13  1
    X_T13U4  SU_T13U4  1  SU_T14U4  -1
    X_T13U5  COST  18.1463  DEM_T13  1
    X_T13U5  SU_T13U5  1  SU_T14U5  -1
    X_T13U6  COST  23.718  DEM_T13  1
    X_T13U6  SU_T13U6  1  SU_T14U6  -1
    X_T13U7  COST  15.8314  DEM_T13  1
    X_T13U7  SU_T13U7  1  SU_T14U7  -1
    X_T13U8  COST  30.9854  DEM_T13  1
    X_T13U8  SU_T13U8  1  SU_T14U8  -1
    X_T13U9  COST  13.9824  DEM_T13  1
    X_T13U9  SU_T13U9  1  SU_T14U9  -1
    X_T13U10  COST  31.4379  DEM_T13  1
    X_T13U10  SU_T13U10  1  SU_T14U10  -1
    X_T13U11  COST  21.9646  DEM_T13  1
    X_T13U11  SU_T13U11  1  SU_T14U11  -1
    X_T13U12  COST  32.3213  DEM_T13  1
    X_T13U12  SU_T13U12  1  SU_T14U12  -1
    X_T14U1  COST  15.53  DEM_T14  1
    X_T14U1  SU_T14U1  1  SU_T15U1  -1
    X_T14U2  COST  22.8494  DEM_T14  1
    X_T14U2  SU_T14U2  1  SU_T15U2  -1
    X_T14U3  COST  11.7458  DEM_T14  1
    X_T14U3  SU_T14U3  1  SU_T15U3  -1
    X_T14U4  COST  23.2706  DEM_T14  1
    X_T14U4  SU_T14U4  1  SU_T15U4  -1
    X_T14U5  COST  12.8162  DEM_T14  1
    X_T14U5  SU_T14U5  1  SU_T15U5  -1
    X_T14U6  COST  38.0384  DEM_T14  1
    X_T14U6  SU_T14U6  1  SU_T15U6  -1
    X_T14U7  COST  25.5009  DEM_T14  1
    X_T14U7  SU_T14U7  1  SU_T15U7  -1
    X_T14U8  COST  23.0702  DEM_T14  1
    X_T14U8  SU_T14U8  1  SU_T15U8  -1
    X_T14U9  COST  11.4315  DEM_T14  1
    X_T14U9  SU_T14U9  1  SU_T15U9  -1
    X_T14U10  COST  14.7594  DEM_T14  1
    X_T14U10  SU_T14U10  1  SU_T15U10  -1
    X_T14U11  COST  20.2564  DEM_T14  1
    X_T14U11  SU_T14U11  1  SU_T15U11  -1
    X_T14U12  COST  12.8247  DEM_T14  1
    X_T14U12  SU_T14U12  1  SU_T15U12  -1
    X_T15U1  COST  39.3853  DEM_T15  1
    X_T15U1  SU_T15U1  1  SU_T16U1  -1
    X_T15U2  COST  10.5148  DEM_T15  1
    X_T15U2  SU_T15U2  1  SU_T16U2  -1
    X_T15U3  COST  34.2074  DEM_T15  1
    X_T15U3  SU_T15U3  1  SU_T16U3  -1
    X_T15U4  COST  23.9402  DEM_T15  1
    X_T15U4  SU_T15U4  1  SU_T16U4  -1
    X_T15U5  COST  11.4418  DEM_T15  1
    X_T15U5  SU_T15U5  1  SU_T16U5  -1
    X_T15U6  COST  36.6004  DEM_T15  1
    X_T15U6  SU_T15U6  1  SU_T16U6  -1
    X_T15U7  COST  10.4591  DEM_T15  1
    X_T15U7  SU_T15U7  1  SU_T16U7  -1
    X_T15U8  COST  25.0312  DEM_T15  1
    X_T15U8  SU_T15U8  1  SU_T16U8  -1
    X_T15U9  COST  30.5189  DEM_T15  1
    X_T15U9  SU_T15U9  1  SU_T16U9  -1
    X_T15U10  COST  38.3167  DEM_T15  1
    X_T15U10  SU_T15U10  1  SU_T16U10  -1
    X_T15U11  COST  36.016  DEM_T15  1
    X_T15U11  SU_T15U11  1  SU_T16U11  -1
    X_T15U12  COST  34.0285  DEM_T15  1
    X_T15U12  SU_T15U12  1  SU_T16U12  -1
    X_T16U1  COST  27.201  DEM_T16  1
    X_T16U1  SU_T16U1  1  SU_T17U1  -1
    X_T16U2  COST  34.3361  DEM_T16  1
    X_T16U2  SU_T16U2  1  SU_T17U2  -1
    X_T16U3  COST  28.7782  DEM_T16  1
    X_T16U3  SU_T16U3  1  SU_T17U3  -1
    X_T16U4  COST  29.5445  DEM_T16  1
    X_T16U4  SU_T16U4  1  SU_T17U4  -1
    X_T16U5  COST  18.2188  DEM_T16  1
    X_T16U5  SU_T16U5  1  SU_T17U5  -1
    X_T16U6  COST  21.3178  DEM_T16  1
    X_T16U6  SU_T16U6  1  SU_T17U6  -1
    X_T16U7  COST  28.5476  DEM_T16  1
    X_T16U7  SU_T16U7  1  SU_T17U7  -1
    X_T16U8  COST  29.6717  DEM_T16  1
    X_T16U8  SU_T16U8  1  SU_T17U8  -1
    X_T16U9  COST  30.4484  DEM_T16  1
    X_T16U9  SU_T16U9  1  SU_T17U9  -1
    X_T16U10  COST  17.8208  DEM_T16  1
    X_T16U10  SU_T16U10  1  SU_T17U10  -1
    X_T16U11  COST  30.7867  DEM_T16  1
    X_T16U11  SU_T16U11  1  SU_T17U11  -1
    X_T16U12  COST  38.0994  DEM_T16  1
    X_T16U12  SU_T16U12  1  SU_T17U12  -1
    X_T17U1  COST  22.5384  DEM_T17  1
    X_T17U1  SU_T17U1  1  SU_T18U1  -1
    X_T17U2  COST  26.4392  DEM_T17  1
    X_T17U2  SU_T17U2  1  SU_T18U2  -1
    X_T17U3  COST  27.0556  DEM_T17  1
    X_T17U3  SU_T17U3  1  SU_T18U3  -1
    X_T17U4  COST  31.9494  DEM_T17  1
    X_T17U4  SU_T17U4  1  SU_T18U4  -1
    X_T17U5  COST  17.5005  DEM_T17  1
    X_T17U5  SU_T17U5  1  SU_T18U5  -1
    X_T17U6  COST  36.0135  DEM_T17  1
    X_T17U6  SU_T17U6  1  SU_T18U6  -1
    X_T17U7  COST  17.1579  DEM_T17  1
    X_T17U7  SU_T17U7  1  SU_T18U7  -1
    X_T17U8  COST  32.1973  DEM_T17  1
    X_T17U8  SU_T17U8  1  SU_T18U8  -1
    X_T17U9  COST  21.3319  DEM_T17  1
    X_T17U9  SU_T17U9  1  SU_T18U9  -1
    X_T17U10  COST  24.8968  DEM_T17  1
    X_T17U10  SU_T17U10  1  SU_T18U10  -1
    X_T17U11  COST  18.9291  DEM_T17  1
    X_T17U11  SU_T17U11  1  SU_T18U11  -1
    X_T17U12  COST  11.6046  DEM_T17  1
    X_T17U12  SU_T17U12  1  SU_T18U12  -1
    X_T18U1  COST  35.4143  DEM_T18  1
    X_T18U1  SU_T18U1  1  SU_T19U1  -1
    X_T18U2  COST  38.704  DEM_T18  1
    X_T18U2  SU_T18U2  1  SU_T19U2  -1
    X_T18U3  COST  24.4756  DEM_T18  1
    X_T18U3  SU_T18U3  1  SU_T19U3  -1
    X_T18U4  COST  12.4985  DEM_T18  1
    X_T18U4  SU_T18U4  1  SU_T19U4  -1
    X_T18U5  COST  28.0732  DEM_T18  1
    X_T18U5  SU_T18U5  1  SU_T19U5  -1
    X_T18U6  COST  16.3818  DEM_T18  1
    X_T18U6  SU_T18U6  1  SU_T19U6  -1
    X_T18U7  COST  33.4389  DEM_T18  1
    X_T18U7  SU_T18U7  1  SU_T19U7  -1
    X_T18U8  COST  37.9279  DEM_T18  1
    X_T18U8  SU_T18U8  1  SU_T19U8  -1
    X_T18U9  COST  39.8779  DEM_T18  1
    X_T18U9  SU_T18U9  1  SU_T19U9  -1
    X_T18U10  COST  32.1111  DEM_T18  1
    X_T18U10  SU_T18U10  1  SU_T19U10  -1
    X_T18U11  COST  31.1749  DEM_T18  1
    X_T18U11  SU_T18U11  1  SU_T19U11  -1
    X_T18U12  COST  30.6409  DEM_T18  1
    X_T18U12  SU_T18U12  1  SU_T19U12  -1
    X_T19U1  COST  36.0061  DEM_T19  1
    X_T19U1  SU_T19U1  1  SU_T20U1  -1
    X_T19U2  COST  22.7827  DEM_T19  1
    X_T19U2  SU_T19U2  1  SU_T20U2  -1
    X_T19U3  COST  21.8995  DEM_T19  1
    X_T19U3  SU_T19U3  1  SU_T20U3  -1
    X_T19U4  COST  14.3981  DEM_T19  1
    X_T19U4  SU_T19U4  1  SU_T20U4  -1
    X_T19U5  COST  16.9968  DEM_T19  1
    X_T19U5  SU_T19U5  1  SU_T20U5  -1
    X_T19U6  COST  35.8942  DEM_T19  1
    X_T19U6  SU_T19U6  1  SU_T20U6  -1
    X_T19U7  COST  17.1006  DEM_T19  1
    X_T19U7  SU_T19U7  1  SU_T20U7  -1
    X_T19U8  COST  27.7567  DEM_T19  1
    X_T19U8  SU_T19U8  1  SU_T20U8  -1
    X_T19U9  COST  31.2454  DEM_T19  1
    X_T19U9  SU_T19U9  1  SU_T20U9  -1
    X_T19U10  COST  21.3396  DEM_T19  1
    X_T19U10  SU_T19U10  1  SU_T20U10  -1
    X_T19U11  COST  17.4617  DEM_T19  1
    X_T19U11  SU_T19U11  1  SU_T20U11  -1
    X_T19U12  COST  23.0336  DEM_T19  1
    X_T19U12  SU_T19U12  1  SU_T20U12  -1
    X_T20U1  COST  22.1561  DEM_T20  1
    X_T20U1  SU_T20U1  1  SU_T21U1  -1
    X_T20U2  COST  32.2292  DEM_T20  1
    X_T20U2  SU_T20U2  1  SU_T21U2  -1
    X_T20U3  COST  34.6837  DEM_T20  1
    X_T20U3  SU_T20U3  1  SU_T21U3  -1
    X_T20U4  COST  30.4312  DEM_T20  1
    X_T20U4  SU_T20U4  1  SU_T21U4  -1
    X_T20U5  COST  22.0067  DEM_T20  1
    X_T20U5  SU_T20U5  1  SU_T21U5  -1
    X_T20U6  COST  12.4867  DEM_T20  1
    X_T20U6  SU_T20U6  1  SU_T21U6  -1
    X_T20U7  COST  23.0901  DEM_T20  1
    X_T20U7  SU_T20U7  1  SU_T21U7  -1
    X_T20U8  COST  39.337  DEM_T20  1
    X_T20U8  SU_T20U8  1  SU_T21U8  -1
    X_T20U9  COST  19.6806  DEM_T20  1
    X_T20U9  SU_T20U9  1  SU_T21U9  -1
    X_T20U10  COST  37.7393  DEM_T20  1
    X_T20U10  SU_T20U10  1  SU_T21U10  -1
    X_T20U11  COST  17.5897  DEM_T20  1
    X_T20U11  SU_T20U11  1  SU_T21U11  -1
    X_T20U12  COST  12.263  DEM_T20  1
    X_T20U12  SU_T20U12  1  SU_T21U12  -1
    X_T21U1  COST  16.5043  DEM_T21  1
    X_T21U1  SU_T21U1  1  SU_T22U1  -1
    X_T21U2  COST  39.8749  DEM_T21  1
    X_T21U2  SU_T21U2  1  SU_T22U2  -1
    X_T21U3  COST  21.5261  DEM_T21  1
    X_T21U3  SU_T21U3  1  SU_T22U3  -1
    X_T21U4  COST  37.4576  DEM_T21  1
    X_T21U4  SU_T21U4  1  SU_T22U4  -1
    X_T21U5  COST  11.7359  DEM_T21  1
    X_T21U5  SU_T21U5  1  SU_T22U5  -1
    X_T21U6  COST  13.2027  DEM_T21  1
    X_T21U6  SU_T21U6  1  SU_T22U6  -1
    X_T21U7  COST  15.0904  DEM_T21  1
    X_T21U7  SU_T21U7  1  SU_T22U7  -1
    X_T21U8  COST  21.6481  DEM_T21  1
    X_T21U8  SU_T21U8  1  SU_T22U8  -1
    X_T21U9  COST  17.9781  DEM_T21  1
    X_T21U9  SU_T21U9  1  SU_T22U9  -1
    X_T21U10  COST  17.7985  DEM_T21  1
    X_T21U10  SU_T21U10  1  SU_T22U10  -1
    X_T21U11  COST  10.9695  DEM_T21  1
    X_T21U11  SU_T21U11  1  SU_T22U11  -1
    X_T21U12  COST  22.3362  DEM_T21  1
    X_T21U12  SU_T21U12  1  SU_T22U12  -1
    X_T22U1  COST  18.1287  DEM_T22  1
    X_T22U1  SU_T22U1  1  SU_T23U1  -1
    X_T22U2  COST  12.286  DEM_T22  1
    X_T22U2  SU_T22U2  1  SU_T23U2  -1
    X_T22U3  COST  22.4992  DEM_T22  1
    X_T22U3  SU_T22U3  1  SU_T23U3  -1
    X_T22U4  COST  37.5753  DEM_T22  1
    X_T22U4  SU_T22U4  1  SU_T23U4  -1
    X_T22U5  COST  36.2998  DEM_T22  1
    X_T22U5  SU_T22U5  1  SU_T23U5  -1
    X_T22U6  COST  14.945  DEM_T22  1
    X_T22U6  SU_T22U6  1  SU_T23U6  -1
    X_T22U7  COST  33.3281  DEM_T22  1
    X_T22U7  SU_T22U7  1  SU_T23U7  -1
    X_T22U8  COST  39.5586  DEM_T22  1
    X_T22U8  SU_T22U8  1  SU_T23U8  -1
    X_T22U9  COST  32.4873  DEM_T22  1
    X_T22U9  SU_T22U9  1  SU_T23U9  -1
    X_T22U10  COST  34.8749  DEM_T22  1
    X_T22U10  SU_T22U10  1  SU_T23U10  -1
    X_T22U11  COST  11.9054  DEM_T22  1
    X_T22U11  SU_T22U11  1  SU_T23U11  -1
    X_T22U12  COST  14.0156  DEM_T22  1
    X_T22U12  SU_T22U12  1  SU_T23U12  -1
    X_T23U1  COST  12.2608  DEM_T23  1
    X_T23U1  SU_T23U1  1  SU_T24U1  -1
    X_T23U2  COST  26.0304  DEM_T23  1
    X_T23U2  SU_T23U2  1  SU_T24U2  -1
    X_T23U3  COST  37.395  DEM_T23  1
    X_T23U3  SU_T23U3  1  SU_T24U3  -1
    X_T23U4  COST  31.7836  DEM_T23  1
    X_T23U4  SU_T23U4  1  SU_T24U4  -1
    X_T23U5  COST  21.3355  DEM_T23  1
    X_T23U5  SU_T23U5  1  SU_T24U5  -1
    X_T23U6  COST  16.1514  DEM_T23  1
    X_T23U6  SU_T23U6  1  SU_T24U6  -1
    X_T23U7  COST  18.242  DEM_T23  1
    X_T23U7  SU_T23U7  1  SU_T24U7  -1
    X_T23U8  COST  36.3466  DEM_T23  1
    X_T23U8  SU_T23U8  1  SU_T24U8  -1
    X_T23U9  COST  11.4069  DEM_T23  1
    X_T23U9  SU_T23U9  1  SU_T24U9  -1
    X_T23U10  COST  10.6655  DEM_T23  1
    X_T23U10  SU_T23U10  1  SU_T24U10  -1
    X_T23U11  COST  24.2863  DEM_T23  1
    X_T23U11  SU_T23U11  1  SU_T24U11  -1
    X_T23U12  COST  19.2333  DEM_T23  1
    X_T23U12  SU_T23U12  1  SU_T24U12  -1
    X_T24U1  COST  39.0392  DEM_T24  1
    X_T24U1  SU_T24U1  1  SU_T25U1  -1
    X_T24U2  COST  33.7545  DEM_T24  1
    X_T24U2  SU_T24U2  1  SU_T25U2  -1
    X_T24U3  COST  24.4014  DEM_T24  1
    X_T24U3  SU_T24U3  1  SU_T25U3  -1
    X_T24U4  COST  33.54  DEM_T24  1
    X_T24U4  SU_T24U4  1  SU_T25U4  -1
    X_T24U5  COST  34.1513  DEM_T24  1
    X_T24U5  SU_T24U5  1  SU_T25U5  -1
    X_T24U6  COST  28.5179  DEM_T24  1
    X_T24U6  SU_T24U6  1  SU_T25U6  -1
    X_T24U7  COST  28.2426  DEM_T24  1
    X_T24U7  SU_T24U7  1  SU_T25U7  -1
    X_T24U8  COST  26.6445  DEM_T24  1
    X_T24U8  SU_T24U8  1  SU_T25U8  -1
    X_T24U9  COST  31.7919  DEM_T24  1
    X_T24U9  SU_T24U9  1  SU_T25U9  -1
    X_T24U10  COST  23.5273  DEM_T24  1
    X_T24U10  SU_T24U10  1  SU_T25U10  -1
    X_T24U11  COST  18.9388  DEM_T24  1
    X_T24U11  SU_T24U11  1  SU_T25U11  -1
    X_T24U12  COST  30.9293  DEM_T24  1
    X_T24U12  SU_T24U12  1  SU_T25U12  -1
    X_T25U1  COST  23.7804  DEM_T25  1
    X_T25U1  SU_T25U1  1  SU_T26U1  -1
    X_T25U2  COST  33.0675  DEM_T25  1
    X_T25U2  SU_T25U2  1  SU_T26U2  -1
    X_T25U3  COST  11.3758  DEM_T25  1
    X_T25U3  SU_T25U3  1  SU_T26U3  -1
    X_T25U4  COST  20.4224  DEM_T25  1
    X_T25U4  SU_T25U4  1  SU_T26U4  -1
    X_T25U5  COST  27.3895  DEM_T25  1
    X_T25U5  SU_T25U5  1  SU_T26U5  -1
    X_T25U6  COST  26.1179  DEM_T25  1
    X_T25U6  SU_T25U6  1  SU_T26U6  -1
    X_T25U7  COST  27.543  DEM_T25  1
    X_T25U7  SU_T25U7  1  SU_T26U7  -1
    X_T25U8  COST  30.93  DEM_T25  1
    X_T25U8  SU_T25U8  1  SU_T26U8  -1
    X_T25U9  COST  30.895  DEM_T25  1
    X_T25U9  SU_T25U9  1  SU_T26U9  -1
    X_T25U10  COST  36.2295  DEM_T25  1
    X_T25U10  SU_T25U10  1  SU_T26U10  -1
    X_T25U11  COST  39.1933  DEM_T25  1
    X_T25U11  SU_T25U11  1  SU_T26U11  -1
    X_T25U12  COST  16.7155  DEM_T25  1
    X_T25U12  SU_T25U12  1  SU_T26U12  -1
    X_T26U1  COST  20.3525  DEM_T26  1
    X_T26U1  SU_T26U1  1  SU_T27U1  -1
    X_T26U2  COST  10.9541  DEM_T26  1
    X_T26U2  SU_T26U2  1  SU_T27U2  -1
    X_T26U3  COST  26.0327  DEM_T26  1
    X_T26U3  SU_T26U3  1  SU_T27U3  -1
    X_T26U4  COST  36.8265  DEM_T26  1
    X_T26U4  SU_T26U4  1  SU_T27U4  -1
    X_T26U5  COST  19.903  DEM_T26  1
    X_T26U5  SU_T26U5  1  SU_T27U5  -1
    X_T26U6  COST  12.7687  DEM_T26  1
    X_T26U6  SU_T26U6  1  SU_T27U6  -1
    X_T26U7  COST  30.6335  DEM_T26  1
    X_T26U7  SU_T26U7  1  SU_T27U7  -1
    X_T26U8  COST  14.7093  DEM_T26  1
    X_T26U8  SU_T26U8  1  SU_T27U8  -1
    X_T26U9  COST  10.0779  DEM_T26  1
    X_T26U9  SU_T26U9  1  SU_T27U9  -1
    X_T26U10  COST  12.5355  DEM_T26  1
    X_T26U10  SU_T26U10  1  SU_T27U10  -1
    X_T26U11  COST  39.5877  DEM_T26  1
    X_T26U11  SU_T26U11  1  SU_T27U11  -1
    X_T26U12  COST  37.7213  DEM_T26  1
    X_T26U12  SU_T26U12  1  SU_T27U12  -1
    X_T27U1  COST  32.7987  DEM_T27  1
    X_T27U1  SU_T27U1  1  SU_T28U1  -1
    X_T27U2  COST  31.6155  DEM_T27  1
    X_T27U2  SU_T27U2  1  SU_T28U2  -1
    X_T27U3  COST  14.4322  DEM_T27  1
    X_T27U3  SU_T27U3  1  SU_T28U3  -1
    X_T27U4  COST  30.615  DEM_T27  1
    X_T27U4  SU_T27U4  1  SU_T28U4  -1
    X_T27U5  COST  32.4885  DEM_T27  1
    X_T27U5  SU_T27U5  1  SU_T28U5  -1
    X_T27U6  COST  36.0164  DEM_T27  1
    X_T27U6  SU_T27U6  1  SU_T28U6  -1
    X_T27U7  COST  21.9149  DEM_T27  1
    X_T27U7  SU_T27U7  1  SU_T28U7  -1
    X_T27U8  COST  32.1222  DEM_T27  1
    X_T27U8  SU_T27U8  1  SU_T28U8  -1
    X_T27U9  COST  26.919  DEM_T27  1
    X_T27U9  SU_T27U9  1  SU_T28U9  -1
    X_T27U10  COST  12.6761  DEM_T27  1
    X_T27U10  SU_T27U10  1  SU_T28U10  -1
    X_T27U11  COST  16.9965  DEM_T27  1
    X_T27U11  SU_T27U11  1  SU_T28U11  -1
    X_T27U12  COST  24.2191  DEM_T27  1
    X_T27U12  SU_T27U12  1  SU_T28U12  -1
    X_T28U1  COST  29.4647  DEM_T28  1
    X_T28U1  SU_T28U1  1  SU_T29U1  -1
    X_T28U2  COST  27.526  DEM_T28  1
    X_T28U2  SU_T28U2  1  SU_T29U2  -1
    X_T28U3  COST  26.7323  DEM_T28  1
    X_T28U3  SU_T28U3  1  SU_T29U3  -1
    X_T28U4  COST  26.9338  DEM_T28  1
    X_T28U4  SU_T28U4  1  SU_T29U4  -1
    X_T28U5  COST  20.1234  DEM_T28  1
    X_T28U5  SU_T28U5  1  SU_T29U5  -1
    X_T28U6  COST  28.2267  DEM_T28  1
    X_T28U6  SU_T28U6  1  SU_T29U6  -1
    X_T28U7  COST  24.9474  DEM_T28  1
    X_T28U7  SU_T28U7  1  SU_T29U7  -1
    X_T28U8  COST  38.0108  DEM_T28  1
    X_T28U8  SU_T28U8  1  SU_T29U8  -1
    X_T28U9  COST  16.76  DEM_T28  1
    X_T28U9  SU_T28U9  1  SU_T29U9  -1
    X_T28U10  COST  24.6343  DEM_T28  1
    X_T28U10  SU_T28U10  1  SU_T29U10  -1
    X_T28U11  COST  12.6366  DEM_T28  1
    X_T28U11  SU_T28U11  1  SU_T29U11  -1
    X_T28U12  COST  11.6696  DEM_T28  1
    X_T28U12  SU_T28U12  1  SU_T29U12  -1
    X_T29U1  COST  11.5491  DEM_T29  1
    X_T29U1  SU_T29U1  1  SU_T30U1  -1
    X_T29U2  COST  30.9088  DEM_T29  1
    X_T29U2  SU_T29U2  1  SU_T30U2  -1
    X_T29U3  COST  36.8983  DEM_T29  1
    X_T29U3  SU_T29U3  1  SU_T30U3  -1
    X_T29U4  COST  37.5219  DEM_T29  1
    X_T29U4  SU_T29U4  1  SU_T30U4  -1
    X_T29U5  COST  39.252  DEM_T29  1
    X_T29U5  SU_T29U5  1  SU_T30U5  -1
    X_T29U6  COST  31.6869  DEM_T29  1
    X_T29U6  SU_T29U6  1  SU_T30U6  -1
    X_T29U7  COST  31.5537  DEM_T29  1
    X_T29U7  SU_T29U7  1  SU_T30U7  -1
    X_T29U8  COST  24.2986  DEM_T29  1
    X_T29U8  SU_T29U8  1  SU_T30U8  -1
    X_T29U9  COST  16.1523  DEM_T29  1
    X_T29U9  SU_T29U9  1  SU_T30U9  -1
    X_T29U10  COST  31.3286  DEM_T29  1
    X_T29U10  SU_T29U10  1  SU_T30U10  -1
    X_T29U11  COST  32.0874  DEM_T29  1
    X_T29U11  SU_T29U11  1  SU_T30U11  -1
    X_T29U12  COST  31.2169  DEM_T29  1
    X_T29U12  SU_T29U12  1  SU_T30U12  -1
    X_T30U1  COST  12.6187  DEM_T30  1
    X_T30U1  SU_T30U1  1  SU_T31U1  -1
    X_T30U2  COST  37.9604  DEM_T30  1
    X_T30U2  SU_T30U2  1  SU_T31U2  -1
    X_T30U3  COST  27.8165  DEM_T30  1
    X_T30U3  SU_T30U3  1  SU_T31U3  -1
    X_T30U4  COST  23.628  DEM_T30  1
    X_T30U4  SU_T30U4  1  SU_T31U4  -1
    X_T30U5  COST  26.4677  DEM_T30  1
    X_T30U5  SU_T30U5  1  SU_T31U5  -1
    X_T30U6  COST  30.5371  DEM_T30  1
    X_T30U6  SU_T30U6  1  SU_T31U6  -1
    X_T30U7  COST  14.1647  DEM_T30  1
    X_T30U7  SU_T30U7  1  SU_T31U7  -1
    X_T30U8  COST  13.5009  DEM_T30  1
    X_T30U8  SU_T30U8  1  SU_T31U8  -1
    X_T30U9  COST  28.1831  DEM_T30  1
    X_T30U9  SU_T30U9  1  SU_T31U9  -1
    X_T30U10  COST  13.201  DEM_T30  1
    X_T30U10  SU_T30U10  1  SU_T31U10  -1
    X_T30U11  COST  32.3792  DEM_T30  1
    X_T30U11  SU_T30U11  1  SU_T31U11  -1
    X_T30U12  COST  37.9881  DEM_T30  1
    X_T30U12  SU_T30U12  1  SU_T31U12  -1
    X_T31U1  COST  16.1501  DEM_T31  1
    X_T31U1  SU_T31U1  1  SU_T32U1  -1
    X_T31U2  COST  37.7935  DEM_T31  1
    X_T31U2  SU_T31U2  1  SU_T32U2  -1
    X_T31U3  COST  11.4428  DEM_T31  1
    X_T31U3  SU_T31U3  1  SU_T32U3  -1
    X_T31U4  COST  34.8382  DEM_T31  1
    X_T31U4  SU_T31U4  1  SU_T32U4  -1
    X_T31U5  COST  33.9861  DEM_T31  1
    X_T31U5  SU_T31U5  1  SU_T32U5  -1
    X_T31U6  COST  15.5921  DEM_T31  1
    X_T31U6  SU_T31U6  1  SU_T32U6  -1
    X_T31U7  COST  29.0128  DEM_T31  1
    X_T31U7  SU_T31U7  1  SU_T32U7  -1
    X_T31U8  COST  19.4859  DEM_T31  1
    X_T31U8  SU_T31U8  1  SU_T32U8  -1
    X_T31U9  COST  30.4895  DEM_T31  1
    X_T31U9  SU_T31U9  1  SU_T32U9  -1
    X_T31U10  COST  31.4135  DEM_T31  1
    X_T31U10  SU_T31U10  1  SU_T32U10  -1
    X_T31U11  COST  28.723  DEM_T31  1
    X_T31U11  SU_T31U11  1  SU_T32U11  -1
    X_T31U12  COST  23.1623  DEM_T31  1
    X_T31U12  SU_T31U12  1  SU_T32U12  -1
    X_T32U1  COST  20.6609  DEM_T32  1
    X_T32U1  SU_T32U1  1  SU_T33U1  -1
    X_T32U2  COST  25.9557  DEM_T32  1
    X_T32U2  SU_T32U2  1  SU_T33U2  -1
    X_T32U3  COST  16.8708  DEM_T32  1
    X_T32U3  SU_T32U3  1  SU_T33U3  -1
    X_T32U4  COST  22.9458  DEM_T32  1
    X_T32U4  SU_T32U4  1  SU_T33U4  -1
    X_T32U5  COST  31.9165  DEM_T32  1
    X_T32U5  SU_T32U5  1  SU_T33U5  -1
    X_T32U6  COST  15.0019  DEM_T32  1
    X_T32U6  SU_T32U6  1  SU_T33U6  -1
    X_T32U7  COST  24.8627  DEM_T32  1
    X_T32U7  SU_T32U7  1  SU_T33U7  -1
    X_T32U8  COST  27.1945  DEM_T32  1
    X_T32U8  SU_T32U8  1  SU_T33U8  -1
    X_T32U9  COST  32.5721  DEM_T32  1
    X_T32U9  SU_T32U9  1  SU_T33U9  -1
    X_T32U10  COST  33.3572  DEM_T32  1
    X_T32U10  SU_T32U10  1  SU_T33U10  -1
    X_T32U11  COST  16.1363  DEM_T32  1
    X_T32U11  SU_T32U11  1  SU_T33U11  -1
    X_T32U12  COST  24.8194  DEM_T32  1
    X_T32U12  SU_T32U12  1  SU_T33U12  -1
    X_T33U1  COST  13.0875  DEM_T33  1
    X_T33U1  SU_T33U1  1  SU_T34U1  -1
    X_T33U2  COST  21.3646  DEM_T33  1
    X_T33U2  SU_T33U2  1  SU_T34U2  -1
    X_T33U3  COST  28.1187  DEM_T33  1
    X_T33U3  SU_T33U3  1  SU_T34U3  -1
    X_T33U4  COST  26.1958  DEM_T33  1
    X_T33U4  SU_T33U4  1  SU_T34U4  -1
    X_T33U5  COST  22.2687  DEM_T33  1
    X_T33U5  SU_T33U5  1  SU_T34U5  -1
    X_T33U6  COST  10.3661  DEM_T33  1
    X_T33U6  SU_T33U6  1  SU_T34U6  -1
    X_T33U7  COST  26.9653  DEM_T33  1
    X_T33U7  SU_T33U7  1  SU_T34U7  -1
    X_T33U8  COST  27.9709  DEM_T33  1
    X_T33U8  SU_T33U8  1  SU_T34U8  -1
    X_T33U9  COST  38.7722  DEM_T33  1
    X_T33U9  SU_T33U9  1  SU_T34U9  -1
    X_T33U10  COST  16.8205  DEM_T33  1
    X_T33U10  SU_T33U10  1  SU_T34U10  -1
    X_T33U11  COST  18.6379  DEM_T33  1
    X_T33U11  SU_T33U11  1  SU_T34U11  -1
    X_T33U12  COST  37.3556  DEM_T33  1
    X_T33U12  SU_T33U12  1  SU_T34U12  -1
    X_T34U1  COST  13.0238  DEM_T34  1
    X_T34U1  SU_T34U1  1  SU_T35U1  -1
    X_T34U2  COST  31.7829  DEM_T34  1
    X_T34U2  SU_T34U2  1  SU_T35U2  -1
    X_T34U3  COST  13.0664  DEM_T34  1
    X_T34U3  SU_T34U3  1  SU_T35U3  -1
    X_T34U4  COST  33.7025  DEM_T34  1
    X_T34U4  SU_T34U4  1  SU_T35U4  -1
    X_T34U5  COST  29.541  DEM_T34  1
    X_T34U5  SU_T34U5  1  SU_T35U5  -1
    X_T34U6  COST  21.2331  DEM_T34  1
    X_T34U6  SU_T34U6  1  SU_T35U6  -1
    X_T34U7  COST  12.3196  DEM_T34  1
    X_T34U7  SU_T34U7  1  SU_T35U7  -1
    X_T34U8  COST  35.2132  DEM_T34  1
    X_T34U8  SU_T34U8  1  SU_T35U8  -1
    X_T34U9  COST  13.6843  DEM_T34  1
    X_T34U9  SU_T34U9  1  SU_T35U9  -1
    X_T34U10  COST  14.9656  DEM_T34  1
    X_T34U10  SU_T34U10  1  SU_T35U10  -1
    X_T34U11  COST  35.1247  DEM_T34  1
    X_T34U11  SU_T34U11  1  SU_T35U11  -1
    X_T34U12  COST  19.3433  DEM_T34  1
    X_T34U12  SU_T34U12  1  SU_T35U12  -1
    X_T35U1  COST  28.2368  DEM_T35  1
    X_T35U1  SU_T35U1  1  SU_T36U1  -1
    X_T35U2  COST  32.3275  DEM_T35  1
    X_T35U2  SU_T35U2  1  SU_T36U2  -1
    X_T35U3  COST  33.6337  DEM_T35  1
    X_T35U3  SU_T35U3  1  SU_T36U3  -1
    X_T35U4  COST  13.428  DEM_T35  1
    X_T35U4  SU_T35U4  1  SU_T36U4  -1
    X_T35U5  COST  35.9055  DEM_T35  1
    X_T35U5  SU_T35U5  1  SU_T36U5  -1
    X_T35U6  COST  23.971  DEM_T35  1
    X_T35U6  SU_T35U6  1  SU_T36U6  -1
    X_T35U7  COST  37.5536  DEM_T35  1
    X_T35U7  SU_T35U7  1  SU_T36U7  -1
    X_T35U8  COST  10.9854  DEM_T35  1
    X_T35U8  SU_T35U8  1  SU_T36U8  -1
    X_T35U9  COST  17.4468  DEM_T35  1
    X_T35U9  SU_T35U9  1  SU_T36U9  -1
    X_T35U10  COST  14.9654  DEM_T35  1
    X_T35U10  SU_T35U10  1  SU_T36U10  -1
    X_T35U11  COST  19.3442  DEM_T35  1
    X_T35U11  SU_T35U11  1  SU_T36U11  -1
    X_T35U12  COST  18.3276  DEM_T35  1
    X_T35U12  SU_T35U12  1  SU_T36U12  -1
    X_T36U1  COST  16.3804  DEM_T36  1
    X_T36U1  SU_T36U1  1  SU_T37U1  -1
    X_T36U2  COST  39.2662  DEM_T36  1
    X_T36U2  SU_T36U2  1  SU_T37U2  -1
    X_T36U3  COST  26.7192  DEM_T36  1
    X_T36U3  SU_T36U3  1  SU_T37U3  -1
    X_T36U4  COST  26.0521  DEM_T36  1
    X_T36U4  SU_T36U4  1  SU_T37U4  -1
    X_T36U5  COST  18.9879  DEM_T36  1
    X_T36U5  SU_T36U5  1  SU_T37U5  -1
    X_T36U6  COST  21.9195  DEM_T36  1
    X_T36U6  SU_T36U6  1  SU_T37U6  -1
    X_T36U7  COST  33.9935  DEM_T36  1
    X_T36U7  SU_T36U7  1  SU_T37U7  -1
    X_T36U8  COST  24.047  DEM_T36  1
    X_T36U8  SU_T36U8  1  SU_T37U8  -1
    X_T36U9  COST  21.3318  DEM_T36  1
    X_T36U9  SU_T36U9  1  SU_T37U9  -1
    X_T36U10  COST  27.6236  DEM_T36  1
    X_T36U10  SU_T36U10  1  SU_T37U10  -1
    X_T36U11  COST  31.4218  DEM_T36  1
    X_T36U11  SU_T36U11  1  SU_T37U11  -1
    X_T36U12  COST  26.0337  DEM_T36  1
    X_T36U12  SU_T36U12  1  SU_T37U12  -1
    X_T37U1  COST  24.9104  DEM_T37  1
    X_T37U1  SU_T37U1  1  SU_T38U1  -1
    X_T37U2  COST  13.0894  DEM_T37  1
    X_T37U2  SU_T37U2  1  SU_T38U2  -1
    X_T37U3  COST  12.2651  DEM_T37  1
    X_T37U3  SU_T37U3  1  SU_T38U3  -1
    X_T37U4  COST  18.1691  DEM_T37  1
    X_T37U4  SU_T37U4  1  SU_T38U4  -1
    X_T37U5  COST  25.7974  DEM_T37  1
    X_T37U5  SU_T37U5  1  SU_T38U5  -1
    X_T37U6  COST  39.3679  DEM_T37  1
    X_T37U6  SU_T37U6  1  SU_T38U6  -1
    X_T37U7  COST  36.0098  DEM_T37  1
    X_T37U7  SU_T37U7  1  SU_T38U7  -1
    X_T37U8  COST  26.5517  DEM_T37  1
    X_T37U8  SU_T37U8  1  SU_T38U8  -1
    X_T37U9  COST  15.8834  DEM_T37  1
    X_T37U9  SU_T37U9  1  SU_T38U9  -1
    X_T37U10  COST  27.8515  DEM_T37  1
    X_T37U10  SU_T37U10  1  SU_T38U10  -1
    X_T37U11  COST  27.0833  DEM_T37  1
    X_T37U11  SU_T37U11  1  SU_T38U11  -1
    X_T37U12  COST  26.7016  DEM_T37  1
    X_T37U12  SU_T37U12  1  SU_T38U12  -1
    X_T38U1  COST  34.1594  DEM_T38  1
    X_T38U1  SU_T38U1  1  SU_T39U1  -1
    X_T38U2  COST  28.0959  DEM_T38  1
    X_T38U2  SU_T38U2  1  SU_T39U2  -1
    X_T38U3  COST  38.8795  DEM_T38  1
    X_T38U3  SU_T38U3  1  SU_T39U3  -1
    X_T38U4  COST  14.2325  DEM_T38  1
    X_T38U4  SU_T38U4  1  SU_T39U4  -1
    X_T38U5  COST  19.7197  DEM_T38  1
    X_T38U5  SU_T38U5  1  SU_T39U5  -1
    X_T38U6  COST  28.9972  DEM_T38  1
    X_T38U6  SU_T38U6  1  SU_T39U6  -1
    X_T38U7  COST  35.4438  DEM_T38  1
    X_T38U7  SU_T38U7  1  SU_T39U7  -1
    X_T38U8  COST  36.2933  DEM_T38  1
    X_T38U8  SU_T38U8  1  SU_T39U8  -1
    X_T38U9  COST  31.1184  DEM_T38  1
    X_T38U9  SU_T38U9  1  SU_T39U9  -1
    X_T38U10  COST  28.7428  DEM_T38  1
    X_T38U10  SU_T38U10  1  SU_T39U10  -1
    X_T38U11  COST  34.7532  DEM_T38  1
    X_T38U11  SU_T38U11  1  SU_T39U11  -1
    X_T38U12  COST  11.0268  DEM_T38  1
    X_T38U12  SU_T38U12  1  SU_T39U12  -1
    X_T39U1  COST  20.3558  DEM_T39  1
    X_T39U1  SU_T39U1  1  SU_T40U1  -1
    X_T39U2  COST  20.8827  DEM_T39  1
    X_T39U2  SU_T39U2  1  SU_T40U2  -1
    X_T39U3  COST  16.5853  DEM_T39  1
    X_T39U3  SU_T39U3  1  SU_T40U3  -1
    X_T39U4  COST  33.3928  DEM_T39  1
    X_T39U4  SU_T39U4  1  SU_T40U4  -1
    X_T39U5  COST  26.9733  DEM_T39  1
    X_T39U5  SU_T39U5  1  SU_T40U5  -1
    X_T39U6  COST  24.132  DEM_T39  1
    X_T39U6  SU_T39U6  1  SU_T40U6  -1
    X_T39U7  COST  24.5434  DEM_T39  1
    X_T39U7  SU_T39U7  1  SU_T40U7  -1
    X_T39U8  COST  32.2506  DEM_T39  1
    X_T39U8  SU_T39U8  1  SU_T40U8  -1
    X_T39U9  COST  22.0765  DEM_T39  1
    X_T39U9  SU_T39U9  1  SU_T40U9  -1
    X_T39U10  COST  29.3516  DEM_T39  1
    X_T39U10  SU_T39U10  1  SU_T40U10  -1
    X_T39U11  COST  13.9683  DEM_T39  1
    X_T39U11  SU_T39U11  1  SU_T40U11  -1
    X_T39U12  COST  30.7367  DEM_T39  1
    X_T39U12  SU_T39U12  1  SU_T40U12  -1
    X_T40U1  COST  34.6775  DEM_T40  1
    X_T40U1  SU_T40U1  1  SU_T41U1  -1
    X_T40U2  COST  34.4516  DEM_T40  1
    X_T40U2  SU_T40U2  1  SU_T41U2  -1
    X_T40U3  COST  12.0153  DEM_T40  1
    X_T40U3  SU_T40U3  1  SU_T41U3  -1
    X_T40U4  COST  24.9239  DEM_T40  1
    X_T40U4  SU_T40U4  1  SU_T41U4  -1
    X_T40U5  COST  13.1974  DEM_T40  1
    X_T40U5  SU_T40U5  1  SU_T41U5  -1
    X_T40U6  COST  17.9105  DEM_T40  1
    X_T40U6  SU_T40U6  1  SU_T41U6  -1
    X_T40U7  COST  31.9655  DEM_T40  1
    X_T40U7  SU_T40U7  1  SU_T41U7  -1
    X_T40U8  COST  28.9929  DEM_T40  1
    X_T40U8  SU_T40U8  1  SU_T41U8  -1
    X_T40U9  COST  27.1988  DEM_T40  1
    X_T40U9  SU_T40U9  1  SU_T41U9  -1
    X_T40U10  COST  22.1314  DEM_T40  1
    X_T40U10  SU_T40U10  1  SU_T41U10  -1
    X_T40U11  COST  22.6611  DEM_T40  1
    X_T40U11  SU_T40U11  1  SU_T41U11  -1
    X_T40U12  COST  38.7588  DEM_T40  1
    X_T40U12  SU_T40U12  1  SU_T41U12  -1
    X_T41U1  COST  12.7101  DEM_T41  1
    X_T41U1  SU_T41U1  1  SU_T42U1  -1
    X_T41U2  COST  12.0475  DEM_T41  1
    X_T41U2  SU_T41U2  1  SU_T42U2  -1
    X_T41U3  COST  23.1158  DEM_T41  1
    X_T41U3  SU_T41U3  1  SU_T42U3  -1
    X_T41U4  COST  31.646  DEM_T41  1
    X_T41U4  SU_T41U4  1  SU_T42U4  -1
    X_T41U5  COST  38.4792  DEM_T41  1
    X_T41U5  SU_T41U5  1  SU_T42U5  -1
    X_T41U6  COST  38.6226  DEM_T41  1
    X_T41U6  SU_T41U6  1  SU_T42U6  -1
    X_T41U7  COST  24.5126  DEM_T41  1
    X_T41U7  SU_T41U7  1  SU_T42U7  -1
    X_T41U8  COST  26.1953  DEM_T41  1
    X_T41U8  SU_T41U8  1  SU_T42U8  -1
    X_T41U9  COST  35.2459  DEM_T41  1
    X_T41U9  SU_T41U9  1  SU_T42U9  -1
    X_T41U10  COST  38.6571  DEM_T41  1
    X_T41U10  SU_T41U10  1  SU_T42U10  -1
    X_T41U11  COST  28.7  DEM_T41  1
    X_T41U11  SU_T41U11  1  SU_T42U11  -1
    X_T41U12  COST  20.3315  DEM_T41  1
    X_T41U12  SU_T41U12  1  SU_T42U12  -1
    X_T42U1  COST  22.3838  DEM_T42  1
    X_T42U1  SU_T42U1  1  SU_T43U1  -1
    X_T42U2  COST  27.9486  DEM_T42  1
    X_T42U2  SU_T42U2  1  SU_T43U2  -1
    X_T42U3  COST  12.278  DEM_T42  1
    X_T42U3  SU_T42U3  1  SU_T43U3  -1
    X_T42U4  COST  10.0702  DEM_T42  1
    X_T42U4  SU_T42U4  1  SU_T43U4  -1
    X_T42U5  COST  10.1576  DEM_T42  1
    X_T42U5  SU_T42U5  1  SU_T43U5  -1
    X_T42U6  COST  19.4379  DEM_T42  1
    X_T42U6  SU_T42U6  1  SU_T43U6  -1
    X_T42U7  COST  38.863  DEM_T42  1
    X_T42U7  SU_T42U7  1  SU_T43U7  -1
    X_T42U8  COST  30.7168  DEM_T42  1
    X_T42U8  SU_T42U8  1  SU_T43U8  -1
    X_T42U9  COST  12.6012  DEM_T42  1
    X_T42U9  SU_T42U9  1  SU_T43U9  -1
    X_T42U10  COST  32.7518  DEM_T42  1
    X_T42U10  SU_T42U10  1  SU_T43U10  -1
    X_T42U11  COST  32.7711  DEM_T42  1
    X_T42U11  SU_T42U11  1  SU_T43U11  -1
    X_T42U12  COST  29.1169  DEM_T42  1
    X_T42U12  SU_T42U12  1  SU_T43U12  -1
    X_T43U1  COST  37.1009  DEM_T43  1
    X_T43U1  SU_T43U1  1  SU_T44U1  -1
    X_T43U2  COST  30.7953  DEM_T43  1
    X_T43U2  SU_T43U2  1  SU_T44U2  -1
    X_T43U3  COST  30.0975  DEM_T43  1
    X_T43U3  SU_T43U3  1  SU_T44U3  -1
    X_T43U4  COST  27.6479  DEM_T43  1
    X_T43U4  SU_T43U4  1  SU_T44U4  -1
    X_T43U5  COST  26.6742  DEM_T43  1
    X_T43U5  SU_T43U5  1  SU_T44U5  -1
    X_T43U6  COST  19.3856  DEM_T43  1
    X_T43U6  SU_T43U6  1  SU_T44U6  -1
    X_T43U7  COST  31.9307  DEM_T43  1
    X_T43U7  SU_T43U7  1  SU_T44U7  -1
    X_T43U8  COST  13.4585  DEM_T43  1
    X_T43U8  SU_T43U8  1  SU_T44U8  -1
    X_T43U9  COST  33.8603  DEM_T43  1
    X_T43U9  SU_T43U9  1  SU_T44U9  -1
    X_T43U10  COST  11.6465  DEM_T43  1
    X_T43U10  SU_T43U10  1  SU_T44U10  -1
    X_T43U11  COST  25.673  DEM_T43  1
    X_T43U11  SU_T43U11  1  SU_T44U11  -1
    X_T43U12  COST  29.505  DEM_T43  1
    X_T43U12  SU_T43U12  1  SU_T44U12  -1
    X_T44U1  COST  26.8203  DEM_T44  1
    X_T44U1  SU_T44U1  1  SU_T45U1  -1
    X_T44U2  COST  36.55  DEM_T44  1
    X_T44U2  SU_T44U2  1  SU_T45U2  -1
    X_T44U3  COST  23.231  DEM_T44  1
    X_T44U3  SU_T44U3  1  SU_T45U3  -1
    X_T44U4  COST  27.1728  DEM_T44  1
    X_T44U4  SU_T44U4  1  SU_T45U4  -1
    X_T44U5  COST  26.152  DEM_T44  1
    X_T44U5  SU_T44U5  1  SU_T45U5  -1
    X_T44U6  COST  32.1357  DEM_T44  1
    X_T44U6  SU_T44U6  1  SU_T45U6  -1
    X_T44U7  COST  22.8045  DEM_T44  1
    X_T44U7  SU_T44U7  1  SU_T45U7  -1
    X_T44U8  COST  22.5252  DEM_T44  1
    X_T44U8  SU_T44U8  1  SU_T45U8  -1
    X_T44U9  COST  39.7102  DEM_T44  1
    X_T44U9  SU_T44U9  1  SU_T45U9  -1
    X_T44U10  COST  15.5642  DEM_T44  1
    X_T44U10  SU_T44U10  1  SU_T45U10  -1
    X_T44U11  COST  37.9777  DEM_T44  1
    X_T44U11  SU_T44U11  1  SU_T45U11  -1
    X_T44U12  COST  10.2846  DEM_T44  1
    X_T44U12  SU_T44U12  1  SU_T45U12  -1
    X_T45U1  COST  12.6563  DEM_T45  1
    X_T45U1  SU_T45U1  1  SU_T46U1  -1
    X_T45U2  COST  24.3934  DEM_T45  1
    X_T45U2  SU_T45U2  1  SU_T46U2  -1
    X_T45U3  COST  18.1506  DEM_T45  1
    X_T45U3  SU_T45U3  1  SU_T46U3  -1
    X_T45U4  COST  12.751  DEM_T45  1
    X_T45U4  SU_T45U4  1  SU_T46U4  -1
    X_T45U5  COST  25.6756  DEM_T45  1
    X_T45U5  SU_T45U5  1  SU_T46U5  -1
    X_T45U6  COST  10.1004  DEM_T45  1
    X_T45U6  SU_T45U6  1  SU_T46U6  -1
    X_T45U7  COST  18.9101  DEM_T45  1
    X_T45U7  SU_T45U7  1  SU_T46U7  -1
    X_T45U8  COST  31.4666  DEM_T45  1
    X_T45U8  SU_T45U8  1  SU_T46U8  -1
    X_T45U9  COST  18.318  DEM_T45  1
    X_T45U9  SU_T45U9  1  SU_T46U9  -1
    X_T45U10  COST  11.353  DEM_T45  1
    X_T45U10  SU_T45U10  1  SU_T46U10  -1
    X_T45U11  COST  21.7489  DEM_T45  1
    X_T45U11  SU_T45U11  1  SU_T46U11  -1
    X_T45U12  COST  38.6925  DEM_T45  1
    X_T45U12  SU_T45U12  1  SU_T46U12  -1
    X_T46U1  COST  17.7695  DEM_T46  1
    X_T46U1  SU_T46U1  1  SU_T47U1  -1
    X_T46U2  COST  39.4699  DEM_T46  1
    X_T46U2  SU_T46U2  1  SU_T47U2  -1
    X_T46U3  COST  28.024  DEM_T46  1
    X_T46U3  SU_T46U3  1  SU_T47U3  -1
    X_T46U4  COST  39.6755  DEM_T46  1
    X_T46U4  SU_T46U4  1  SU_T47U4  -1
    X_T46U5  COST  11.9496  DEM_T46  1
    X_T46U5  SU_T46U5  1  SU_T47U5  -1
    X_T46U6  COST  35.1348  DEM_T46  1
    X_T46U6  SU_T46U6  1  SU_T47U6  -1
    X_T46U7  COST  34.9193  DEM_T46  1
    X_T46U7  SU_T46U7  1  SU_T47U7  -1
    X_T46U8  COST  11.4084  DEM_T46  1
    X_T46U8  SU_T46U8  1  SU_T47U8  -1
    X_T46U9  COST  11.102  DEM_T46  1
    X_T46U9  SU_T46U9  1  SU_T47U9  -1
    X_T46U10  COST  34.7862  DEM_T46  1
    X_T46U10  SU_T46U10  1  SU_T47U10  -1
    X_T46U11  COST  28.8933  DEM_T46  1
    X_T46U11  SU_T46U11  1  SU_T47U11  -1
    X_T46U12  COST  25.5478  DEM_T46  1
    X_T46U12  SU_T46U12  1  SU_T47U12  -1
    X_T47U1  COST  25.7509  DEM_T47  1
    X_T47U1  SU_T47U1  1  SU_T48U1  -1
    X_T47U2  COST  25.4574  DEM_T47  1
    X_T47U2  SU_T47U2  1  SU_T48U2  -1
    X_T47U3  COST  39.8901  DEM_T47  1
    X_T47U3  SU_T47U3  1  SU_T48U3  -1
    X_T47U4  COST  23.9014  DEM_T47  1
    X_T47U4  SU_T47U4  1  SU_T48U4  -1
    X_T47U5  COST  32.4361  DEM_T47  1
    X_T47U5  SU_T47U5  1  SU_T48U5  -1
    X_T47U6  COST  36.8476  DEM_T47  1
    X_T47U6  SU_T47U6  1  SU_T48U6  -1
    X_T47U7  COST  23.723  DEM_T47  1
    X_T47U7  SU_T47U7  1  SU_T48U7  -1
    X_T47U8  COST  18.1888  DEM_T47  1
    X_T47U8  SU_T47U8  1  SU_T48U8  -1
    X_T47U9  COST  11.3313  DEM_T47  1
    X_T47U9  SU_T47U9  1  SU_T48U9  -1
    X_T47U10  COST  11.0627  DEM_T47  1
    X_T47U10  SU_T47U10  1  SU_T48U10  -1
    X_T47U11  COST  37.9477  DEM_T47  1
    X_T47U11  SU_T47U11  1  SU_T48U11  -1
    X_T47U12  COST  18.4417  DEM_T47  1
    X_T47U12  SU_T47U12  1  SU_T48U12  -1
    X_T48U1  COST  10.1525  DEM_T48  1
    X_T48U1  SU_T48U1  1
    X_T48U2  COST  11.4635  DEM_T48  1
    X_T48U2  SU_T48U2  1
    X_T48U3  COST  38.8637  DEM_T48  1
    X_T48U3  SU_T48U3  1
    X_T48U4  COST  36.8344  DEM_T48  1
    X_T48U4  SU_T48U4  1
    X_T48U5  COST  11.8455  DEM_T48  1
    X_T48U5  SU_T48U5  1
    X_T48U6  COST  25.4824  DEM_T48  1
    X_T48U6  SU_T48U6  1
    X_T48U7  COST  27.1396  DEM_T48  1
    X_T48U7  SU_T48U7  1
    X_T48U8  COST  26.3134  DEM_T48  1
    X_T48U8  SU_T48U8  1
    X_T48U9  COST  32.0173  DEM_T48  1
    X_T48U9  SU_T48U9  1
    X_T48U10  COST  36.0448  DEM_T48  1
    X_T48U10  SU_T48U10  1
    X_T48U11  COST  14.7202  DEM_T48  1
    X_T48U11  SU_T48U11  1
    X_T48U12  COST  20.0203  DEM_T48  1
    X_T48U12  SU_T48U12  1
    S_T1U1  COST  77.5152  SU_T1U1  -1
    S_T1U2  COST  139.528  SU_T1U2  -1
    S_T1U3  COST  64.9962  SU_T1U3  -1
    S_T1U4  COST  100.056  SU_T1U4  -1
    S_T1U5  COST  147.633  SU_T1U5  -1
    S_T1U6  COST  158.3  SU_T1U6  -1
    S_T1U7  COST  50.1168  SU_T1U7  -1
    S_T1U8  COST  142.622  SU_T1U8  -1
    S_T1U9  COST  51.0599  SU_T1U9  -1
    S_T1U10  COST  128.716  SU_T1U10  -1
    S_T1U11  COST  56.9999  SU_T1U11  -1
    S_T1U12  COST  84.9157  SU_T1U12  -1
    S_T2U1  COST  142.758  SU_T2U1  -1
    S_T2U2  COST  197.485  SU_T2U2  -1
    S_T2U3  COST  178.991  SU_T2U3  -1
    S_T2U4  COST  117.575  SU_T2U4  -1
    S_T2U5  COST  191.33  SU_T2U5  -1
    S_T2U6  COST  107.812  SU_T2U6  -1
    S_T2U7  COST  84.6341  SU_T2U7  -1
    S_T2U8  COST  152.49  SU_T2U8  -1
    S_T2U9  COST  174.979  SU_T2U9  -1
    S_T2U10  COST  108.659  SU_T2U10  -1
    S_T2U11  COST  163.304  SU_T2U11  -1
    S_T2U12  COST  81.1912  SU_T2U12  -1
    S_T3U1  COST  54.697  SU_T3U1  -1
    S_T3U2  COST  117.463  SU_T3U2  -1
    S_T3U3  COST  188.999  SU_T3U3  -1
    S_T3U4  COST  98.9811  SU_T3U4  -1
    S_T3U5  COST  128.125  SU_T3U5  -1
    S_T3U6  COST  176.68  SU_T3U6  -1
    S_T3U7  COST  130.954  SU_T3U7  -1
    S_T3U8  COST  194.788  SU_T3U8  -1
    S_T3U9  COST  91.3999  SU_T3U9  -1
    S_T3U10  COST  74.79  SU_T3U10  -1
    S_T3U11  COST  113.51  SU_T3U11  -1
    S_T3U12  COST  94.0232  SU_T3U12  -1
    S_T4U1  COST  79.8264  SU_T4U1  -1
    S_T4U2  COST  168.526  SU_T4U2  -1
    S_T4U3  COST  188.945  SU_T4U3  -1
    S_T4U4  COST  187.244  SU_T4U4  -1
    S_T4U5  COST  117.418  SU_T4U5  -1
    S_T4U6  COST  105.623  SU_T4U6  -1
    S_T4U7  COST  149.888  SU_T4U7  -1
    S_T4U8  COST  91.2083  SU_T4U8  -1
    S_T4U9  COST  107.439  SU_T4U9  -1
    S_T4U10  COST  177.337  SU_T4U10  -1
    S_T4U11  COST  85.3977  SU_T4U11  -1
    S_T4U12  COST  56.065  SU_T4U12  -1
    S_T5U1  COST  66.6336  SU_T5U1  -1
    S_T5U2  COST  80.2579  SU_T5U2  -1
    S_T5U3  COST  121.306  SU_T5U3  -1
    S_T5U4  COST  154.327  SU_T5U4  -1
    S_T5U5  COST  140.663  SU_T5U5  -1
    S_T5U6  COST  80.4592  SU_T5U6  -1
    S_T5U7  COST  139.83  SU_T5U7  -1
    S_T5U8  COST  182.07  SU_T5U8  -1
    S_T5U9  COST  94.3451  SU_T5U9  -1
    S_T5U10  COST  118.48  SU_T5U10  -1
    S_T5U11  COST  112.476  SU_T5U11  -1
    S_T5U12  COST  98.6518  SU_T5U12  -1
    S_T6U1  COST  103.445  SU_T6U1  -1
    S_T6U2  COST  90.8198  SU_T6U2  -1
    S_T6U3  COST  50.0781  SU_T6U3  -1
    S_T6U4  COST  95.7172  SU_T6U4  -1
    S_T6U5  COST  130.113  SU_T6U5  -1
    S_T6U6  COST  153.865  SU_T6U6  -1
    S_T6U7  COST  86.6188  SU_T6U7  -1
    S_T6U8  COST  82.8146  SU_T6U8  -1
    S_T6U9  COST  110.575  SU_T6U9  -1
    S_T6U10  COST  88.0873  SU_T6U10  -1
    S_T6U11  COST  154.446  SU_T6U11  -1
    S_T6U12  COST  72.213  SU_T6U12  -1
    S_T7U1  COST  90.0172  SU_T7U1  -1
    S_T7U2  COST  111.656  SU_T7U2  -1
    S_T7U3  COST  101.761  SU_T7U3  -1
    S_T7U4  COST  152.106  SU_T7U4  -1
    S_T7U5  COST  117.167  SU_T7U5  -1
    S_T7U6  COST  138.905  SU_T7U6  -1
    S_T7U7  COST  105.448  SU_T7U7  -1
    S_T7U8  COST  170.471  SU_T7U8  -1
    S_T7U9  COST  197.513  SU_T7U9  -1
    S_T7U10  COST  172.465  SU_T7U10  -1
    S_T7U11  COST  72.6076  SU_T7U11  -1
    S_T7U12  COST  154.372  SU_T7U12  -1
    S_T8U1  COST  98.8938  SU_T8U1  -1
    S_T8U2  COST  156.672  SU_T8U2  -1
    S_T8U3  COST  102.3  SU_T8U3  -1
    S_T8U4  COST  191.078  SU_T8U4  -1
    S_T8U5  COST  127.663  SU_T8U5  -1
    S_T8U6  COST  151.354  SU_T8U6  -1
    S_T8U7  COST  81.3607  SU_T8U7  -1
    S_T8U8  COST  154.368  SU_T8U8  -1
    S_T8U9  COST  76.2432  SU_T8U9  -1
    S_T8U10  COST  127.495  SU_T8U10  -1
    S_T8U11  COST  199.438  SU_T8U11  -1
    S_T8U12  COST  133.744  SU_T8U12  -1
    S_T9U1  COST  78.3061  SU_T9U1  -1
    S_T9U2  COST  155.054  SU_T9U2  -1
    S_T9U3  COST  178.449  SU_T9U3  -1
    S_T9U4  COST  183.166  SU_T9U4  -1
    S_T9U5  COST  190.345  SU_T9U5  -1
    S_T9U6  COST  150.348  SU_T9U6  -1
    S_T9U7  COST  105.842  SU_T9U7  -1
    S_T9U8  COST  196.05  SU_T9U8  -1
    S_T9U9  COST  95.8046  SU_T9U9  -1
    S_T9U10  COST  117.264  SU_T9U10  -1
    S_T9U11  COST  76.3888  SU_T9U11  -1
    S_T9U12  COST  124.084  SU_T9U12  -1
    S_T10U1  COST  104.97  SU_T10U1  -1
    S_T10U2  COST  158.141  SU_T10U2  -1
    S_T10U3  COST  131.381  SU_T10U3  -1
    S_T10U4  COST  145.45  SU_T10U4  -1
    S_T10U5  COST  138.481  SU_T10U5  -1
    S_T10U6  COST  123.011  SU_T10U6  -1
    S_T10U7  COST  115.159  SU_T10U7  -1
    S_T10U8  COST  146.766  SU_T10U8  -1
    S_T10U9  COST  179.625  SU_T10U9  -1
    S_T10U10  COST  124.879  SU_T10U10  -1
    S_T10U11  COST  165.283  SU_T10U11  -1
    S_T10U12  COST  199.183  SU_T10U12  -1
    S_T11U1  COST  91.9341  SU_T11U1  -1
    S_T11U2  COST  162.158  SU_T11U2  -1
    S_T11U3  COST  99.6125  SU_T11U3  -1
    S_T11U4  COST  135.844  SU_T11U4  -1
    S_T11U5  COST  61.3019  SU_T11U5  -1
    S_T11U6  COST  78.6367  SU_T11U6  -1
    S_T11U7  COST  122.792  SU_T11U7  -1
    S_T11U8  COST  109.204  SU_T11U8  -1
    S_T11U9  COST  189.503  SU_T11U9  -1
    S_T11U10  COST  81.3378  SU_T11U10  -1
    S_T11U11  COST  103.797  SU_T11U11  -1
    S_T11U12  COST  94.2936  SU_T11U12  -1
    S_T12U1  COST  177.3  SU_T12U1  -1
    S_T12U2  COST  156.337  SU_T12U2  -1
    S_T12U3  COST  94.4765  SU_T12U3  -1
    S_T12U4  COST  88.431  SU_T12U4  -1
    S_T12U5  COST  62.2391  SU_T12U5  -1
    S_T12U6  COST  144.184  SU_T12U6  -1
    S_T12U7  COST  60.6411  SU_T12U7  -1
    S_T12U8  COST  57.6153  SU_T12U8  -1
    S_T12U9  COST  54.1425  SU_T12U9  -1
    S_T12U10  COST  115.771  SU_T12U10  -1
    S_T12U11  COST  99.2229  SU_T12U11  -1
    S_T12U12  COST  197.276  SU_T12U12  -1
    S_T13U1  COST  179.061  SU_T13U1  -1
    S_T13U2  COST  55.8252  SU_T13U2  -1
    S_T13U3  COST  130.562  SU_T13U3  -1
    S_T13U4  COST  174.18  SU_T13U4  -1
    S_T13U5  COST  194.788  SU_T13U5  -1
    S_T13U6  COST  176.303  SU_T13U6  -1
    S_T13U7  COST  111.703  SU_T13U7  -1
    S_T13U8  COST  70.753  SU_T13U8  -1
    S_T13U9  COST  195.431  SU_T13U9  -1
    S_T13U10  COST  56.1601  SU_T13U10  -1
    S_T13U11  COST  115.028  SU_T13U11  -1
    S_T13U12  COST  87.6291  SU_T13U12  -1
    S_T14U1  COST  62.1309  SU_T14U1  -1
    S_T14U2  COST  153.275  SU_T14U2  -1
    S_T14U3  COST  187.282  SU_T14U3  -1
    S_T14U4  COST  85.9681  SU_T14U4  -1
    S_T14U5  COST  77.4299  SU_T14U5  -1
    S_T14U6  COST  145.741  SU_T14U6  -1
    S_T14U7  COST  148.567  SU_T14U7  -1
    S_T14U8  COST  159.506  SU_T14U8  -1
    S_T14U9  COST  134.906  SU_T14U9  -1
    S_T14U10  COST  68.0247  SU_T14U10  -1
    S_T14U11  COST  63.7699  SU_T14U11  -1
    S_T14U12  COST  96.712  SU_T14U12  -1
    S_T15U1  COST  76.2995  SU_T15U1  -1
    S_T15U2  COST  164.505  SU_T15U2  -1
    S_T15U3  COST  101.946  SU_T15U3  -1
    S_T15U4  COST  147.466  SU_T15U4  -1
    S_T15U5  COST  192.372  SU_T15U5  -1
    S_T15U6  COST  89.134  SU_T15U6  -1
    S_T15U7  COST  190.015  SU_T15U7  -1
    S_T15U8  COST  130.907  SU_T15U8  -1
    S_T15U9  COST  142.378  SU_T15U9  -1
    S_T15U10  COST  191.638  SU_T15U10  -1
    S_T15U11  COST  145.461  SU_T15U11  -1
    S_T15U12  COST  151.575  SU_T15U12  -1
    S_T16U1  COST  69.2751  SU_T16U1  -1
    S_T16U2  COST  173.096  SU_T16U2  -1
    S_T16U3  COST  173.064  SU_T16U3  -1
    S_T16U4  COST  81.0027  SU_T16U4  -1
    S_T16U5  COST  82.1884  SU_T16U5  -1
    S_T16U6  COST  55.8445  SU_T16U6  -1
    S_T16U7  COST  100.483  SU_T16U7  -1
    S_T16U8  COST  107.809  SU_T16U8  -1
    S_T16U9  COST  101.094  SU_T16U9  -1
    S_T16U10  COST  124.406  SU_T16U10  -1
    S_T16U11  COST  102.25  SU_T16U11  -1
    S_T16U12  COST  55.8779  SU_T16U12  -1
    S_T17U1  COST  195.137  SU_T17U1  -1
    S_T17U2  COST  113.521  SU_T17U2  -1
    S_T17U3  COST  136.389  SU_T17U3  -1
    S_T17U4  COST  69.1535  SU_T17U4  -1
    S_T17U5  COST  137.082  SU_T17U5  -1
    S_T17U6  COST  134.28  SU_T17U6  -1
    S_T17U7  COST  151.977  SU_T17U7  -1
    S_T17U8  COST  85.7354  SU_T17U8  -1
    S_T17U9  COST  130.149  SU_T17U9  -1
    S_T17U10  COST  108.443  SU_T17U10  -1
    S_T17U11  COST  64.9977  SU_T17U11  -1
    S_T17U12  COST  193.781  SU_T17U12  -1
    S_T18U1  COST  103.236  SU_T18U1  -1
    S_T18U2  COST  151.515  SU_T18U2  -1
    S_T18U3  COST  123.954  SU_T18U3  -1
    S_T18U4  COST  63.7556  SU_T18U4  -1
    S_T18U5  COST  133.055  SU_T18U5  -1
    S_T18U6  COST  191.929  SU_T18U6  -1
    S_T18U7  COST  67.0197  SU_T18U7  -1
    S_T18U8  COST  196.137  SU_T18U8  -1
    S_T18U9  COST  58.3807  SU_T18U9  -1
    S_T18U10  COST  131.887  SU_T18U10  -1
    S_T18U11  COST  195.298  SU_T18U11  -1
    S_T18U12  COST  175.545  SU_T18U12  -1
    S_T19U1  COST  175.772  SU_T19U1  -1
    S_T19U2  COST  83.3865  SU_T19U2  -1
    S_T19U3  COST  183.785  SU_T19U3  -1
    S_T19U4  COST  126.999  SU_T19U4  -1
    S_T19U5  COST  137.196  SU_T19U5  -1
    S_T19U6  COST  182.054  SU_T19U6  -1
    S_T19U7  COST  186.154  SU_T19U7  -1
    S_T19U8  COST  102.533  SU_T19U8  -1
    S_T19U9  COST  122.25  SU_T19U9  -1
    S_T19U10  COST  155.763  SU_T19U10  -1
    S_T19U11  COST  99.5379  SU_T19U11  -1
    S_T19U12  COST  88.0523  SU_T19U12  -1
    S_T20U1  COST  135.721  SU_T20U1  -1
    S_T20U2  COST  165.079  SU_T20U2  -1
    S_T20U3  COST  161.632  SU_T20U3  -1
    S_T20U4  COST  85.626  SU_T20U4  -1
    S_T20U5  COST  121.657  SU_T20U5  -1
    S_T20U6  COST  129.256  SU_T20U6  -1
    S_T20U7  COST  170.316  SU_T20U7  -1
    S_T20U8  COST  133.401  SU_T20U8  -1
    S_T20U9  COST  56.5101  SU_T20U9  -1
    S_T20U10  COST  187.867  SU_T20U10  -1
    S_T20U11  COST  154.312  SU_T20U11  -1
    S_T20U12  COST  74.9323  SU_T20U12  -1
    S_T21U1  COST  94.1741  SU_T21U1  -1
    S_T21U2  COST  154.539  SU_T21U2  -1
    S_T21U3  COST  160.565  SU_T21U3  -1
    S_T21U4  COST  193.805  SU_T21U4  -1
    S_T21U5  COST  109.178  SU_T21U5  -1
    S_T21U6  COST  100.349  SU_T21U6  -1
    S_T21U7  COST  147.027  SU_T21U7  -1
    S_T21U8  COST  84.4092  SU_T21U8  -1
    S_T21U9  COST  104.052  SU_T21U9  -1
    S_T21U10  COST  117.986  SU_T21U10  -1
    S_T21U11  COST  91.9645  SU_T21U11  -1
    S_T21U12  COST  140.417  SU_T21U12  -1
    S_T22U1  COST  69.9778  SU_T22U1  -1
    S_T22U2  COST  191.08  SU_T22U2  -1
    S_T22U3  COST  137.174  SU_T22U3  -1
    S_T22U4  COST  62.4123  SU_T22U4  -1
    S_T22U5  COST  132.738  SU_T22U5  -1
    S_T22U6  COST  111.688  SU_T22U6  -1
    S_T22U7  COST  122.056  SU_T22U7  -1
    S_T22U8  COST  106.511  SU_T22U8  -1
    S_T22U9  COST  108.948  SU_T22U9  -1
    S_T22U10  COST  135.362  SU_T22U10  -1
    S_T22U11  COST  55.5233  SU_T22U11  -1
    S_T22U12  COST  52.0508  SU_T22U12  -1
    S_T23U1  COST  153.757  SU_T23U1  -1
    S_T23U2  COST  162.487  SU_T23U2  -1
    S_T23U3  COST  137.772  SU_T23U3  -1
    S_T23U4  COST  163.562  SU_T23U4  -1
    S_T23U5  COST  86.1627  SU_T23U5  -1
    S_T23U6  COST  87.7164  SU_T23U6  -1
    S_T23U7  COST  81.0841  SU_T23U7  -1
    S_T23U8  COST  163.55  SU_T23U8  -1
    S_T23U9  COST  90.3009  SU_T23U9  -1
    S_T23U10  COST  124.725  SU_T23U10  -1
    S_T23U11  COST  174.706  SU_T23U11  -1
    S_T23U12  COST  172.458  SU_T23U12  -1
    S_T24U1  COST  63.2612  SU_T24U1  -1
    S_T24U2  COST  138.493  SU_T24U2  -1
    S_T24U3  COST  113.08  SU_T24U3  -1
    S_T24U4  COST  145.904  SU_T24U4  -1
    S_T24U5  COST  185.473  SU_T24U5  -1
    S_T24U6  COST  197.069  SU_T24U6  -1
    S_T24U7  COST  145.497  SU_T24U7  -1
    S_T24U8  COST  63.6503  SU_T24U8  -1
    S_T24U9  COST  132.117  SU_T24U9  -1
    S_T24U10  COST  186.571  SU_T24U10  -1
    S_T24U11  COST  128.54  SU_T24U11  -1
    S_T24U12  COST  169.471  SU_T24U12  -1
    S_T25U1  COST  176.314  SU_T25U1  -1
    S_T25U2  COST  59.9354  SU_T25U2  -1
    S_T25U3  COST  143.121  SU_T25U3  -1
    S_T25U4  COST  81.3696  SU_T25U4  -1
    S_T25U5  COST  101.234  SU_T25U5  -1
    S_T25U6  COST  119.018  SU_T25U6  -1
    S_T25U7  COST  110.045  SU_T25U7  -1
    S_T25U8  COST  77.0101  SU_T25U8  -1
    S_T25U9  COST  111.749  SU_T25U9  -1
    S_T25U10  COST  127.285  SU_T25U10  -1
    S_T25U11  COST  140.29  SU_T25U11  -1
    S_T25U12  COST  173.269  SU_T25U12  -1
    S_T26U1  COST  102.143  SU_T26U1  -1
    S_T26U2  COST  132.307  SU_T26U2  -1
    S_T26U3  COST  103.399  SU_T26U3  -1
    S_T26U4  COST  69.3123  SU_T26U4  -1
    S_T26U5  COST  98.2374  SU_T26U5  -1
    S_T26U6  COST  122.172  SU_T26U6  -1
    S_T26U7  COST  126.749  SU_T26U7  -1
    S_T26U8  COST  106.593  SU_T26U8  -1
    S_T26U9  COST  180.245  SU_T26U9  -1
    S_T26U10  COST  139.592  SU_T26U10  -1
    S_T26U11  COST  130.489  SU_T26U11  -1
    S_T26U12  COST  85.4175  SU_T26U12  -1
    S_T27U1  COST  129.69  SU_T27U1  -1
    S_T27U2  COST  59.3512  SU_T27U2  -1
    S_T27U3  COST  69.9675  SU_T27U3  -1
    S_T27U4  COST  176.666  SU_T27U4  -1
    S_T27U5  COST  54.5708  SU_T27U5  -1
    S_T27U6  COST  103.122  SU_T27U6  -1
    S_T27U7  COST  65.7304  SU_T27U7  -1
    S_T27U8  COST  77.3426  SU_T27U8  -1
    S_T27U9  COST  176.106  SU_T27U9  -1
    S_T27U10  COST  130.3  SU_T27U10  -1
    S_T27U11  COST  101.439  SU_T27U11  -1
    S_T27U12  COST  103.266  SU_T27U12  -1
    S_T28U1  COST  121.937  SU_T28U1  -1
    S_T28U2  COST  160.523  SU_T28U2  -1
    S_T28U3  COST  137.98  SU_T28U3  -1
    S_T28U4  COST  106.816  SU_T28U4  -1
    S_T28U5  COST  184.947  SU_T28U5  -1
    S_T28U6  COST  86.653  SU_T28U6  -1
    S_T28U7  COST  99.5523  SU_T28U7  -1
    S_T28U8  COST  51.1302  SU_T28U8  -1
    S_T28U9  COST  104.804  SU_T28U9  -1
    S_T28U10  COST  177.623  SU_T28U10  -1
    S_T28U11  COST  170.88  SU_T28U11  -1
    S_T28U12  COST  176.347  SU_T28U12  -1
    S_T29U1  COST  52.7364  SU_T29U1  -1
    S_T29U2  COST  199.588  SU_T29U2  -1
    S_T29U3  COST  136.4  SU_T29U3  -1
    S_T29U4  COST  50.795  SU_T29U4  -1
    S_T29U5  COST  123.612  SU_T29U5  -1
    S_T29U6  COST  173.129  SU_T29U6  -1
    S_T29U7  COST  130.256  SU_T29U7  -1
    S_T29U8  COST  175.787  SU_T29U8  -1
    S_T29U9  COST  195.199  SU_T29U9  -1
    S_T29U10  COST  79.926  SU_T29U10  -1
    S_T29U11  COST  129.476  SU_T29U11  -1
    S_T29U12  COST  165.167  SU_T29U12  -1
    S_T30U1  COST  125.916  SU_T30U1  -1
    S_T30U2  COST  98.0963  SU_T30U2  -1
    S_T30U3  COST  105.385  SU_T30U3  -1
    S_T30U4  COST  132.29  SU_T30U4  -1
    S_T30U5  COST  80.2596  SU_T30U5  -1
    S_T30U6  COST  63.1802  SU_T30U6  -1
    S_T30U7  COST  50.4066  SU_T30U7  -1
    S_T30U8  COST  120.975  SU_T30U8  -1
    S_T30U9  COST  169.143  SU_T30U9  -1
    S_T30U10  COST  177.609  SU_T30U10  -1
    S_T30U11  COST  111.278  SU_T30U11  -1
    S_T30U12  COST  198.639  SU_T30U12  -1
    S_T31U1  COST  106.884  SU_T31U1  -1
    S_T31U2  COST  158.239  SU_T31U2  -1
    S_T31U3  COST  167.227  SU_T31U3  -1
    S_T31U4  COST  162.575  SU_T31U4  -1
    S_T31U5  COST  173.77  SU_T31U5  -1
    S_T31U6  COST  85.3538  SU_T31U6  -1
    S_T31U7  COST  186.18  SU_T31U7  -1
    S_T31U8  COST  138.246  SU_T31U8  -1
    S_T31U9  COST  117.792  SU_T31U9  -1
    S_T31U10  COST  184.95  SU_T31U10  -1
    S_T31U11  COST  130.967  SU_T31U11  -1
    S_T31U12  COST  136.623  SU_T31U12  -1
    S_T32U1  COST  108.722  SU_T32U1  -1
    S_T32U2  COST  59.9929  SU_T32U2  -1
    S_T32U3  COST  131.427  SU_T32U3  -1
    S_T32U4  COST  99.9224  SU_T32U4  -1
    S_T32U5  COST  154.058  SU_T32U5  -1
    S_T32U6  COST  181.794  SU_T32U6  -1
    S_T32U7  COST  161.219  SU_T32U7  -1
    S_T32U8  COST  199.654  SU_T32U8  -1
    S_T32U9  COST  156.047  SU_T32U9  -1
    S_T32U10  COST  71.4692  SU_T32U10  -1
    S_T32U11  COST  157.11  SU_T32U11  -1
    S_T32U12  COST  163.195  SU_T32U12  -1
    S_T33U1  COST  130.472  SU_T33U1  -1
    S_T33U2  COST  118.55  SU_T33U2  -1
    S_T33U3  COST  125.343  SU_T33U3  -1
    S_T33U4  COST  122.954  SU_T33U4  -1
    S_T33U5  COST  165.782  SU_T33U5  -1
    S_T33U6  COST  139.766  SU_T33U6  -1
    S_T33U7  COST  157.427  SU_T33U7  -1
    S_T33U8  COST  174.02  SU_T33U8  -1
    S_T33U9  COST  101.379  SU_T33U9  -1
    S_T33U10  COST  113.54  SU_T33U10  -1
    S_T33U11  COST  142.243  SU_T33U11  -1
    S_T33U12  COST  70.8674  SU_T33U12  -1
    S_T34U1  COST  88.4023  SU_T34U1  -1
    S_T34U2  COST  138.944  SU_T34U2  -1
    S_T34U3  COST  187.813  SU_T34U3  -1
    S_T34U4  COST  53.4534  SU_T34U4  -1
    S_T34U5  COST  165.687  SU_T34U5  -1
    S_T34U6  COST  60.3382  SU_T34U6  -1
    S_T34U7  COST  65.637  SU_T34U7  -1
    S_T34U8  COST  186.603  SU_T34U8  -1
    S_T34U9  COST  85.3859  SU_T34U9  -1
    S_T34U10  COST  77.9481  SU_T34U10  -1
    S_T34U11  COST  99.822  SU_T34U11  -1
    S_T34U12  COST  84.1093  SU_T34U12  -1
    S_T35U1  COST  106.896  SU_T35U1  -1
    S_T35U2  COST  80.837  SU_T35U2  -1
    S_T35U3  COST  140.558  SU_T35U3  -1
    S_T35U4  COST  112.176  SU_T35U4  -1
    S_T35U5  COST  188.444  SU_T35U5  -1
    S_T35U6  COST  122.126  SU_T35U6  -1
    S_T35U7  COST  138.06  SU_T35U7  -1
    S_T35U8  COST  186.912  SU_T35U8  -1
    S_T35U9  COST  136.645  SU_T35U9  -1
    S_T35U10  COST  55.0819  SU_T35U10  -1
    S_T35U11  COST  167.074  SU_T35U11  -1
    S_T35U12  COST  83.0146  SU_T35U12  -1
    S_T36U1  COST  127.276  SU_T36U1  -1
    S_T36U2  COST  118.848  SU_T36U2  -1
    S_T36U3  COST  179.095  SU_T36U3  -1
    S_T36U4  COST  77.6694  SU_T36U4  -1
    S_T36U5  COST  96.4905  SU_T36U5  -1
    S_T36U6  COST  114.018  SU_T36U6  -1
    S_T36U7  COST  102.408  SU_T36U7  -1
    S_T36U8  COST  143.746  SU_T36U8  -1
    S_T36U9  COST  175.485  SU_T36U9  -1
    S_T36U10  COST  94.1067  SU_T36U10  -1
    S_T36U11  COST  129.147  SU_T36U11  -1
    S_T36U12  COST  122.163  SU_T36U12  -1
    S_T37U1  COST  164.803  SU_T37U1  -1
    S_T37U2  COST  100.154  SU_T37U2  -1
    S_T37U3  COST  162.987  SU_T37U3  -1
    S_T37U4  COST  184.615  SU_T37U4  -1
    S_T37U5  COST  170.112  SU_T37U5  -1
    S_T37U6  COST  175.968  SU_T37U6  -1
    S_T37U7  COST  111.198  SU_T37U7  -1
    S_T37U8  COST  88.0833  SU_T37U8  -1
    S_T37U9  COST  125.826  SU_T37U9  -1
    S_T37U10  COST  100.891  SU_T37U10  -1
    S_T37U11  COST  183.119  SU_T37U11  -1
    S_T37U12  COST  158.122  SU_T37U12  -1
    S_T38U1  COST  198.309  SU_T38U1  -1
    S_T38U2  COST  171.028  SU_T38U2  -1
    S_T38U3  COST  191.661  SU_T38U3  -1
    S_T38U4  COST  110.959  SU_T38U4  -1
    S_T38U5  COST  63.0388  SU_T38U5  -1
    S_T38U6  COST  160.386  SU_T38U6  -1
    S_T38U7  COST  68.4165  SU_T38U7  -1
    S_T38U8  COST  146.439  SU_T38U8  -1
    S_T38U9  COST  186.594  SU_T38U9  -1
    S_T38U10  COST  100.38  SU_T38U10  -1
    S_T38U11  COST  104.459  SU_T38U11  -1
    S_T38U12  COST  174.598  SU_T38U12  -1
    S_T39U1  COST  166.075  SU_T39U1  -1
    S_T39U2  COST  179.16  SU_T39U2  -1
    S_T39U3  COST  196.182  SU_T39U3  -1
    S_T39U4  COST  67.1357  SU_T39U4  -1
    S_T39U5  COST  197.805  SU_T39U5  -1
    S_T39U6  COST  77.3161  SU_T39U6  -1
    S_T39U7  COST  126.869  SU_T39U7  -1
    S_T39U8  COST  154.827  SU_T39U8  -1
    S_T39U9  COST  82.7035  SU_T39U9  -1
    S_T39U10  COST  113.256  SU_T39U10  -1
    S_T39U11  COST  185.086  SU_T39U11  -1
    S_T39U12  COST  152.478  SU_T39U12  -1
    S_T40U1  COST  129.449  SU_T40U1  -1
    S_T40U2  COST  124.714  SU_T40U2  -1
    S_T40U3  COST  110.787  SU_T40U3  -1
    S_T40U4  COST  158.03  SU_T40U4  -1
    S_T40U5  COST  71.0028  SU_T40U5  -1
    S_T40U6  COST  89.9748  SU_T40U6  -1
    S_T40U7  COST  87.6096  SU_T40U7  -1
    S_T40U8  COST  124.141  SU_T40U8  -1
    S_T40U9  COST  175.716  SU_T40U9  -1
    S_T40U10  COST  165.637  SU_T40U10  -1
    S_T40U11  COST  103.081  SU_T40U11  -1
    S_T40U12  COST  77.6556  SU_T40U12  -1
    S_T41U1  COST  165.648  SU_T41U1  -1
    S_T41U2  COST  175.562  SU_T41U2  -1
    S_T41U3  COST  187.327  SU_T41U3  -1
    S_T41U4  COST  141.561  SU_T41U4  -1
    S_T41U5  COST  109.497  SU_T41U5  -1
    S_T41U6  COST  70.2502  SU_T41U6  -1
    S_T41U7  COST  90.4867  SU_T41U7  -1
    S_T41U8  COST  74.3021  SU_T41U8  -1
    S_T41U9  COST  176.961  SU_T41U9  -1
    S_T41U10  COST  73.2008  SU_T41U10  -1
    S_T41U11  COST  121.136  SU_T41U11  -1
    S_T41U12  COST  102.731  SU_T41U12  -1
    S_T42U1  COST  155.739  SU_T42U1  -1
    S_T42U2  COST  118.952  SU_T42U2  -1
    S_T42U3  COST  61.6648  SU_T42U3  -1
    S_T42U4  COST  195.155  SU_T42U4  -1
    S_T42U5  COST  65.4641  SU_T42U5  -1
    S_T42U6  COST  171.115  SU_T42U6  -1
    S_T42U7  COST  168.502  SU_T42U7  -1
    S_T42U8  COST  128.195  SU_T42U8  -1
    S_T42U9  COST  193.726  SU_T42U9  -1
    S_T42U10  COST  145.842  SU_T42U10  -1
    S_T42U11  COST  158.615  SU_T42U11  -1
    S_T42U12  COST  197.087  SU_T42U12  -1
    S_T43U1  COST  147  SU_T43U1  -1
    S_T43U2  COST  57.7394  SU_T43U2  -1
    S_T43U3  COST  56.6248  SU_T43U3  -1
    S_T43U4  COST  199.903  SU_T43U4  -1
    S_T43U5  COST  120.982  SU_T43U5  -1
    S_T43U6  COST  68.0784  SU_T43U6  -1
    S_T43U7  COST  78.8899  SU_T43U7  -1
    S_T43U8  COST  113.264  SU_T43U8  -1
    S_T43U9  COST  161.76  SU_T43U9  -1
    S_T43U10  COST  118.272  SU_T43U10  -1
    S_T43U11  COST  146.682  SU_T43U11  -1
    S_T43U12  COST  104.705  SU_T43U12  -1
    S_T44U1  COST  122.159  SU_T44U1  -1
    S_T44U2  COST  129.54  SU_T44U2  -1
    S_T44U3  COST  110.673  SU_T44U3  -1
    S_T44U4  COST  170.597  SU_T44U4  -1
    S_T44U5  COST  149.248  SU_T44U5  -1
    S_T44U6  COST  128.025  SU_T44U6  -1
    S_T44U7  COST  181.5  SU_T44U7  -1
    S_T44U8  COST  119.291  SU_T44U8  -1
    S_T44U9  COST  50.0356  SU_T44U9  -1
    S_T44U10  COST  107.595  SU_T44U10  -1
    S_T44U11  COST  60.5045  SU_T44U11  -1
    S_T44U12  COST  57.9026  SU_T44U12  -1
    S_T45U1  COST  55.6395  SU_T45U1  -1
    S_T45U2  COST  137.114  SU_T45U2  -1
    S_T45U3  COST  109.743  SU_T45U3  -1
    S_T45U4  COST  100.456  SU_T45U4  -1
    S_T45U5  COST  159.841  SU_T45U5  -1
    S_T45U6  COST  120.097  SU_T45U6  -1
    S_T45U7  COST  177.923  SU_T45U7  -1
    S_T45U8  COST  138.366  SU_T45U8  -1
    S_T45U9  COST  186.551  SU_T45U9  -1
    S_T45U10  COST  66.4201  SU_T45U10  -1
    S_T45U11  COST  68.6656  SU_T45U11  -1
    S_T45U12  COST  169.698  SU_T45U12  -1
    S_T46U1  COST  138.283  SU_T46U1  -1
    S_T46U2  COST  182.63  SU_T46U2  -1
    S_T46U3  COST  185.559  SU_T46U3  -1
    S_T46U4  COST  161.503  SU_T46U4  -1
    S_T46U5  COST  110.237  SU_T46U5  -1
    S_T46U6  COST  84.5854  SU_T46U6  -1
    S_T46U7  COST  68.0508  SU_T46U7  -1
    S_T46U8  COST  107.614  SU_T46U8  -1
    S_T46U9  COST  193.591  SU_T46U9  -1
    S_T46U10  COST  170.115  SU_T46U10  -1
    S_T46U11  COST  82.4486  SU_T46U11  -1
    S_T46U12  COST  139.591  SU_T46U12  -1
    S_T47U1  COST  89.035  SU_T47U1  -1
    S_T47U2  COST  123.678  SU_T47U2  -1
    S_T47U3  COST  184.615  SU_T47U3  -1
    S_T47U4  COST  143.441  SU_T47U4  -1
    S_T47U5  COST  55.2298  SU_T47U5  -1
    S_T47U6  COST  179.019  SU_T47U6  -1
    S_T47U7  COST  108.675  SU_T47U7  -1
    S_T47U8  COST  121.502  SU_T47U8  -1
    S_T47U9  COST  177.829  SU_T47U9  -1
    S_T47U10  COST  99.3577  SU_T47U10  -1
    S_T47U11  COST  160.282  SU_T47U11  -1
    S_T47U12  COST  87.8974  SU_T47U12  -1
    S_T48U1  COST  154.357  SU_T48U1  -1
    S_T48U2  COST  129.89  SU_T48U2  -1
    S_T48U3  COST  66.4203  SU_T48U3  -1
    S_T48U4  COST  198.721  SU_T48U4  -1
    S_T48U5  COST  182.436  SU_T48U5  -1
    S_T48U6  COST  185.977  SU_T48U6  -1
    S_T48U7  COST  149.317  SU_T48U7  -1
    S_T48U8  COST  179.674  SU_T48U8  -1
    S_T48U9  COST  128.189  SU_T48U9  -1
    S_T48U10  COST  86.7928  SU_T48U10  -1
    S_T48U11  COST  74.06  SU_T48U11  -1
    S_T48U12  COST  85.8035  SU_T48U12  -1
    MARK0001  'MARKER'                 'INTEND'
RHS
    RHS       DEM_T1  7.88267
    RHS       DEM_T2  1.78317
    RHS       DEM_T3  6.17253
    RHS       DEM_T4  2.40024
    RHS       DEM_T5  7.52411
    RHS       DEM_T6  8.11373
    RHS       DEM_T7  4.44448
    RHS       DEM_T8  7.50513
    RHS       DEM_T9  1.03807
    RHS       DEM_T10  7.06761
    RHS       DEM_T11  2.69183
    RHS       DEM_T12  7.72439
    RHS       DEM_T13  1.00829
    RHS       DEM_T14  5.11574
    RHS       DEM_T15  6.5991
    RHS       DEM_T16  2.91429
    RHS       DEM_T17  2.42918
    RHS       DEM_T18  1.62233
    RHS       DEM_T19  3.41561
    RHS       DEM_T20  5.14285
    RHS       DEM_T21  1.85724
    RHS       DEM_T22  3.78755
    RHS       DEM_T23  1.06714
    RHS       DEM_T24  7.05823
    RHS       DEM_T25  1.95052
    RHS       DEM_T26  3.09674
    RHS       DEM_T27  1.13637
    RHS       DEM_T28  4.19858
    RHS       DEM_T29  7.2169
    RHS       DEM_T30  3.90192
    RHS       DEM_T31  2.32828
    RHS       DEM_T32  6.57737
    RHS       DEM_T33  6.83717
    RHS       DEM_T34  2.28578
    RHS       DEM_T35  6.70432
    RHS       DEM_T36  8.01
    RHS       DEM_T37  2.23119
    RHS       DEM_T38  6.70528
    RHS       DEM_T39  6.24343
    RHS       DEM_T40  4.50445
    RHS       DEM_T41  1.42861
    RHS       DEM_T42  1.55274
    RHS       DEM_T43  7.30787
    RHS       DEM_T44  8.3271
    RHS       DEM_T45  6.00279
    RHS       DEM_T46  4.30009
    RHS       DEM_T47  5.79205
    RHS       DEM_T48  5.39853
BOUNDS
 UP BND       X_T1U1  1
 UP BND       X_T1U2  1
 UP BND       X_T1U3  1
 UP BND       X_T1U4  1
 UP BND       X_T1U5  1
 UP BND       X_T1U6  1
 UP BND       X_T1U7  1
 UP BND       X_T1U8  1
 UP BND       X_T1U9  1
 UP BND       X_T1U10  1
 UP BND       X_T1U11  1
 UP BND       X_T1U12  1
 UP BND       X_T2U1  1
 UP BND       X_T2U2  1
 UP BND       X_T2U3  1
 UP BND       X_T2U4  1
 UP BND       X_T2U5  1
 UP BND       X_T2U6  1
 UP BND       X_T2U7  1
 UP BND       X_T2U8  1
 UP BND       X_T2U9  1
 UP BND       X_T2U10  1
 UP BND       X_T2U11  1
 UP BND       X_T2U12  1
 UP BND       X_T3U1  1
 UP BND       X_T3U2  1
 UP BND       X_T3U3  1
 UP BND       X_T3U4  1
 UP BND       X_T3U5  1
 UP BND       X_T3U6  1
 UP BND       X_T3U7  1
 UP BND       X_T3U8  1
 UP BND       X_T3U9  1
 UP BND       X_T3U10  1
 UP BND       X_T3U11  1
 UP BND       X_T3U12  1
 UP BND       X_T4U1  1
 UP BND       X_T4U2  1
 UP BND       X_T4U3  1
 UP BND       X_T4U4  1
 UP BND       X_T4U5  1
 UP BND       X_T4U6  1
 UP BND       X_T4U7  1
 UP BND       X_T4U8  1
 UP BND       X_T4U9  1
 UP BND       X_T4U10  1
 UP BND       X_T4U11  1
 UP BND       X_T4U12  1
 UP BND       X_T5U1  1
 UP BND       X_T5U2  1
 UP BND       X_T5U3  1
 UP BND       X_T5U4  1
 UP BND       X_T5U5  1
 UP BND       X_T5U6  1
 UP BND       X_T5U7  1
 UP BND       X_T5U8  1
 UP BND       X_T5U9  1
 UP BND       X_T5U10  1
 UP BND       X_T5U11  1
 UP BND       X_T5U12  1
 UP BND       X_T6U1  1
 UP BND       X_T6U2  1
 UP BND       X_T6U3  1
 UP BND       X_T6U4  1
 UP BND       X_T6U5  1
 UP BND       X_T6U6  1
 UP BND       X_T6U7  1
 UP BND       X_T6U8  1
 UP BND       X_T6U9  1
 UP BND       X_T6U10  1
 UP BND       X_T6U11  1
 UP BND       X_T6U12  1
 UP BND       X_T7U1  1
 UP BND       X_T7U2  1
 UP BND       X_T7U3  1
 UP BND       X_T7U4  1
 UP BND       X_T7U5  1
 UP BND       X_T7U6  1
 UP BND       X_T7U7  1
 UP BND       X_T7U8  1
 UP BND       X_T7U9  1
 UP BND       X_T7U10  1
 UP BND       X_T7U11  1
 UP BND       X_T7U12  1
 UP BND       X_T8U1  1
 UP BND       X_T8U2  1
 UP BND       X_T8U3  1
 UP BND       X_T8U4  1
 UP BND       X_T8U5  1
 UP BND       X_T8U6  1
 UP BND       X_T8U7  1
 UP BND       X_T8U8  1
 UP BND       X_T8U9  1
 UP BND       X_T8U10  1
 UP BND       X_T8U11  1
 UP BND       X_T8U12  1
 UP BND       X_T9U1  1
 UP BND       X_T9U2  1
 UP BND       X_T9U3  1
 UP BND       X_T9U4  1
 UP BND       X_T9U5  1
 UP BND       X_T9U6  1
 UP BND       X_T9U7  1
 UP BND       X_T9U8  1
 UP BND       X_T9U9  1
 UP BND       X_T9U10  1
 UP BND       X_T9U11  1
 UP BND       X_T9U12  1
 UP BND       X_T10U1  1
 UP BND       X_T10U2  1
 UP BND       X_T10U3  1
 UP BND       X_T10U4  1
 UP BND       X_T10U5  1
 UP BND       X_T10U6  1
 UP BND       X_T10U7  1
 UP BND       X_T10U8  1
 UP BND       X_T10U9  1
 UP BND       X_T10U10  1
 UP BND       X_T10U11  1
 UP BND       X_T10U12  1
 UP BND       X_T11U1  1
 UP BND       X_T11U2  1
 UP BND       X_T11U3  1
 UP BND       X_T11U4  1
 UP BND       X_T11U5  1
 UP BND       X_T11U6  1
 UP BND       X_T11U7  1
 UP BND       X_T11U8  1
 UP BND       X_T11U9  1
 UP BND       X_T11U10  1
 UP BND       X_T11U11  1
 UP BND       X_T11U12  1
 UP BND       X_T12U1  1
 UP BND       X_T12U2  1
 UP BND       X_T12U3  1
 UP BND       X_T12U4  1
 UP BND       X_T12U5  1
 UP BND       X_T12U6  1
 UP BND       X_T12U7  1
 UP BND       X_T12U8  1
 UP BND       X_T12U9  1
 UP BND       X_T12U10  1
 UP BND       X_T12U11  1
 UP BND       X_T12U12  1
 UP BND       X_T13U1  1
 UP BND       X_T13U2  1
 UP BND       X_T13U3  1
 UP BND       X_T13U4  1
 UP BND       X_T13U5  1
 UP BND       X_T13U6  1
 UP BND       X_T13U7  1
 UP BND       X_T13U8  1
 UP BND       X_T13U9  1
 UP BND       X_T13U10  1
 UP BND       X_T13U11  1
 UP BND       X_T13U12  1
 UP BND       X_T14U1  1
 UP BND       X_T14U2  1
 UP BND       X_T14U3  1
 UP BND       X_T14U4  1
 UP BND       X_T14U5  1
 UP BND       X_T14U6  1
 UP BND       X_T14U7  1
 UP BND       X_T14U8  1
 UP BND       X_T14U9  1
 UP BND       X_T14U10  1
 UP BND       X_T14U11  1
 UP BND       X_T14U12  1
 UP BND       X_T15U1  1
 UP BND       X_T15U2  1
 UP BND       X_T15U3  1
 UP BND       X_T15U4  1
 UP BND       X_T15U5  1
 UP BND       X_T15U6  1
 UP BND       X_T15U7  1
 UP BND       X_T15U8  1
 UP BND       X_T15U9  1
 UP BND       X_T15U10  1
 UP BND       X_T15U11  1
 UP BND       X_T15U12  1
 UP BND       X_T16U1  1
 UP BND       X_T16U2  1
 UP BND       X_T16U3  1
 UP BND       X_T16U4  1
 UP BND       X_T16U5  1
 UP BND       X_T16U6  1
 UP BND       X_T16U7  1
 UP BND       X_T16U8  1
 UP BND       X_T16U9  1
 UP BND       X_T16U10  1
 UP BND       X_T16U11  1
 UP BND       X_T16U12  1
 UP BND       X_T17U1  1
 UP BND       X_T17U2  1
 UP BND       X_T17U3  1
 UP BND       X_T17U4  1
 UP BND       X_T17U5  1
 UP BND       X_T17U6  1
 UP BND       X_T17U7  1
 UP BND       X_T17U8  1
 UP BND       X_T17U9  1
 UP BND       X_T17U10  1
 UP BND       X_T17U11  1
 UP BND       X_T17U12  1
 UP BND       X_T18U1  1
 UP BND       X_T18U2  1
 UP BND       X_T18U3  1
 UP BND       X_T18U4  1
 UP BND       X_T18U5  1
 UP BND       X_T18U6  1
 UP BND       X_T18U7  1
 UP BND       X_T18U8  1
 UP BND       X_T18U9  1
 UP BND       X_T18U10  1
 UP BND       X_T18U11  1
 UP BND       X_T18U12  1
 UP BND       X_T19U1  1
 UP BND       X_T19U2  1
 UP BND       X_T19U3  1
 UP BND       X_T19U4  1
 UP BND       X_T19U5  1
 UP BND       X_T19U6  1
 UP BND       X_T19U7  1
 UP BND       X_T19U8  1
 UP BND       X_T19U9  1
 UP BND       X_T19U10  1
 UP BND       X_T19U11  1
 UP BND       X_T19U12  1
 UP BND       X_T20U1  1
 UP BND       X_T20U2  1
 UP BND       X_T20U3  1
 UP BND       X_T20U4  1
 UP BND       X_T20U5  1
 UP BND       X_T20U6  1
 UP BND       X_T20U7  1
 UP BND       X_T20U8  1
 UP BND       X_T20U9  1
 UP BND       X_T20U10  1
 UP BND       X_T20U11  1
 UP BND       X_T20U12  1
 UP BND       X_T21U1  1
 UP BND       X_T21U2  1
 UP BND       X_T21U3  1
 UP BND       X_T21U4  1
 UP BND       X_T21U5  1
 UP BND       X_T21U6  1
 UP BND       X_T21U7  1
 UP BND       X_T21U8  1
 UP BND       X_T21U9  1
 UP BND       X_T21U10  1
 UP BND       X_T21U11  1
 UP BND       X_T21U12  1
 UP BND       X_T22U1  1
 UP BND       X_T22U2  1
 UP BND       X_T22U3  1
 UP BND       X_T22U4  1
 UP BND       X_T22U5  1
 UP BND       X_T22U6  1
 UP BND       X_T22U7  1
 UP BND       X_T22U8  1
 UP BND       X_T22U9  1
 UP BND       X_T22U10  1
 UP BND       X_T22U11  1
 UP BND       X_T22U12  1
 UP BND       X_T23U1  1
 UP BND       X_T23U2  1
 UP BND       X_T23U3  1
 UP BND       X_T23U4  1
 UP BND       X_T23U5  1
 UP BND       X_T23U6  1
 UP BND       X_T23U7  1
 UP BND       X_T23U8  1
 UP BND       X_T23U9  1
 UP BND       X_T23U10  1
 UP BND       X_T23U11  1
 UP BND       X_T23U12  1
 UP BND       X_T24U1  1
 UP BND       X_T24U2  1
 UP BND       X_T24U3  1
 UP BND       X_T24U4  1
 UP BND       X_T24U5  1
 UP BND       X_T24U6  1
 UP BND       X_T24U7  1
 UP BND       X_T24U8  1
 UP BND       X_T24U9  1
 UP BND       X_T24U10  1
 UP BND       X_T24U11  1
 UP BND       X_T24U12  1
 UP BND       X_T25U1  1
 UP BND       X_T25U2  1
 UP BND       X_T25U3  1
 UP BND       X_T25U4  1
 UP BND       X_T25U5  1
 UP BND       X_T25U6  1
 UP BND       X_T25U7  1
 UP BND       X_T25U8  1
 UP BND       X_T25U9  1
 UP BND       X_T25U10  1
 UP BND       X_T25U11  1
 UP BND       X_T25U12  1
 UP BND       X_T26U1  1
 UP BND       X_T26U2  1
 UP BND       X_T26U3  1
 UP BND       X_T26U4  1
 UP BND       X_T26U5  1
 UP BND       X_T26U6  1
 UP BND       X_T26U7  1
 UP BND       X_T26U8  1
 UP BND       X_T26U9  1
 UP BND       X_T26U10  1
 UP BND       X_T26U11  1
 UP BND       X_T26U12  1
 UP BND       X_T27U1  1
 UP BND       X_T27U2  1
 UP BND       X_T27U3  1
 UP BND       X_T27U4  1
 UP BND       X_T27U5  1
 UP BND       X_T27U6  1
 UP BND       X_T27U7  1
 UP BND       X_T27U8  1
 UP BND       X_T27U9  1
 UP BND       X_T27U10  1
 UP BND       X_T27U11  1
 UP BND       X_T27U12  1
 UP BND       X_T28U1  1
 UP BND       X_T28U2  1
 UP BND       X_T28U3  1
 UP BND       X_T28U4  1
 UP BND       X_T28U5  1
 UP BND       X_T28U6  1
 UP BND       X_T28U7  1
 UP BND       X_T28U8  1
 UP BND       X_T28U9  1
 UP BND       X_T28U10  1
 UP BND       X_T28U11  1
 UP BND       X_T28U12  1
 UP BND       X_T29U1  1
 UP BND       X_T29U2  1
 UP BND       X_T29U3  1
 UP BND       X_T29U4  1
 UP BND       X_T29U5  1
 UP BND       X_T29U6  1
 UP BND       X_T29U7  1
 UP BND       X_T29U8  1
 UP BND       X_T29U9  1
 UP BND       X_T29U10  1
 UP BND       X_T29U11  1
 UP BND       X_T29U12  1
 UP BND       X_T30U1  1
 UP BND       X_T30U2  1
 UP BND       X_T30U3  1
 UP BND       X_T30U4  1
 UP BND       X_T30U5  1
 UP BND       X_T30U6  1
 UP BND       X_T30U7  1
 UP BND       X_T30U8  1
 UP BND       X_T30U9  1
 UP BND       X_T30U10  1
 UP BND       X_T30U11  1
 UP BND       X_T30U12  1
 UP BND       X_T31U1  1
 UP BND       X_T31U2  1
 UP BND       X_T31U3  1
 UP BND       X_T31U4  1
 UP BND       X_T31U5  1
 UP BND       X_T31U6  1
 UP BND       X_T31U7  1
 UP BND       X_T31U8  1
 UP BND       X_T31U9  1
 UP BND       X_T31U10  1
 UP BND       X_T31U11  1
 UP BND       X_T31U12  1
 UP BND       X_T32U1  1
 UP BND       X_T32U2  1
 UP BND       X_T32U3  1
 UP BND       X_T32U4  1
 UP BND       X_T32U5  1
 UP BND       X_T32U6  1
 UP BND       X_T32U7  1
 UP BND       X_T32U8  1
 UP BND       X_T32U9  1
 UP BND       X_T32U10  1
 UP BND       X_T32U11  1
 UP BND       X_T32U12  1
 UP BND       X_T33U1  1
 UP BND       X_T33U2  1
 UP BND       X_T33U3  1
 UP BND       X_T33U4  1
 UP BND       X_T33U5  1
 UP BND       X_T33U6  1
 UP BND       X_T33U7  1
 UP BND       X_T33U8  1
 UP BND       X_T33U9  1
 UP BND       X_T33U10  1
 UP BND       X_T33U11  1
 UP BND       X_T33U12  1
 UP BND       X_T34U1  1
 UP BND       X_T34U2  1
 UP BND       X_T34U3  1
 UP BND       X_T34U4  1
 UP BND       X_T34U5  1
 UP BND       X_T34U6  1
 UP BND       X_T34U7  1
 UP BND       X_T34U8  1
 UP BND       X_T34U9  1
 UP BND       X_T34U10  1
 UP BND       X_T34U11  1
 UP BND       X_T34U12  1
 UP BND       X_T35U1  1
 UP BND       X_T35U2  1
 UP BND       X_T35U3  1
 UP BND       X_T35U4  1
 UP BND       X_T35U5  1
 UP BND       X_T35U6  1
 UP BND       X_T35U7  1
 UP BND       X_T35U8  1
 UP BND       X_T35U9  1
 UP BND       X_T35U10  1
 UP BND       X_T35U11  1
 UP BND       X_T35U12  1
 UP BND       X_T36U1  1
 UP BND       X_T36U2  1
 UP BND       X_T36U3  1
 UP BND       X_T36U4  1
 UP BND       X_T36U5  1
 UP BND       X_T36U6  1
 UP BND       X_T36U7  1
 UP BND       X_T36U8  1
 UP BND       X_T36U9  1
 UP BND       X_T36U10  1
 UP BND       X_T36U11  1
 UP BND       X_T36U12  1
 UP BND       X_T37U1  1
 UP BND       X_T37U2  1
 UP BND       X_T37U3  1
 UP BND       X_T37U4  1
 UP BND       X_T37U5  1
 UP BND       X_T37U6  1
 UP BND       X_T37U7  1
 UP BND       X_T37U8  1
 UP BND       X_T37U9  1
 UP BND       X_T37U10  1
 UP BND       X_T37U11  1
 UP BND       X_T37U12  1
 UP BND       X_T38U1  1
 UP BND       X_T38U2  1
 UP BND       X_T38U3  1
 UP BND       X_T38U4  1
 UP BND       X_T38U5  1
 UP BND       X_T38U6  1
 UP BND       X_T38U7  1
 UP BND       X_T38U8  1
 UP BND       X_T38U9  1
 UP BND       X_T38U10  1
 UP BND       X_T38U11  1
 UP BND       X_T38U12  1
 UP BND       X_T39U1  1
 UP BND       X_T39U2  1
 UP BND       X_T39U3  1
 UP BND       X_T39U4  1
 UP BND       X_T39U5  1
 UP BND       X_T39U6  1
 UP BND       X_T39U7  1
 UP BND       X_T39U8  1
 UP BND       X_T39U9  1
 UP BND       X_T39U10  1
 UP BND       X_T39U11  1
 UP BND       X_T39U12  1
 UP BND       X_T40U1  1
 UP BND       X_T40U2  1
 UP BND       X_T40U3  1
 UP BND       X_T40U4  1
 UP BND       X_T40U5  1
 UP BND       X_T40U6  1
 UP BND       X_T40U7  1
 UP BND       X_T40U8  1
 UP BND       X_T40U9  1
 UP BND       X_T40U10  1
 UP BND       X_T40U11  1
 UP BND       X_T40U12  1
 UP BND       X_T41U1  1
 UP BND       X_T41U2  1
 UP BND       X_T41U3  1
 UP BND       X_T41U4  1
 UP BND       X_T41U5  1
 UP BND       X_T41U6  1
 UP BND       X_T41U7  1
 UP BND       X_T41U8  1
 UP BND       X_T41U9  1
 UP BND       X_T41U10  1
 UP BND       X_T41U11  1
 UP BND       X_T41U12  1
 UP BND       X_T42U1  1
 UP BND       X_T42U2  1
 UP BND       X_T42U3  1
 UP BND       X_T42U4  1
 UP BND       X_T42U5  1
 UP BND       X_T42U6  1
 UP BND       X_T42U7  1
 UP BND       X_T42U8  1
 UP BND       X_T42U9  1
 UP BND       X_T42U10  1
 UP BND       X_T42U11  1
 UP BND       X_T42U12  1
 UP BND       X_T43U1  1
 UP BND       X_T43U2  1
 UP BND       X_T43U3  1
 UP BND       X_T43U4  1
 UP BND       X_T43U5  1
 UP BND       X_T43U6  1
 UP BND       X_T43U7  1
 UP BND       X_T43U8  1
 UP BND       X_T43U9  1
 UP BND       X_T43U10  1
 UP BND       X_T43U11  1
 UP BND       X_T43U12  1
 UP BND       X_T44U1  1
 UP BND       X_T44U2  1
 UP BND       X_T44U3  1
 UP BND       X_T44U4  1
 UP BND       X_T44U5  1
 UP BND       X_T44U6  1
 UP BND       X_T44U7  1
 UP BND       X_T44U8  1
 UP BND       X_T44U9  1
 UP BND       X_T44U10  1
 UP BND       X_T44U11  1
 UP BND       X_T44U12  1
 UP BND       X_T45U1  1
 UP BND       X_T45U2  1
 UP BND       X_T45U3  1
 UP BND       X_T45U4  1
 UP BND       X_T45U5  1
 UP BND       X_T45U6  1
 UP BND       X_T45U7  1
 UP BND       X_T45U8  1
 UP BND       X_T45U9  1
 UP BND       X_T45U10  1
 UP BND       X_T45U11  1
 UP BND       X_T45U12  1
 UP BND       X_T46U1  1
 UP BND       X_T46U2  1
 UP BND       X_T46U3  1
 UP BND       X_T46U4  1
 UP BND       X_T46U5  1
 UP BND       X_T46U6  1
 UP BND       X_T46U7  1
 UP BND       X_T46U8  1
 UP BND       X_T46U9  1
 UP BND       X_T46U10  1
 UP BND       X_T46U11  1
 UP BND       X_T46U12  1
 UP BND       X_T47U1  1
 UP BND       X_T47U2  1
 UP BND       X_T47U3  1
 UP BND       X_T47U4  1
 UP BND       X_T47U5  1
 UP BND       X_T47U6  1
 UP BND       X_T47U7  1
 UP BND       X_T47U8  1
 UP BND       X_T47U9  1
 UP BND       X_T47U10  1
 UP BND       X_T47U11  1
 UP BND       X_T47U12  1
 UP BND       X_T48U1  1
 UP BND       X_T48U2  1
 UP BND       X_T48U3  1
 UP BND       X_T48U4  1
 UP BND       X_T48U5  1
 UP BND       X_T48U6  1
 UP BND       X_T48U7  1
 UP BND       X_T48U8  1
 UP BND       X_T48U9  1
 UP BND       X_T48U10  1
 UP BND       X_T48U11  1
 UP BND       X_T48U12  1
 UP BND       S_T1U1  1
 UP BND       S_T1U2  1
 UP BND       S_T1U3  1
 UP BND       S_T1U4  1
 UP BND       S_T1U5  1
 UP BND       S_T1U6  1
 UP BND       S_T1U7  1
 UP BND       S_T1U8  1
 UP BND       S_T1U9  1
 UP BND       S_T1U10  1
 UP BND       S_T1U11  1
 UP BND       S_T1U12  1
 UP BND       S_T2U1  1
 UP BND       S_T2U2  1
 UP BND       S_T2U3  1
 UP BND       S_T2U4  1
 UP BND       S_T2U5  1
 UP BND       S_T2U6  1
 UP BND       S_T2U7  1
 UP BND       S_T2U8  1
 UP BND       S_T2U9  1
 UP BND       S_T2U10  1
 UP BND       S_T2U11  1
 UP BND       S_T2U12  1
 UP BND       S_T3U1  1
 UP BND       S_T3U2  1
 UP BND       S_T3U3  1
 UP BND       S_T3U4  1
 UP BND       S_T3U5  1
 UP BND       S_T3U6  1
 UP BND       S_T3U7  1
 UP BND       S_T3U8  1
 UP BND       S_T3U9  1
 UP BND       S_T3U10  1
 UP BND       S_T3U11  1
 UP BND       S_T3U12  1
 UP BND       S_T4U1  1
 UP BND       S_T4U2  1
 UP BND       S_T4U3  1
 UP BND       S_T4U4  1
 UP BND       S_T4U5  1
 UP BND       S_T4U6  1
 UP BND       S_T4U7  1
 UP BND       S_T4U8  1
 UP BND       S_T4U9  1
 UP BND       S_T4U10  1
 UP BND       S_T4U11  1
 UP BND       S_T4U12  1
 UP BND       S_T5U1  1
 UP BND       S_T5U2  1
 UP BND       S_T5U3  1
 UP BND       S_T5U4  1
 UP BND       S_T5U5  1
 UP BND       S_T5U6  1
 UP BND       S_T5U7  1
 UP BND       S_T5U8  1
 UP BND       S_T5U9  1
 UP BND       S_T5U10  1
 UP BND       S_T5U11  1
 UP BND       S_T5U12  1
 UP BND       S_T6U1  1
 UP BND       S_T6U2  1
 UP BND       S_T6U3  1
 UP BND       S_T6U4  1
 UP BND       S_T6U5  1
 UP BND       S_T6U6  1
 UP BND       S_T6U7  1
 UP BND       S_T6U8  1
 UP BND       S_T6U9  1
 UP BND       S_T6U10  1
 UP BND       S_T6U11  1
 UP BND       S_T6U12  1
 UP BND       S_T7U1  1
 UP BND       S_T7U2  1
 UP BND       S_T7U3  1
 UP BND       S_T7U4  1
 UP BND       S_T7U5  1
 UP BND       S_T7U6  1
 UP BND       S_T7U7  1
 UP BND       S_T7U8  1
 UP BND       S_T7U9  1
 UP BND       S_T7U10  1
 UP BND       S_T7U11  1
 UP BND       S_T7U12  1
 UP BND       S_T8U1  1
 UP BND       S_T8U2  1
 UP BND       S_T8U3  1
 UP BND       S_T8U4  1
 UP BND       S_T8U5  1
 UP BND       S_T8U6  1
 UP BND       S_T8U7  1
 UP BND       S_T8U8  1
 UP BND       S_T8U9  1
 UP BND       S_T8U10  1
 UP BND       S_T8U11  1
 UP BND       S_T8U12  1
 UP BND       S_T9U1  1
 UP BND       S_T9U2  1
 UP BND       S_T9U3  1
 UP BND       S_T9U4  1
 UP BND       S_T9U5  1
 UP BND       S_T9U6  1
 UP BND       S_T9U7  1
 UP BND       S_T9U8  1
 UP BND       S_T9U9  1
 UP BND       S_T9U10  1
 UP BND       S_T9U11  1
 UP BND       S_T9U12  1
 UP BND       S_T10U1  1
 UP BND       S_T10U2  1
 UP BND       S_T10U3  1
 UP BND       S_T10U4  1
 UP BND       S_T10U5  1
 UP BND       S_T10U6  1
 UP BND       S_T10U7  1
 UP BND       S_T10U8  1
 UP BND       S_T10U9  1
 UP BND       S_T10U10  1
 UP BND       S_T10U11  1
 UP BND       S_T10U12  1
 UP BND       S_T11U1  1
 UP BND       S_T11U2  1
 UP BND       S_T11U3  1
 UP BND       S_T11U4  1
 UP BND       S_T11U5  1
 UP BND       S_T11U6  1
 UP BND       S_T11U7  1
 UP BND       S_T11U8  1
 UP BND       S_T11U9  1
 UP BND       S_T11U10  1
 UP BND       S_T11U11  1
 UP BND       S_T11U12  1
 UP BND       S_T12U1  1
 UP BND       S_T12U2  1
 UP BND       S_T12U3  1
 UP BND       S_T12U4  1
 UP BND       S_T12U5  1
 UP BND       S_T12U6  1
 UP BND       S_T12U7  1
 UP BND       S_T12U8  1
 UP BND       S_T12U9  1
 UP BND       S_T12U10  1
 UP BND       S_T12U11  1
 UP BND       S_T12U12  1
 UP BND       S_T13U1  1
 UP BND       S_T13U2  1
 UP BND       S_T13U3  1
 UP BND       S_T13U4  1
 UP BND       S_T13U5  1
 UP BND       S_T13U6  1
 UP BND       S_T13U7  1
 UP BND       S_T13U8  1
 UP BND       S_T13U9  1
 UP BND       S_T13U10  1
 UP BND       S_T13U11  1
 UP BND       S_T13U12  1
 UP BND       S_T14U1  1
 UP BND       S_T14U2  1
 UP BND       S_T14U3  1
 UP BND       S_T14U4  1
 UP BND       S_T14U5  1
 UP BND       S_T14U6  1
 UP BND       S_T14U7  1
 UP BND       S_T14U8  1
 UP BND       S_T14U9  1
 UP BND       S_T14U10  1
 UP BND       S_T14U11  1
 UP BND       S_T14U12  1
 UP BND       S_T15U1  1
 UP BND       S_T15U2  1
 UP BND       S_T15U3  1
 UP BND       S_T15U4  1
 UP BND       S_T15U5  1
 UP BND       S_T15U6  1
 UP BND       S_T15U7  1
 UP BND       S_T15U8  1
 UP BND       S_T15U9  1
 UP BND       S_T15U10  1
 UP BND       S_T15U11  1
 UP BND       S_T15U12  1
 UP BND       S_T16U1  1
 UP BND       S_T16U2  1
 UP BND       S_T16U3  1
 UP BND       S_T16U4  1
 UP BND       S_T16U5  1
 UP BND       S_T16U6  1
 UP BND       S_T16U7  1
 UP BND       S_T16U8  1
 UP BND       S_T16U9  1
 UP BND       S_T16U10  1
 UP BND       S_T16U11  1
 UP BND       S_T16U12  1
 UP BND       S_T17U1  1
 UP BND       S_T17U2  1
 UP BND       S_T17U3  1
 UP BND       S_T17U4  1
 UP BND       S_T17U5  1
 UP BND       S_T17U6  1
 UP BND       S_T17U7  1
 UP BND       S_T17U8  1
 UP BND       S_T17U9  1
 UP BND       S_T17U10  1
 UP BND       S_T17U11  1
 UP BND       S_T17U12  1
 UP BND       S_T18U1  1
 UP BND       S_T18U2  1
 UP BND       S_T18U3  1
 UP BND       S_T18U4  1
 UP BND       S_T18U5  1
 UP BND       S_T18U6  1
 UP BND       S_T18U7  1
 UP BND       S_T18U8  1
 UP BND       S_T18U9  1
 UP BND       S_T18U10  1
 UP BND       S_T18U11  1
 UP BND       S_T18U12  1
 UP BND       S_T19U1  1
 UP BND       S_T19U2  1
 UP BND       S_T19U3  1
 UP BND       S_T19U4  1
 UP BND       S_T19U5  1
 UP BND       S_T19U6  1
 UP BND       S_T19U7  1
 UP BND       S_T19U8  1
 UP BND       S_T19U9  1
 UP BND       S_T19U10  1
 UP BND       S_T19U11  1
 UP BND       S_T19U12  1
 UP BND       S_T20U1  1
 UP BND       S_T20U2  1
 UP BND       S_T20U3  1
 UP BND       S_T20U4  1
 UP BND       S_T20U5  1
 UP BND       S_T20U6  1
 UP BND       S_T20U7  1
 UP BND       S_T20U8  1
 UP BND       S_T20U9  1
 UP BND       S_T20U10  1
 UP BND       S_T20U11  1
 UP BND       S_T20U12  1
 UP BND       S_T21U1  1
 UP BND       S_T21U2  1
 UP BND       S_T21U3  1
 UP BND       S_T21U4  1
 UP BND       S_T21U5  1
 UP BND       S_T21U6  1
 UP BND       S_T21U7  1
 UP BND       S_T21U8  1
 UP BND       S_T21U9  1
 UP BND       S_T21U10  1
 UP BND       S_T21U11  1
 UP BND       S_T21U12  1
 UP BND       S_T22U1  1
 UP BND       S_T22U2  1
 UP BND       S_T22U3  1
 UP BND       S_T22U4  1
 UP BND       S_T22U5  1
 UP BND       S_T22U6  1
 UP BND       S_T22U7  1
 UP BND       S_T22U8  1
 UP BND       S_T22U9  1
 UP BND       S_T22U10  1
 UP BND       S_T22U11  1
 UP BND       S_T22U12  1
 UP BND       S_T23U1  1
 UP BND       S_T23U2  1
 UP BND       S_T23U3  1
 UP BND       S_T23U4  1
 UP BND       S_T23U5  1
 UP BND       S_T23U6  1
 UP BND       S_T23U7  1
 UP BND       S_T23U8  1
 UP BND       S_T23U9  1
 UP BND       S_T23U10  1
 UP BND       S_T23U11  1
 UP BND       S_T23U12  1
 UP BND       S_T24U1  1
 UP BND       S_T24U2  1
 UP BND       S_T24U3  1
 UP BND       S_T24U4  1
 UP BND       S_T24U5  1
 UP BND       S_T24U6  1
 UP BND       S_T24U7  1
 UP BND       S_T24U8  1
 UP BND       S_T24U9  1
 UP BND       S_T24U10  1
 UP BND       S_T24U11  1
 UP BND       S_T24U12  1
 UP BND       S_T25U1  1
 UP BND       S_T25U2  1
 UP BND       S_T25U3  1
 UP BND       S_T25U4  1
 UP BND       S_T25U5  1
 UP BND       S_T25U6  1
 UP BND       S_T25U7  1
 UP BND       S_T25U8  1
 UP BND       S_T25U9  1
 UP BND       S_T25U10  1
 UP BND       S_T25U11  1
 UP BND       S_T25U12  1
 UP BND       S_T26U1  1
 UP BND       S_T26U2  1
 UP BND       S_T26U3  1
 UP BND       S_T26U4  1
 UP BND       S_T26U5  1
 UP BND       S_T26U6  1
 UP BND       S_T26U7  1
 UP BND       S_T26U8  1
 UP BND       S_T26U9  1
 UP BND       S_T26U10  1
 UP BND       S_T26U11  1
 UP BND       S_T26U12  1
 UP BND       S_T27U1  1
 UP BND       S_T27U2  1
 UP BND       S_T27U3  1
 UP BND       S_T27U4  1
 UP BND       S_T27U5  1
 UP BND       S_T27U6  1
 UP BND       S_T27U7  1
 UP BND       S_T27U8  1
 UP BND       S_T27U9  1
 UP BND       S_T27U10  1
 UP BND       S_T27U11  1
 UP BND       S_T27U12  1
 UP BND       S_T28U1  1
 UP BND       S_T28U2  1
 UP BND       S_T28U3  1
 UP BND       S_T28U4  1
 UP BND       S_T28U5  1
 UP BND       S_T28U6  1
 UP BND       S_T28U7  1
 UP BND       S_T28U8  1
 UP BND       S_T28U9  1
 UP BND       S_T28U10  1
 UP BND       S_T28U11  1
 UP BND       S_T28U12  1
 UP BND       S_T29U1  1
 UP BND       S_T29U2  1
 UP BND       S_T29U3  1
 UP BND       S_T29U4  1
 UP BND       S_T29U5  1
 UP BND       S_T29U6  1
 UP BND       S_T29U7  1
 UP BND       S_T29U8  1
 UP BND       S_T29U9  1
 UP BND       S_T29U10  1
 UP BND       S_T29U11  1
 UP BND       S_T29U12  1
 UP BND       S_T30U1  1
 UP BND       S_T30U2  1
 UP BND       S_T30U3  1
 UP BND       S_T30U4  1
 UP BND       S_T30U5  1
 UP BND       S_T30U6  1
 UP BND       S_T30U7  1
 UP BND       S_T30U8  1
 UP BND       S_T30U9  1
 UP BND       S_T30U10  1
 UP BND       S_T30U11  1
 UP BND       S_T30U12  1
 UP BND       S_T31U1  1
 UP BND       S_T31U2  1
 UP BND       S_T31U3  1
 UP BND       S_T31U4  1
 UP BND       S_T31U5  1
 UP BND       S_T31U6  1
 UP BND       S_T31U7  1
 UP BND       S_T31U8  1
 UP BND       S_T31U9  1
 UP BND       S_T31U10  1
 UP BND       S_T31U11  1
 UP BND       S_T31U12  1
 UP BND       S_T32U1  1
 UP BND       S_T32U2  1
 UP BND       S_T32U3  1
 UP BND       S_T32U4  1
 UP BND       S_T32U5  1
 UP BND       S_T32U6  1
 UP BND       S_T32U7  1
 UP BND       S_T32U8  1
 UP BND       S_T32U9  1
 UP BND       S_T32U10  1
 UP BND       S_T32U11  1
 UP BND       S_T32U12  1
 UP BND       S_T33U1  1
 UP BND       S_T33U2  1
 UP BND       S_T33U3  1
 UP BND       S_T33U4  1
 UP BND       S_T33U5  1
 UP BND       S_T33U6  1
 UP BND       S_T33U7  1
 UP BND       S_T33U8  1
 UP BND       S_T33U9  1
 UP BND       S_T33U10  1
 UP BND       S_T33U11  1
 UP BND       S_T33U12  1
 UP BND       S_T34U1  1
 UP BND       S_T34U2  1
 UP BND       S_T34U3  1
 UP BND       S_T34U4  1
 UP BND       S_T34U5  1
 UP BND       S_T34U6  1
 UP BND       S_T34U7  1
 UP BND       S_T34U8  1
 UP BND       S_T34U9  1
 UP BND       S_T34U10  1
 UP BND       S_T34U11  1
 UP BND       S_T34U12  1
 UP BND       S_T35U1  1
 UP BND       S_T35U2  1
 UP BND       S_T35U3  1
 UP BND       S_T35U4  1
 UP BND       S_T35U5  1
 UP BND       S_T35U6  1
 UP BND       S_T35U7  1
 UP BND       S_T35U8  1
 UP BND       S_T35U9  1
 UP BND       S_T35U10  1
 UP BND       S_T35U11  1
 UP BND       S_T35U12  1
 UP BND       S_T36U1  1
 UP BND       S_T36U2  1
 UP BND       S_T36U3  1
 UP BND       S_T36U4  1
 UP BND       S_T36U5  1
 UP BND       S_T36U6  1
 UP BND       S_T36U7  1
 UP BND       S_T36U8  1
 UP BND       S_T36U9  1
 UP BND       S_T36U10  1
 UP BND       S_T36U11  1
 UP BND       S_T36U12  1
 UP BND       S_T37U1  1
 UP BND       S_T37U2  1
 UP BND       S_T37U3  1
 UP BND       S_T37U4  1
 UP BND       S_T37U5  1
 UP BND       S_T37U6  1
 UP BND       S_T37U7  1
 UP BND       S_T37U8  1
 UP BND       S_T37U9  1
 UP BND       S_T37U10  1
 UP BND       S_T37U11  1
 UP BND       S_T37U12  1
 UP BND       S_T38U1  1
 UP BND       S_T38U2  1
 UP BND       S_T38U3  1
 UP BND       S_T38U4  1
 UP BND       S_T38U5  1
 UP BND       S_T38U6  1
 UP BND       S_T38U7  1
 UP BND       S_T38U8  1
 UP BND       S_T38U9  1
 UP BND       S_T38U10  1
 UP BND       S_T38U11  1
 UP BND       S_T38U12  1
 UP BND       S_T39U1  1
 UP BND       S_T39U2  1
 UP BND       S_T39U3  1
 UP BND       S_T39U4  1
 UP BND       S_T39U5  1
 UP BND       S_T39U6  1
 UP BND       S_T39U7  1
 UP BND       S_T39U8  1
 UP BND       S_T39U9  1
 UP BND       S_T39U10  1
 UP BND       S_T39U11  1
 UP BND       S_T39U12  1
 UP BND       S_T40U1  1
 UP BND       S_T40U2  1
 UP BND       S_T40U3  1
 UP BND       S_T40U4  1
 UP BND       S_T40U5  1
 UP BND       S_T40U6  1
 UP BND       S_T40U7  1
 UP BND       S_T40U8  1
 UP BND       S_T40U9  1
 UP BND       S_T40U10  1
 UP BND       S_T40U11  1
 UP BND       S_T40U12  1
 UP BND       S_T41U1  1
 UP BND       S_T41U2  1
 UP BND       S_T41U3  1
 UP BND       S_T41U4  1
 UP BND       S_T41U5  1
 UP BND       S_T41U6  1
 UP BND       S_T41U7  1
 UP BND       S_T41U8  1
 UP BND       S_T41U9  1
 UP BND       S_T41U10  1
 UP BND       S_T41U11  1
 UP BND       S_T41U12  1
 UP BND       S_T42U1  1
 UP BND       S_T42U2  1
 UP BND       S_T42U3  1
 UP BND       S_T42U4  1
 UP BND       S_T42U5  1
 UP BND       S_T42U6  1
 UP BND       S_T42U7  1
 UP BND       S_T42U8  1
 UP BND       S_T42U9  1
 UP BND       S_T42U10  1
 UP BND       S_T42U11  1
 UP BND       S_T42U12  1
 UP BND       S_T43U1  1
 UP BND       S_T43U2  1
 UP BND       S_T43U3  1
 UP BND       S_T43U4  1
 UP BND       S_T43U5  1
 UP BND       S_T43U6  1
 UP BND       S_T43U7  1
 UP BND       S_T43U8  1
 UP BND       S_T43U9  1
 UP BND       S_T43U10  1
 UP BND       S_T43U11  1
 UP BND       S_T43U12  1
 UP BND       S_T44U1  1
 UP BND       S_T44U2  1
 UP BND       S_T44U3  1
 UP BND       S_T44U4  1
 UP BND       S_T44U5  1
 UP BND       S_T44U6  1
 UP BND       S_T44U7  1
 UP BND       S_T44U8  1
 UP BND       S_T44U9  1
 UP BND       S_T44U10  1
 UP BND       S_T44U11  1
 UP BND       S_T44U12  1
 UP BND       S_T45U1  1
 UP BND       S_T45U2  1
 UP BND       S_T45U3  1
 UP BND       S_T45U4  1
 UP BND       S_T45U5  1
 UP BND       S_T45U6  1
 UP BND       S_T45U7  1
 UP BND       S_T45U8  1
 UP BND       S_T45U9  1
 UP BND       S_T45U10  1
 UP BND       S_T45U11  1
 UP BND       S_T45U12  1
 UP BND       S_T46U1  1
 UP BND       S_T46U2  1
 UP BND       S_T46U3  1
 UP BND       S_T46U4  1
 UP BND       S_T46U5  1
 UP BND       S_T46U6  1
 UP BND       S_T46U7  1
 UP BND       S_T46U8  1
 UP BND       S_T46U9  1
 UP BND       S_T46U10  1
 UP BND       S_T46U11  1
 UP BND       S_T46U12  1
 UP BND       S_T47U1  1
 UP BND       S_T47U2  1
 UP BND       S_T47U3  1
 UP BND       S_T47U4  1
 UP BND       S_T47U5  1
 UP BND       S_T47U6  1
 UP BND       S_T47U7  1
 UP BND       S_T47U8  1
 UP BND       S_T47U9  1
 UP BND       S_T47U10  1
 UP BND       S_T47U11  1
 UP BND       S_T47U12  1
 UP BND       S_T48U1  1
 UP BND       S_T48U2  1
 UP BND       S_T48U3  1
 UP BND       S_T48U4  1
 UP BND       S_T48U5  1
 UP BND       S_T48U6  1
 UP BND       S_T48U7  1
 UP BND       S_T48U8  1
 UP BND       S_T48U9  1
 UP BND       S_T48U10  1
 UP BND       S_T48U11  1
 UP BND       S_T48U12  1
ENDATA
