* generated by gen_sparse_lp.py seed=20260828 rows=500 cols=500 nnz=2987
NAME          SPARSELP
ROWS
 N  COST
 L  R0
 L  R1
 L  R2
 L  R3
 L  R4
 L  R5
 L  R6
 L  R7
 L  R8
 L  R9
 L  R10
 L  R11
 L  R12
 L  R13
 L  R14
 L  R15
 L  R16
 L  R17
 L  R18
 L  R19
 L  R20
 L  R21
 L  R22
 L  R23
 L  R24
 L  R25
 L  R26
 L  R27
 L  R28
 L  R29
 L  R30
 L  R31
 L  R32
 L  R33
 L  R34
 L  R35
 L  R36
 L  R37
 L  R38
 L  R39
 L  R40
 L  R41
 L  R42
 L  R43
 L  R44
 L  R45
 L  R46
 L  R47
 L  R48
 L  R49
 L  R50
 L  R51
 L  R52
 L  R53
 L  R54
 L  R55
 L  R56
 L  R57
 L  R58
 L  R59
 L  R60
 L  R61
 L  R62
 L  R63
 L  R64
 L  R65
 L  R66
 L  R67
 L  R68
 L  R69
 L  R70
 L  R71
 L  R72
 L  R73
 L  R74
 L  R75
 L  R76
 L  R77
 L  R78
 L  R79
 L  R80
 L  R81
 L  R82
 L  R83
 L  R84
 L  R85
 L  R86
 L  R87
 L  R88
 L  R89
 L  R90
 L  R91
 L  R92
 L  R93
 L  R94
 L  R95
 L  R96
 L  R97
 L  R98
 L  R99
 L  R100
 L  R101
 L  R102
 L  R103
 L  R104
 L  R105
 L  R106
 L  R107
 L  R108
 L  R109
 L  R110
 L  R111
 L  R112
 L  R113
 L  R114
 L  R115
 L  R116
 L  R117
 L  R118
 L  R119
 L  R120
 L  R121
 L  R122
 L  R123
 L  R124
 L  R125
 L  R126
 L  R127
 L  R128
 L  R129
 L  R130
 L  R131
 L  R132
 L  R133
 L  R134
 L  R135
 L  R136
 L  R137
 L  R138
 L  R139
 L  R140
 L  R141
 L  R142
 L  R143
 L  R144
 L  R145
 L  R146
 L  R147
 L  R148
 L  R149
 L  R150
 L  R151
 L  R152
 L  R153
 L  R154
 L  R155
 L  R156
 L  R157
 L  R158
 L  R159
 L  R160
 L  R161
 L  R162
 L  R163
 L  R164
 L  R165
 L  R166
 L  R167
 L  R168
 L  R169
 L  R170
 L  R171
 L  R172
 L  R173
 L  R174
 L  R175
 L  R176
 L  R177
 L  R178
 L  R179
 L  R180
 L  R181
 L  R182
 L  R183
 L  R184
 L  R185
 L  R186
 L  R187
 L  R188
 L  R189
 L  R190
 L  R191
 L  R192
 L  R193
 L  R194
 L  R195
 L  R196
 L  R197
 L  R198
 L  R199
 L  R200
 L  R201
 L  R202
 L  R203
 L  R204
 L  R205
 L  R206
 L  R207
 L  R208
 L  R209
 L  R210
 L  R211
 L  R212
 L  R213
 L  R214
 L  R215
 L  R216
 L  R217
 L  R218
 L  R219
 L  R220
 L  R221
 L  R222
 L  R223
 L  R224
 L  R225
 L  R226
 L  R227
 L  R228
 L  R229
 L  R230
 L  R231
 L  R232
 L  R233
 L  R234
 L  R235
 L  R236
 L  R237
 L  R238
 L  R239
 L  R240
 L  R241
 L  R242
 L  R243
 L  R244
 L  R245
 L  R246
 L  R247
 L  R248
 L  R249
 L  R250
 L  R251
 L  R252
 L  R253
 L  R254
 L  R255
 L  R256
 L  R257
 L  R258
 L  R259
 L  R260
 L  R261
 L  R262
 L  R263
 L  R264
 L  R265
 L  R266
 L  R267
 L  R268
 L  R269
 L  R270
 L  R271
 L  R272
 L  R273
 L  R274
 L  R275
 L  R276
 L  R277
 L  R278
 L  R279
 L  R280
 L  R281
 L  R282
 L  R283
 L  R284
 L  R285
 L  R286
 L  R287
 L  R288
 L  R289
 L  R290
 L  R291
 L  R292
 L  R293
 L  R294
 L  R295
 L  R296
 L  R297
 L  R298
 L  R299
 L  R300
 L  R301
 L  R302
 L  R303
 L  R304
 L  R305
 L  R306
 L  R307
 L  R308
 L  R309
 L  R310
 L  R311
 L  R312
 L  R313
 L  R314
 L  R315
 L  R316
 L  R317
 L  R318
 L  R319
 L  R320
 L  R321
 L  R322
 L  R323
 L  R324
 L  R325
 L  R326
 L  R327
 L  R328
 L  R329
 L  R330
 L  R331
 L  R332
 L  R333
 L  R334
 L  R335
 L  R336
 L  R337
 L  R338
 L  R339
 L  R340
 L  R341
 L  R342
 L  R343
 L  R344
 L  R345
 L  R346
 L  R347
 L  R348
 L  R349
 L  R350
 L  R351
 L  R352
 L  R353
 L  R354
 L  R355
 L  R356
 L  R357
 L  R358
 L  R359
 L  R360
 L  R361
 L  R362
 L  R363
 L  R364
 L  R365
 L  R366
 L  R367
 L  R368
 L  R369
 L  R370
 L  R371
 L  R372
 L  R373
 L  R374
 L  R375
 L  R376
 L  R377
 L  R378
 L  R379
 L  R380
 L  R381
 L  R382
 L  R383
 L  R384
 L  R385
 L  R386
 L  R387
 L  R388
 L  R389
 L  R390
 L  R391
 L  R392
 L  R393
 L  R394
 L  R395
 L  R396
 L  R397
 L  R398
 L  R399
 L  R400
 L  R401
 L  R402
 L  R403
 L  R404
 L  R405
 L  R406
 L  R407
 L  R408
 L  R409
 L  R410
 L  R411
 L  R412
 L  R413
 L  R414
 L  R415
 L  R416
 L  R417
 L  R418
 L  R419
 L  R420
 L  R421
 L  R422
 L  R423
 L  R424
 L  R425
 L  R426
 L  R427
 L  R428
 L  R429
 L  R430
 L  R431
 L  R432
 L  R433
 L  R434
 L  R435
 L  R436
 L  R437
 L  R438
 L  R439
 L  R440
 L  R441
 L  R442
 L  R443
 L  R444
 L  R445
 L  R446
 L  R447
 L  R448
 L  R449
 L  R450
 L  R451
 L  R452
 L  R453
 L  R454
 L  R455
 L  R456
 L  R457
 L  R458
 L  R459
 L  R460
 L  R461
 L  R462
 L  R463
 L  R464
 L  R465
 L  R466
 L  R467
 L  R468
 L  R469
 L  R470
 L  R471
 L  R472
 L  R473
 L  R474
 L  R475
 L  R476
 L  R477
 L  R478
 L  R479
 L  R480
 L  R481
 L  R482
 L  R483
 L  R484
 L  R485
 L  R486
 L  R487
 L  R488
 L  R489
 L  R490
 L  R491
 L  R492
 L  R493
 L  R494
 L  R495
 L  R496
 L  R497
 L  R498
 L  R499
COLUMNS
    X0  COST  -1.801137
    X0  R0  1.091595
    X0  R46  -0.186912
    X0  R206  0.350786
    X0  R444  0.827488
    X0  R485  0.941031
    X1  COST  -1.617409
    X1  R1  1.080808
    X1  R66  -0.371517
    X1  R115  0.141019
    X2  COST  -1.514916
    X2  R2  1.021729
    X2  R436  -0.008112
    X3  COST  -1.269097
    X3  R3  1.016491
    X3  R128  0.238814
    X3  R242  -0.520175
    X3  R390  -0.968225
    X3  R397  -0.523963
    X4  COST  -1.353358
    X4  R4  1.089194
    X4  R96  0.269305
    X4  R122  -0.721952
    X4  R123  0.028693
    X4  R303  0.595849
    X4  R470  0.983227
    X5  COST  -1.352911
    X5  R5  1.057141
    X5  R20  0.487604
    X5  R68  -0.590238
    X5  R168  0.203703
    X5  R192  -0.830267
    X5  R231  0.16568
    X5  R347  -0.838538
    X5  R442  -0.388757
    X6  COST  -1.916962
    X6  R6  1.053448
    X6  R21  0.745545
    X6  R101  0.131521
    X6  R142  -0.739041
    X6  R164  0.473123
    X6  R244  -0.207921
    X6  R262  -0.0053
    X6  R330  -0.749572
    X6  R466  -0.358843
    X7  COST  -1.253793
    X7  R7  1.026495
    X7  R29  0.409911
    X7  R35  0.09082
    X7  R68  0.544771
    X7  R105  0.431579
    X7  R338  -0.555801
    X7  R388  -0.902332
    X7  R487  -0.837453
    X8  COST  -1.701601
    X8  R8  1.055495
    X8  R64  -0.967176
    X8  R67  -0.537585
    X8  R85  -0.270537
    X8  R172  0.372952
    X8  R421  0.029787
    X8  R463  -0.523613
    X9  COST  -1.752511
    X9  R9  1.059961
    X9  R90  0.016828
    X9  R152  0.563951
    X10  COST  -1.539023
    X10  R3  0.563826
    X10  R10  1.072445
    X10  R58  0.998599
    X10  R64  -0.828716
    X10  R190  -0.41308
    X10  R263  0.91183
    X10  R298  -0.892132
    X10  R322  0.827755
    X10  R334  -0.753969
    X10  R477  -0.240214
    X11  COST  -1.53346
    X11  R4  -0.904004
    X11  R11  1.060881
    X11  R251  0.101473
    X11  R287  0.933855
    X11  R303  0.22879
    X11  R348  -0.220894
    X11  R356  -0.583418
    X12  COST  -1.31341
    X12  R12  1.05284
    X12  R40  -0.797632
    X12  R209  0.183965
    X12  R420  -0.000655
    X13  COST  -1.90975
    X13  R13  1.058957
    X13  R36  -0.349866
    X14  COST  -1.873419
    X14  R14  1.083061
    X14  R25  -0.778733
    X14  R76  0.476248
    X14  R212  -0.39757
    X14  R321  0.935037
    X14  R362  0.494018
    X14  R481  0.499835
    X15  COST  -1.912787
    X15  R3  -0.822476
    X15  R15  1.053359
    X15  R61  0.517866
    X15  R151  -0.202952
    X15  R191  0.554777
    X15  R223  -0.147484
    X15  R277  -0.282306
    X15  R409  0.708007
    X16  COST  -1.815864
    X16  R9  0.839882
    X16  R16  1.02661
    X16  R24  -0.795269
    X16  R123  0.883142
    X16  R169  0.151697
    X16  R205  -0.580555
    X16  R307  0.28571
    X16  R332  0.653935
    X17  COST  -1.896233
    X17  R17  1.09475
    X17  R220  0.822751
    X17  R405  -0.627847
    X17  R467  -0.888501
    X17  R488  -0.367228
    X18  COST  -1.528086
    X18  R18  1.06118
    X18  R27  0.81422
    X18  R241  0.635928
    X18  R384  -0.418836
    X19  COST  -1.055051
    X19  R10  0.080571
    X19  R19  1.037038
    X19  R204  0.692199
    X19  R207  0.848319
    X19  R240  0.840726
    X20  COST  -1.993496
    X20  R20  1.02551
    X20  R120  0.44322
    X20  R199  -0.077026
    X20  R332  0.131059
    X20  R412  0.347978
    X21  COST  -1.82699
    X21  R21  1.005075
    X21  R26  -0.124467
    X21  R122  0.846496
    X21  R324  0.355169
    X22  COST  -1.854383
    X22  R22  1.077769
    X22  R65  0.202998
    X22  R213  0.994318
    X22  R382  0.110223
    X22  R411  -0.605172
    X23  COST  -1.388334
    X23  R23  1.095067
    X23  R109  -0.998712
    X23  R167  -0.066367
    X23  R268  -0.911066
    X23  R340  -0.981414
    X23  R399  -0.169896
    X23  R402  -0.750808
    X24  COST  -1.498517
    X24  R24  1.084624
    X25  COST  -1.658887
    X25  R25  1.077271
    X25  R114  -0.61773
    X25  R296  0.133262
    X25  R300  0.232308
    X26  COST  -1.329022
    X26  R26  1.002839
    X26  R265  0.116582
    X26  R383  0.193693
    X26  R443  -0.379081
    X26  R488  -0.996737
    X27  COST  -1.075096
    X27  R27  1.068468
    X27  R67  0.431295
    X27  R74  -0.642957
    X27  R208  0.977363
    X27  R231  -0.619297
    X27  R490  0.353621
    X28  COST  -1.974518
    X28  R6  0.312454
    X28  R28  1.00714
    X28  R39  -0.37121
    X28  R64  0.378737
    X28  R176  -0.80628
    X28  R310  0.338917
    X28  R348  0.938109
    X29  COST  -1.955866
    X29  R29  1.072857
    X29  R120  0.80532
    X29  R122  -0.229859
    X29  R203  -0.276358
    X29  R312  0.508962
    X29  R371  -0.082098
    X29  R417  0.149592
    X29  R432  0.598529
    X29  R435  0.011477
    X29  R486  -0.063382
    X29  R493  -0.792535
    X30  COST  -1.926135
    X30  R5  0.436207
    X30  R30  1.060775
    X30  R339  0.3151
    X30  R355  -0.716371
    X31  COST  -1.101956
    X31  R31  1.080972
    X31  R346  -0.832171
    X31  R380  0.772237
    X31  R392  0.184757
    X32  COST  -1.504697
    X32  R32  1.029878
    X32  R159  0.10204
    X32  R330  -0.117629
    X32  R337  0.045735
    X33  COST  -1.040058
    X33  R11  -0.888043
    X33  R33  1.005592
    X33  R68  0.157037
    X33  R80  0.774669
    X33  R170  -0.556976
    X34  COST  -1.859665
    X34  R7  -0.054885
    X34  R34  1.016734
    X34  R264  -0.708242
    X34  R278  -0.695419
    X35  COST  -1.848713
    X35  R35  1.057032
    X35  R263  0.060564
    X35  R307  0.830252
    X35  R335  -0.628153
    X35  R364  -0.755461
    X36  COST  -1.595807
    X36  R36  1.002388
    X36  R308  -0.533997
    X37  COST  -1.14329
    X37  R37  1.099654
    X37  R142  -0.498853
    X37  R151  0.579158
    X37  R180  -0.912348
    X37  R372  -0.35726
    X37  R464  0.025162
    X38  COST  -1.426838
    X38  R8  -0.35863
    X38  R13  0.458782
    X38  R32  0.264597
    X38  R38  1.02636
    X38  R70  0.505498
    X38  R96  -0.90694
    X38  R149  0.927647
    X38  R233  -0.637962
    X38  R480  0.249191
    X38  R484  -0.778869
    X39  COST  -1.976517
    X39  R39  1.067814
    X39  R146  0.338368
    X39  R204  -0.189372
    X39  R336  -0.858291
    X39  R388  -0.269051
    X39  R422  0.495447
    X40  COST  -1.628802
    X40  R40  1.081787
    X40  R128  -0.42612
    X40  R348  0.759587
    X41  COST  -1.68734
    X41  R41  1.062754
    X41  R130  0.801079
    X41  R163  0.206747
    X41  R218  -0.540093
    X41  R335  0.047549
    X41  R472  -0.836006
    X42  COST  -1.199158
    X42  R42  1.010948
    X42  R47  0.495427
    X43  COST  -1.33268
    X43  R43  1.05036
    X43  R140  -0.21447
    X43  R192  -0.712862
    X43  R221  -0.95541
    X43  R226  -0.756464
    X43  R249  -0.795956
    X43  R492  0.252181
    X44  COST  -1.175947
    X44  R44  1.067534
    X44  R108  0.751279
    X44  R327  0.593981
    X45  COST  -1.312345
    X45  R45  1.028042
    X45  R89  -0.81635
    X45  R130  0.907335
    X45  R237  0.300217
    X45  R288  0.175542
    X46  COST  -1.299875
    X46  R30  0.739878
    X46  R46  1.013755
    X46  R213  0.583672
    X46  R365  0.355267
    X47  COST  -1.657378
    X47  R47  1.031202
    X47  R56  0.598847
    X47  R258  0.628468
    X47  R404  0.773845
    X48  COST  -1.588267
    X48  R48  1.082549
    X48  R188  -0.710255
    X48  R362  -0.639371
    X48  R485  -0.812909
    X48  R493  0.818911
    X49  COST  -1.70299
    X49  R49  1.058609
    X49  R225  0.89399
    X49  R367  0.014024
    X49  R495  0.473456
    X50  COST  -1.758439
    X50  R50  1.055026
    X50  R109  -0.575965
    X50  R240  -0.631215
    X50  R248  -0.081188
    X50  R253  -0.51235
    X51  COST  -1.379217
    X51  R40  0.330383
    X51  R51  1.028993
    X52  COST  -1.202
    X52  R52  1.005975
    X52  R126  0.935434
    X52  R166  0.158409
    X52  R193  0.296856
    X52  R206  0.931687
    X52  R228  -0.692265
    X52  R289  -0.255338
    X52  R361  -0.467513
    X53  COST  -1.346887
    X53  R53  1.027036
    X53  R75  -0.7197
    X53  R121  -0.577911
    X53  R134  -0.834968
    X53  R280  -0.931254
    X53  R447  -0.846345
    X54  COST  -1.372456
    X54  R19  0.368755
    X54  R54  1.056881
    X54  R105  0.627432
    X54  R154  -0.109251
    X54  R199  -0.699626
    X54  R224  0.764844
    X55  COST  -1.629776
    X55  R6  -0.012611
    X55  R55  1.011438
    X55  R126  0.768626
    X55  R336  0.334463
    X55  R458  0.589953
    X56  COST  -1.814858
    X56  R25  0.852733
    X56  R56  1.010366
    X56  R117  -0.891043
    X56  R375  0.415844
    X57  COST  -1.432734
    X57  R57  1.057171
    X57  R81  0.61177
    X57  R273  -0.500924
    X58  COST  -1.206649
    X58  R58  1.032651
    X58  R69  -0.599826
    X58  R259  -0.478444
    X58  R316  -0.625052
    X58  R402  0.795153
    X59  COST  -1.908543
    X59  R59  1.000836
    X59  R171  -0.887673
    X59  R199  0.974579
    X59  R288  0.494316
    X59  R338  0.540835
    X60  COST  -1.391119
    X60  R1  0.837426
    X60  R60  1.053319
    X60  R97  0.451996
    X60  R236  -0.523834
    X60  R285  0.064361
    X60  R351  -0.151308
    X60  R394  -0.185677
    X60  R446  0.52339
    X61  COST  -1.230284
    X61  R61  1.093573
    X61  R74  -0.39479
    X61  R80  -0.086679
    X61  R121  0.701509
    X61  R137  0.784848
    X61  R310  0.638401
    X61  R363  -0.477066
    X61  R396  0.910154
    X61  R443  0.770893
    X61  R447  0.632233
    X62  COST  -1.859323
    X62  R57  -0.574876
    X62  R62  1.005503
    X62  R291  0.021126
    X63  COST  -1.178734
    X63  R63  1.037517
    X63  R102  -0.469711
    X63  R123  -0.619436
    X63  R209  -0.938946
    X63  R251  -0.163005
    X64  COST  -1.1591
    X64  R49  -0.248831
    X64  R64  1.066503
    X65  COST  -1.445002
    X65  R23  -0.467101
    X65  R65  1.07746
    X65  R170  0.760996
    X65  R280  -0.743993
    X65  R373  -0.328674
    X65  R438  -0.274519
    X65  R442  0.602818
    X65  R467  0.021896
    X66  COST  -1.551583
    X66  R6  -0.41643
    X66  R66  1.022321
    X66  R153  0.130753
    X66  R337  -0.235525
    X67  COST  -1.191573
    X67  R67  1.010176
    X67  R131  -0.193299
    X67  R340  0.706292
    X68  COST  -1.864982
    X68  R37  0.118903
    X68  R68  1.056215
    X68  R130  0.408868
    X68  R391  -0.21358
    X68  R420  -0.414159
    X68  R483  -0.861302
    X69  COST  -1.217628
    X69  R69  1.059718
    X69  R235  -0.522932
    X69  R255  -0.377846
    X69  R496  0.846211
    X70  COST  -1.204174
    X70  R70  1.065302
    X70  R174  -0.856833
    X70  R190  0.760562
    X70  R334  0.786367
    X71  COST  -1.871756
    X71  R22  -0.749807
    X71  R67  0.947634
    X71  R71  1.043145
    X71  R165  0.387527
    X71  R188  0.094551
    X71  R481  -0.955791
    X72  COST  -1.850179
    X72  R29  -0.676855
    X72  R72  1.076075
    X72  R295  0.948657
    X72  R427  -0.10565
    X72  R487  -0.294185
    X73  COST  -1.556098
    X73  R41  -0.865435
    X73  R73  1.026299
    X73  R112  -0.285743
    X73  R197  0.61553
    X74  COST  -1.272725
    X74  R74  1.084885
    X74  R397  0.109493
    X74  R400  0.783346
    X74  R422  -0.639536
    X74  R431  0.134145
    X74  R488  0.797052
    X75  COST  -1.490085
    X75  R48  -0.973561
    X75  R75  1.047999
    X75  R113  -0.907583
    X75  R163  0.637675
    X75  R237  0.039737
    X75  R281  -0.019982
    X75  R490  0.044795
    X75  R496  -0.412779
    X76  COST  -1.598848
    X76  R55  -0.6669
    X76  R76  1.086217
    X76  R78  -0.824401
    X76  R170  -0.861118
    X76  R474  0.000988
    X76  R498  0.460341
    X77  COST  -1.180867
    X77  R77  1.019797
    X77  R85  0.765576
    X77  R147  0.429336
    X77  R466  0.595625
    X78  COST  -1.499157
    X78  R78  1.072036
    X78  R158  0.722104
    X78  R240  0.50104
    X78  R424  0.818869
    X78  R463  -0.586244
    X78  R473  0.116446
    X79  COST  -1.560054
    X79  R9  0.400976
    X79  R28  0.190278
    X79  R79  1.074569
    X79  R137  -0.873242
    X79  R177  0.620885
    X80  COST  -1.880396
    X80  R41  0.670971
    X80  R80  1.066901
    X80  R144  0.347952
    X80  R302  -0.299175
    X80  R395  0.92114
    X81  COST  -1.256403
    X81  R81  1.069547
    X81  R219  -0.204357
    X81  R380  -0.909975
    X81  R414  0.04325
    X81  R470  0.42873
    X82  COST  -1.429018
    X82  R8  -0.949586
    X82  R59  -0.272128
    X82  R82  1.066053
    X82  R216  0.307198
    X82  R219  0.908831
    X82  R359  -0.584306
    X82  R437  -0.647415
    X83  COST  -1.69288
    X83  R73  -0.467637
    X83  R83  1.085864
    X83  R210  0.63906
    X83  R277  0.15528
    X84  COST  -1.533857
    X84  R45  0.850473
    X84  R84  1.036982
    X84  R167  -0.324726
    X84  R198  -0.765108
    X84  R215  -0.619256
    X84  R252  -0.035922
    X84  R253  0.480772
    X84  R356  0.120872
    X85  COST  -1.608698
    X85  R30  -0.639073
    X85  R85  1.084184
    X85  R97  -0.152036
    X85  R158  -0.922653
    X85  R161  -0.394425
    X86  COST  -1.515282
    X86  R63  -0.053246
    X86  R86  1.089855
    X86  R319  0.41282
    X86  R366  0.222456
    X86  R419  -0.341799
    X86  R461  0.768495
    X87  COST  -1.27449
    X87  R87  1.051869
    X87  R143  0.26017
    X87  R449  0.257256
    X87  R450  -0.162135
    X87  R458  0.3419
    X87  R460  0.370983
    X88  COST  -1.067192
    X88  R88  1.033147
    X88  R154  0.684273
    X88  R264  -0.737647
    X88  R307  0.837265
    X88  R325  -0.378193
    X88  R361  0.71885
    X89  COST  -1.644634
    X89  R4  0.610522
    X89  R89  1.029991
    X89  R192  -0.473211
    X89  R200  -0.39188
    X89  R202  0.137074
    X89  R288  -0.740824
    X89  R346  0.840092
    X89  R416  -0.88508
    X89  R445  0.762561
    X90  COST  -1.413235
    X90  R90  1.077342
    X90  R134  0.047393
    X91  COST  -1.139879
    X91  R27  0.453807
    X91  R34  0.416489
    X91  R47  0.02006
    X91  R79  0.725877
    X91  R91  1.028817
    X91  R153  0.902567
    X91  R214  -0.438235
    X91  R490  -0.110191
    X92  COST  -1.068205
    X92  R92  1.076341
    X92  R196  -0.864265
    X92  R212  0.216925
    X92  R315  0.560788
    X92  R321  -0.492881
    X92  R398  -0.015004
    X92  R402  0.79926
    X93  COST  -1.196339
    X93  R93  1.011623
    X93  R114  0.566195
    X93  R314  -0.947544
    X93  R450  0.014167
    X94  COST  -1.15265
    X94  R22  0.627831
    X94  R94  1.086125
    X94  R128  -0.514545
    X94  R166  -0.219454
    X94  R182  -0.717799
    X94  R187  -0.409394
    X95  COST  -1.955723
    X95  R76  -0.075129
    X95  R95  1.023769
    X95  R222  -0.186859
    X95  R226  -0.248607
    X95  R338  0.460375
    X95  R482  -0.540494
    X96  COST  -1.491673
    X96  R96  1.093361
    X96  R117  0.490576
    X96  R205  0.092838
    X96  R256  0.06412
    X96  R373  0.949957
    X96  R400  -0.27615
    X96  R474  -0.492762
    X97  COST  -1.430941
    X97  R38  0.375838
    X97  R97  1.082852
    X97  R164  -0.241343
    X97  R387  0.377187
    X97  R396  0.597105
    X97  R466  0.236503
    X98  COST  -1.554591
    X98  R98  1.053659
    X98  R196  0.291486
    X98  R300  -0.643079
    X98  R344  0.855498
    X98  R413  0.036925
    X98  R421  -0.256554
    X99  COST  -1.917543
    X99  R25  0.607553
    X99  R99  1.03769
    X99  R101  -0.563951
    X99  R155  0.572628
    X99  R250  -0.724828
    X100  COST  -1.528843
    X100  R97  0.93162
    X100  R100  1.051124
    X100  R159  -0.503496
    X100  R318  0.592228
    X100  R331  -0.759596
    X100  R345  -0.585191
    X100  R410  0.96066
    X100  R494  0.423402
    X101  COST  -1.465506
    X101  R53  0.924833
    X101  R101  1.062011
    X101  R165  0.204739
    X101  R225  0.641519
    X101  R404  0.342717
    X102  COST  -1.148213
    X102  R102  1.018422
    X102  R451  0.363243
    X102  R453  0.394601
    X103  COST  -1.433349
    X103  R103  1.010552
    X103  R140  0.580928
    X103  R192  -0.553114
    X103  R194  -0.533993
    X103  R230  0.617772
    X103  R258  0.576122
    X103  R355  -0.370542
    X103  R361  0.261593
    X103  R452  -0.809987
    X104  COST  -1.248697
    X104  R104  1.046118
    X104  R197  0.85609
    X104  R207  -0.832793
    X104  R264  0.844849
    X104  R333  -0.111696
    X104  R354  -0.590996
    X104  R476  0.209609
    X105  COST  -1.812439
    X105  R19  0.189434
    X105  R105  1.087301
    X106  COST  -1.651113
    X106  R32  0.456829
    X106  R54  0.65344
    X106  R106  1.087739
    X106  R232  -0.097589
    X107  COST  -1.034182
    X107  R9  0.148877
    X107  R42  0.363624
    X107  R107  1.059449
    X107  R166  -0.947708
    X107  R391  -0.244839
    X107  R434  0.006251
    X108  COST  -1.417453
    X108  R108  1.03891
    X108  R111  -0.177698
    X108  R180  0.911898
    X108  R181  0.3145
    X108  R262  -0.602663
    X108  R279  0.324081
    X108  R407  0.470879
    X108  R436  0.768423
    X108  R450  0.327691
    X108  R461  0.452921
    X108  R474  -0.299273
    X109  COST  -1.740291
    X109  R109  1.012058
    X109  R193  -0.46101
    X109  R315  0.088407
    X109  R385  0.933697
    X109  R420  0.184464
    X110  COST  -1.961006
    X110  R110  1.065347
    X110  R215  0.547664
    X110  R285  0.738369
    X110  R327  -0.848596
    X110  R376  0.615914
    X111  COST  -1.734266
    X111  R95  -0.752234
    X111  R111  1.004248
    X111  R133  -0.813576
    X111  R212  -0.95106
    X111  R416  -0.261161
    X112  COST  -1.565981
    X112  R54  0.468458
    X112  R112  1.098188
    X112  R129  0.247157
    X112  R209  0.823307
    X112  R360  -0.437316
    X112  R446  0.447162
    X112  R493  -0.244409
    X113  COST  -1.314955
    X113  R0  -0.942573
    X113  R7  0.658712
    X113  R64  0.935555
    X113  R113  1.087353
    X113  R232  0.628817
    X113  R342  0.161421
    X113  R380  -0.625083
    X113  R456  0.709863
    X113  R468  0.980882
    X114  COST  -1.599405
    X114  R84  -0.109199
    X114  R114  1.038854
    X114  R263  0.805363
    X114  R285  -0.206653
    X114  R362  0.247988
    X114  R366  -0.265899
    X114  R380  0.262258
    X115  COST  -1.940958
    X115  R66  -0.703568
    X115  R115  1.088426
    X115  R211  -0.677179
    X115  R259  0.891654
    X115  R290  0.745139
    X115  R449  0.430723
    X116  COST  -1.461529
    X116  R113  0.811607
    X116  R116  1.012145
    X116  R144  -0.646076
    X116  R173  -0.244146
    X116  R263  -0.965397
    X116  R316  0.639852
    X116  R494  -0.978672
    X116  R496  -0.775314
    X117  COST  -1.714464
    X117  R117  1.02115
    X117  R146  0.206731
    X117  R243  -0.773417
    X117  R332  0.974058
    X117  R439  0.87331
    X117  R493  0.58143
    X118  COST  -1.02463
    X118  R108  -0.906237
    X118  R118  1.000908
    X118  R161  -0.910411
    X118  R193  -0.729229
    X118  R285  0.788211
    X119  COST  -1.742406
    X119  R53  0.627922
    X119  R72  0.496325
    X119  R119  1.024884
    X119  R224  0.321405
    X119  R323  0.159349
    X119  R480  0.641966
    X120  COST  -1.04763
    X120  R38  0.440775
    X120  R40  -0.310395
    X120  R71  0.559605
    X120  R120  1.034959
    X120  R156  -0.817983
    X120  R273  -0.097952
    X121  COST  -1.085328
    X121  R18  0.444675
    X121  R121  1.036499
    X122  COST  -1.748643
    X122  R7  -0.159124
    X122  R58  0.267043
    X122  R122  1.050301
    X122  R214  -0.603869
    X122  R419  0.990736
    X123  COST  -1.455749
    X123  R123  1.083412
    X123  R218  -0.33388
    X123  R308  -0.910924
    X123  R326  -0.773134
    X123  R353  -0.170252
    X124  COST  -1.852315
    X124  R34  -0.283516
    X124  R124  1.004253
    X124  R233  0.470825
    X125  COST  -1.842136
    X125  R125  1.039237
    X125  R136  0.356962
    X125  R140  0.843046
    X125  R151  -0.063774
    X126  COST  -1.908786
    X126  R31  0.276896
    X126  R126  1.043841
    X126  R249  -0.003232
    X127  COST  -1.10444
    X127  R47  -0.195523
    X127  R127  1.042657
    X127  R140  -0.472557
    X127  R189  -0.662726
    X127  R211  0.071501
    X127  R331  0.594436
    X127  R379  0.514303
    X127  R437  0.385078
    X128  COST  -1.414757
    X128  R2  -0.41154
    X128  R73  0.776999
    X128  R128  1.047092
    X128  R137  -0.107332
    X128  R154  -0.40775
    X128  R430  0.085167
    X128  R471  0.096296
    X129  COST  -1.63632
    X129  R75  0.890524
    X129  R85  0.382839
    X129  R129  1.085275
    X129  R431  -0.94046
    X129  R441  -0.779429
    X129  R442  -0.720708
    X129  R445  0.324625
    X130  COST  -1.399217
    X130  R43  -0.585733
    X130  R71  0.088392
    X130  R130  1.06328
    X130  R244  -0.555842
    X130  R368  0.894584
    X130  R390  0.006676
    X131  COST  -1.485348
    X131  R131  1.016508
    X131  R253  -0.360524
    X131  R325  -0.888427
    X132  COST  -1.165107
    X132  R132  1.039488
    X132  R268  0.733886
    X132  R395  -0.276333
    X132  R458  -0.729519
    X133  COST  -1.073129
    X133  R72  0.203238
    X133  R116  0.93921
    X133  R126  0.958335
    X133  R133  1.083349
    X133  R159  0.737211
    X133  R237  -0.90445
    X133  R249  -0.192776
    X133  R324  -0.895767
    X133  R329  0.477947
    X133  R337  0.698276
    X133  R423  0.39485
    X133  R448  0.646259
    X134  COST  -1.99369
    X134  R134  1.04609
    X134  R161  0.614826
    X134  R288  -0.183378
    X134  R305  0.986848
    X134  R309  0.892371
    X134  R313  0.352782
    X134  R385  -0.634177
    X134  R397  0.220158
    X135  COST  -1.413669
    X135  R135  1.00284
    X135  R325  -0.66209
    X135  R354  0.49405
    X135  R409  0.717462
    X136  COST  -1.30245
    X136  R41  -0.408038
    X136  R106  -0.068248
    X136  R136  1.022331
    X136  R157  -0.728515
    X136  R254  0.658792
    X136  R309  -0.473578
    X136  R499  -0.014559
    X137  COST  -1.291443
    X137  R56  -0.949943
    X137  R137  1.05268
    X137  R222  0.144173
    X137  R240  0.275789
    X137  R293  -0.798709
    X137  R378  0.321124
    X137  R439  -0.610212
    X138  COST  -1.406056
    X138  R120  -0.472129
    X138  R138  1.033422
    X138  R283  0.277865
    X138  R377  -0.808015
    X139  COST  -1.68658
    X139  R132  0.251182
    X139  R139  1.087717
    X139  R236  0.778836
    X139  R272  0.553208
    X139  R430  -0.038101
    X140  COST  -1.520505
    X140  R43  0.957781
    X140  R125  -0.55658
    X140  R140  1.036838
    X140  R194  -0.286919
    X140  R375  0.35117
    X141  COST  -1.471303
    X141  R16  -0.255144
    X141  R141  1.050579
    X141  R221  0.176177
    X141  R241  -0.096458
    X141  R243  0.499304
    X141  R257  -0.427479
    X141  R303  -0.450666
    X141  R399  0.59693
    X141  R440  -0.310785
    X142  COST  -1.79468
    X142  R72  -0.972565
    X142  R142  1.057864
    X142  R169  -0.644493
    X142  R349  0.586482
    X143  COST  -1.796967
    X143  R69  0.652635
    X143  R94  -0.478788
    X143  R143  1.004705
    X143  R186  0.841217
    X143  R275  -0.154834
    X143  R301  0.508513
    X143  R309  0.05037
    X143  R412  -0.017387
    X144  COST  -1.398705
    X144  R144  1.006011
    X144  R265  -0.907189
    X144  R267  0.772106
    X144  R469  0.016829
    X145  COST  -1.159591
    X145  R145  1.047896
    X145  R180  0.418158
    X145  R205  -0.013525
    X145  R219  -0.912294
    X145  R230  0.990234
    X145  R276  -0.377562
    X145  R417  -0.07141
    X146  COST  -1.132242
    X146  R35  -0.743884
    X146  R99  -0.365728
    X146  R146  1.014551
    X146  R155  -0.066315
    X146  R160  -0.224043
    X146  R178  0.711207
    X146  R229  -0.69248
    X146  R234  -0.358235
    X146  R270  0.79213
    X146  R376  0.489258
    X146  R484  -0.263698
    X147  COST  -1.901272
    X147  R13  -0.803723
    X147  R46  -0.246971
    X147  R114  -0.157233
    X147  R147  1.00731
    X147  R245  0.34272
    X147  R253  -0.428094
    X147  R403  -0.846216
    X148  COST  -1.971701
    X148  R54  0.281122
    X148  R139  0.186503
    X148  R148  1.077023
    X148  R152  0.847977
    X148  R203  -0.401984
    X148  R323  0.0683
    X148  R490  0.453995
    X149  COST  -1.687233
    X149  R107  0.662502
    X149  R139  0.467259
    X149  R142  0.636447
    X149  R149  1.062937
    X149  R153  0.162999
    X149  R439  0.529075
    X149  R465  -0.509523
    X150  COST  -1.174547
    X150  R75  0.572374
    X150  R100  0.849329
    X150  R108  -0.200555
    X150  R150  1.04307
    X150  R251  -0.922727
    X150  R257  -0.934948
    X150  R303  0.141344
    X150  R387  0.716004
    X151  COST  -1.86686
    X151  R72  -0.438194
    X151  R112  0.064042
    X151  R151  1.046028
    X151  R188  -0.569614
    X151  R198  0.480847
    X151  R241  0.760062
    X151  R364  0.315291
    X151  R456  0.123905
    X152  COST  -1.562801
    X152  R152  1.027878
    X152  R261  -0.545957
    X152  R280  0.813603
    X153  COST  -1.530366
    X153  R103  0.495862
    X153  R130  -0.010033
    X153  R153  1.058724
    X153  R443  0.239718
    X154  COST  -1.691349
    X154  R73  -0.603125
    X154  R154  1.097915
    X154  R217  -0.994049
    X154  R233  -0.015402
    X154  R353  -0.384813
    X154  R383  0.831643
    X154  R497  0.495562
    X155  COST  -1.605316
    X155  R155  1.020858
    X155  R200  -0.948122
    X155  R312  0.55313
    X155  R344  0.206325
    X155  R359  -0.732045
    X155  R385  -0.918931
    X155  R433  -0.05943
    X155  R498  -0.036364
    X156  COST  -1.892531
    X156  R79  -0.597053
    X156  R156  1.078882
    X156  R254  -0.877036
    X156  R360  0.448933
    X156  R388  -0.762207
    X157  COST  -1.987918
    X157  R37  -0.571543
    X157  R59  -0.212998
    X157  R130  -0.008484
    X157  R143  -0.364738
    X157  R157  1.030623
    X157  R177  0.324143
    X158  COST  -1.55796
    X158  R5  0.097211
    X158  R19  -0.861941
    X158  R158  1.091381
    X158  R374  0.48406
    X158  R387  -0.831875
    X158  R440  -0.473928
    X158  R478  -0.371758
    X158  R481  -0.157189
    X159  COST  -1.238079
    X159  R3  0.227076
    X159  R70  0.543412
    X159  R138  0.731348
    X159  R159  1.061009
    X159  R220  0.647969
    X159  R263  0.061937
    X159  R296  -0.438453
    X159  R331  0.201399
    X160  COST  -1.59612
    X160  R80  -0.681971
    X160  R93  -0.087039
    X160  R160  1.079367
    X160  R287  -0.159095
    X160  R446  0.739586
    X160  R462  0.021447
    X160  R464  0.547796
    X161  COST  -1.357362
    X161  R18  0.043462
    X161  R69  -0.256577
    X161  R141  -0.433191
    X161  R161  1.057674
    X161  R347  0.384342
    X161  R367  -0.496446
    X161  R413  -0.988859
    X161  R440  0.094474
    X162  COST  -1.304791
    X162  R46  0.835477
    X162  R63  -0.925375
    X162  R88  -0.558069
    X162  R89  0.837196
    X162  R162  1.087556
    X162  R223  -0.494525
    X162  R236  -0.760054
    X162  R261  0.036297
    X162  R317  -0.644193
    X162  R486  -0.391781
    X163  COST  -1.315409
    X163  R56  -0.445842
    X163  R104  0.973763
    X163  R124  -0.076153
    X163  R131  -0.410359
    X163  R163  1.0182
    X163  R220  0.269085
    X164  COST  -1.68199
    X164  R84  0.934654
    X164  R149  0.114523
    X164  R164  1.061219
    X164  R278  -0.646458
    X164  R374  0.263876
    X164  R431  -0.591236
    X164  R467  -0.301497
    X164  R478  -0.301193
    X165  COST  -1.553465
    X165  R14  -0.266123
    X165  R165  1.013241
    X165  R437  0.050334
    X166  COST  -1.345834
    X166  R20  -0.031814
    X166  R148  0.387823
    X166  R166  1.098305
    X166  R179  -0.014169
    X166  R227  0.938761
    X166  R266  -0.516379
    X166  R276  0.856182
    X167  COST  -1.036831
    X167  R116  0.651739
    X167  R167  1.022179
    X167  R176  0.076571
    X167  R179  0.123306
    X167  R225  0.35876
    X167  R261  0.241886
    X167  R434  0.924829
    X168  COST  -1.555076
    X168  R0  -0.584956
    X168  R17  0.85073
    X168  R45  -0.01939
    X168  R168  1.020968
    X168  R219  0.890402
    X168  R240  -0.850457
    X168  R257  0.401118
    X168  R296  0.262132
    X168  R393  0.208124
    X168  R433  -0.450084
    X168  R488  0.79972
    X169  COST  -1.298782
    X169  R109  -0.997785
    X169  R115  -0.998766
    X169  R160  0.332835
    X169  R169  1.021598
    X169  R202  0.976872
    X169  R499  -0.598987
    X170  COST  -1.933638
    X170  R16  0.422574
    X170  R18  0.000632
    X170  R64  0.119347
    X170  R106  0.700803
    X170  R170  1.037624
    X170  R351  0.308371
    X170  R410  0.642222
    X170  R473  -0.254675
    X171  COST  -1.302834
    X171  R21  0.631243
    X171  R160  0.208395
    X171  R171  1.085253
    X171  R247  -0.529724
    X171  R323  0.234916
    X172  COST  -1.703974
    X172  R19  0.284715
    X172  R172  1.089344
    X172  R454  0.067763
    X173  COST  -1.490393
    X173  R123  0.397249
    X173  R137  0.731012
    X173  R173  1.005634
    X173  R303  -0.321618
    X173  R486  0.916008
    X174  COST  -1.835147
    X174  R18  -0.059166
    X174  R49  0.141226
    X174  R55  -0.895783
    X174  R100  -0.266416
    X174  R174  1.043591
    X174  R317  -0.734544
    X174  R384  0.395128
    X175  COST  -1.261926
    X175  R21  0.612755
    X175  R76  -0.17925
    X175  R145  -0.917062
    X175  R175  1.046681
    X175  R315  0.267083
    X175  R357  0.650833
    X175  R369  -0.907294
    X175  R376  -0.524697
    X176  COST  -1.148612
    X176  R79  0.405887
    X176  R121  -0.881255
    X176  R176  1.019871
    X176  R182  -0.183474
    X176  R290  0.337527
    X176  R355  -0.525504
    X176  R374  0.141084
    X176  R395  -0.442764
    X176  R407  0.596728
    X176  R424  0.803666
    X176  R479  -0.106468
    X177  COST  -1.782266
    X177  R23  -0.768507
    X177  R48  0.760487
    X177  R177  1.070965
    X177  R223  0.932433
    X177  R229  0.237869
    X177  R312  -0.45195
    X177  R359  0.923091
    X178  COST  -1.343969
    X178  R94  0.271094
    X178  R127  0.441353
    X178  R178  1.055772
    X178  R286  0.651596
    X178  R332  0.169115
    X178  R477  0.037822
    X178  R491  0.608121
    X179  COST  -1.001763
    X179  R179  1.007726
    X179  R257  0.377827
    X179  R405  -0.251336
    X179  R434  -0.802485
    X180  COST  -1.246576
    X180  R180  1.029021
    X180  R365  0.507229
    X181  COST  -1.856712
    X181  R101  -0.695756
    X181  R181  1.008633
    X181  R365  0.915901
    X182  COST  -1.124151
    X182  R34  -0.902229
    X182  R109  0.594308
    X182  R182  1.038883
    X182  R317  0.343134
    X182  R486  0.846768
    X183  COST  -1.800671
    X183  R37  -0.115734
    X183  R73  0.064426
    X183  R158  0.775279
    X183  R183  1.042569
    X183  R425  0.448156
    X183  R438  0.792192
    X183  R478  -0.588158
    X184  COST  -1.99349
    X184  R42  -0.354172
    X184  R45  -0.585645
    X184  R156  -0.841287
    X184  R178  0.984725
    X184  R184  1.024371
    X184  R187  0.220228
    X184  R202  -0.278116
    X184  R220  0.858054
    X184  R245  0.885869
    X184  R269  0.960682
    X184  R335  -0.93151
    X184  R381  -0.968284
    X184  R401  0.799858
    X185  COST  -1.909538
    X185  R10  0.259096
    X185  R13  0.773913
    X185  R90  -0.214668
    X185  R118  -0.624004
    X185  R150  0.493142
    X185  R185  1.021441
    X185  R242  0.202732
    X185  R386  -0.426115
    X185  R387  0.345872
    X186  COST  -1.836736
    X186  R27  -0.758574
    X186  R80  -0.14201
    X186  R186  1.01798
    X186  R474  -0.441945
    X187  COST  -1.666951
    X187  R59  -0.972259
    X187  R167  0.832382
    X187  R168  0.420979
    X187  R171  -0.002082
    X187  R187  1.032727
    X187  R201  0.661128
    X188  COST  -1.908163
    X188  R16  0.989088
    X188  R100  0.831493
    X188  R187  -0.055899
    X188  R188  1.01901
    X188  R251  0.262377
    X188  R377  0.844258
    X188  R469  -0.262462
    X189  COST  -1.490698
    X189  R24  -0.736566
    X189  R189  1.045499
    X189  R211  0.092588
    X189  R244  0.988388
    X189  R271  0.113531
    X189  R354  -0.845551
    X190  COST  -1.991521
    X190  R1  0.986567
    X190  R190  1.054736
    X190  R235  -0.095245
    X190  R286  0.033756
    X191  COST  -1.785847
    X191  R2  -0.511204
    X191  R157  -0.610199
    X191  R168  0.197248
    X191  R191  1.043542
    X191  R202  0.170522
    X191  R204  -0.139333
    X191  R348  -0.117261
    X191  R441  0.048937
    X192  COST  -1.46414
    X192  R23  -0.018185
    X192  R55  -0.214684
    X192  R119  0.609649
    X192  R192  1.05956
    X192  R389  0.63851
    X192  R393  -0.769552
    X193  COST  -1.086151
    X193  R90  0.485827
    X193  R193  1.009676
    X193  R260  -0.268759
    X193  R363  -0.70525
    X193  R458  0.223446
    X194  COST  -1.521344
    X194  R28  -0.037162
    X194  R74  -0.553243
    X194  R93  0.720566
    X194  R172  0.906083
    X194  R194  1.040577
    X194  R249  0.793095
    X194  R357  -0.699925
    X194  R491  -0.996921
    X195  COST  -1.433695
    X195  R45  0.792594
    X195  R189  -0.468435
    X195  R195  1.005628
    X195  R212  0.410186
    X195  R496  -0.595188
    X196  COST  -1.930328
    X196  R46  -0.947429
    X196  R51  -0.589729
    X196  R88  0.636208
    X196  R167  0.400653
    X196  R196  1.077671
    X196  R210  -0.714666
    X196  R358  0.769673
    X196  R405  0.398199
    X197  COST  -1.807393
    X197  R17  -0.357182
    X197  R22  0.00098
    X197  R197  1.023069
    X197  R327  -0.091421
    X198  COST  -1.667974
    X198  R154  0.368917
    X198  R198  1.058881
    X198  R272  0.557806
    X198  R285  -0.473185
    X198  R435  0.718808
    X198  R436  -0.179301
    X199  COST  -1.519078
    X199  R32  -0.956872
    X199  R59  0.287641
    X199  R73  -0.506708
    X199  R96  -0.38755
    X199  R98  -0.813962
    X199  R175  -0.507838
    X199  R190  0.158349
    X199  R197  -0.253868
    X199  R199  1.039015
    X199  R481  0.487713
    X200  COST  -1.062561
    X200  R65  0.323549
    X200  R81  0.472764
    X200  R97  0.666205
    X200  R138  0.990664
    X200  R164  0.380163
    X200  R194  0.514929
    X200  R200  1.007554
    X200  R245  0.338354
    X200  R309  0.131034
    X200  R429  -0.505969
    X200  R488  -0.097082
    X201  COST  -1.465987
    X201  R87  -0.374642
    X201  R118  0.640904
    X201  R135  0.07544
    X201  R201  1.027689
    X202  COST  -1.548236
    X202  R60  -0.545879
    X202  R86  -0.9139
    X202  R125  -0.559903
    X202  R202  1.087053
    X203  COST  -1.51633
    X203  R203  1.043112
    X203  R427  0.293489
    X204  COST  -1.594809
    X204  R66  0.834809
    X204  R204  1.038017
    X204  R222  0.364674
    X204  R375  0.64022
    X204  R413  -0.082877
    X205  COST  -1.069342
    X205  R91  -0.094397
    X205  R113  -0.754213
    X205  R195  -0.508016
    X205  R205  1.098718
    X205  R349  -0.971462
    X205  R414  -0.922099
    X206  COST  -1.130888
    X206  R49  -0.107005
    X206  R206  1.009497
    X206  R299  -0.797604
    X206  R313  0.994035
    X206  R322  -0.869598
    X206  R430  -0.311316
    X206  R484  0.089284
    X207  COST  -1.604355
    X207  R116  -0.143162
    X207  R165  0.733543
    X207  R207  1.06519
    X207  R272  -0.856655
    X207  R297  -0.091952
    X207  R340  0.277692
    X207  R376  0.79423
    X207  R401  -0.795708
    X207  R426  0.211557
    X207  R470  -0.889721
    X208  COST  -1.980034
    X208  R27  0.198349
    X208  R208  1.078271
    X208  R246  0.96713
    X208  R456  -0.770684
    X209  COST  -1.382134
    X209  R119  0.941708
    X209  R209  1.053319
    X209  R283  0.324419
    X209  R297  -0.019359
    X209  R308  0.437367
    X209  R406  -0.276428
    X209  R483  -0.701047
    X210  COST  -1.959787
    X210  R16  -0.615555
    X210  R89  -0.266951
    X210  R210  1.084167
    X210  R216  -0.83531
    X210  R301  -0.209213
    X210  R399  0.961212
    X210  R418  0.286919
    X211  COST  -1.315336
    X211  R29  0.969516
    X211  R86  -0.417302
    X211  R137  0.246114
    X211  R211  1.005626
    X211  R265  -0.305552
    X211  R401  0.333436
    X212  COST  -1.467851
    X212  R197  0.658748
    X212  R212  1.01365
    X212  R324  0.709644
    X212  R456  -0.43391
    X213  COST  -1.837897
    X213  R85  -0.933802
    X213  R87  -0.161824
    X213  R120  -0.250305
    X213  R210  -0.100062
    X213  R213  1.034973
    X213  R270  -0.210761
    X213  R364  -0.041845
    X213  R392  0.292075
    X213  R418  -0.697536
    X213  R477  0.973024
    X214  COST  -1.347057
    X214  R198  -0.033907
    X214  R200  0.625569
    X214  R214  1.052898
    X214  R351  -0.603998
    X214  R353  0.445888
    X214  R401  0.009449
    X214  R403  -0.534924
    X214  R419  -0.695651
    X215  COST  -1.820972
    X215  R179  0.100226
    X215  R215  1.001165
    X215  R230  0.482316
    X215  R390  -0.537565
    X216  COST  -1.89759
    X216  R11  0.526821
    X216  R46  0.573539
    X216  R71  0.030263
    X216  R74  -0.019755
    X216  R93  -0.465183
    X216  R216  1.06604
    X216  R318  -0.222486
    X216  R347  0.071993
    X217  COST  -1.436073
    X217  R146  0.742997
    X217  R157  0.988426
    X217  R159  -0.770991
    X217  R213  0.602878
    X217  R217  1.095944
    X217  R394  -0.711904
    X217  R489  0.897566
    X218  COST  -1.136012
    X218  R103  -0.864501
    X218  R218  1.002442
    X218  R229  -0.166558
    X218  R294  -0.944681
    X218  R448  0.545602
    X218  R484  0.841552
    X219  COST  -1.044119
    X219  R92  0.203638
    X219  R219  1.008675
    X219  R426  0.472911
    X220  COST  -1.399421
    X220  R87  0.983717
    X220  R220  1.044069
    X220  R256  -0.995575
    X220  R268  -0.886982
    X220  R304  0.725787
    X220  R364  0.64032
    X220  R452  -0.101207
    X220  R457  0.59066
    X221  COST  -1.139061
    X221  R97  -0.015931
    X221  R163  0.819698
    X221  R221  1.024676
    X221  R269  -0.389152
    X221  R298  0.854545
    X221  R457  0.106634
    X222  COST  -1.423648
    X222  R222  1.012876
    X222  R271  0.668467
    X222  R314  -0.582965
    X223  COST  -1.046319
    X223  R223  1.039221
    X223  R246  0.758381
    X223  R480  0.363847
    X224  COST  -1.494427
    X224  R208  -0.940416
    X224  R224  1.05953
    X224  R309  -0.516438
    X224  R333  -0.610498
    X225  COST  -1.349918
    X225  R100  -0.118933
    X225  R225  1.024966
    X225  R352  -0.689746
    X225  R476  0.908483
    X226  COST  -1.06324
    X226  R29  0.707813
    X226  R226  1.031174
    X226  R446  0.82632
    X227  COST  -1.937963
    X227  R5  -0.2703
    X227  R149  0.257065
    X227  R201  -0.06323
    X227  R227  1.085047
    X227  R248  -0.487154
    X227  R252  -0.930031
    X227  R274  -0.452027
    X227  R290  0.873466
    X227  R349  0.83772
    X228  COST  -1.751862
    X228  R83  0.398679
    X228  R176  -0.841457
    X228  R183  0.000558
    X228  R214  -0.872806
    X228  R228  1.052967
    X228  R347  -0.242828
    X228  R431  -0.269102
    X229  COST  -1.403957
    X229  R67  -0.023645
    X229  R84  0.708008
    X229  R182  0.160714
    X229  R197  0.320251
    X229  R206  -0.682184
    X229  R229  1.017225
    X229  R275  0.509223
    X229  R307  -0.430141
    X229  R317  -0.054726
    X230  COST  -1.676602
    X230  R62  0.430913
    X230  R92  -0.920207
    X230  R189  -0.350486
    X230  R230  1.062012
    X231  COST  -1.51076
    X231  R15  0.361711
    X231  R141  0.057595
    X231  R224  0.415372
    X231  R231  1.039142
    X231  R274  -0.267207
    X231  R491  0.261947
    X232  COST  -1.991391
    X232  R131  0.283059
    X232  R223  0.602888
    X232  R232  1.013942
    X232  R282  0.434033
    X232  R302  -0.368742
    X232  R429  0.005999
    X232  R441  -0.782618
    X232  R478  0.756842
    X233  COST  -1.718486
    X233  R24  -0.711561
    X233  R47  -0.509241
    X233  R61  -0.326449
    X233  R63  -0.329357
    X233  R127  0.161044
    X233  R160  0.571028
    X233  R233  1.033404
    X233  R270  -0.313181
    X233  R273  0.022466
    X233  R379  -0.713092
    X234  COST  -1.165282
    X234  R5  -0.071583
    X234  R8  -0.589562
    X234  R77  0.976938
    X234  R107  0.245893
    X234  R210  -0.373233
    X234  R234  1.09209
    X234  R254  0.059587
    X234  R361  0.997554
    X235  COST  -1.399516
    X235  R18  0.523054
    X235  R50  -0.920635
    X235  R102  0.154748
    X235  R173  -0.237656
    X235  R192  -0.25325
    X235  R216  -0.010306
    X235  R235  1.055238
    X235  R274  0.992491
    X235  R359  0.62754
    X235  R372  0.811443
    X235  R412  -0.191755
    X235  R455  -0.642252
    X236  COST  -1.167738
    X236  R228  -0.648235
    X236  R236  1.092641
    X236  R305  -0.664293
    X236  R341  0.027617
    X236  R420  0.357334
    X237  COST  -1.637766
    X237  R187  0.682195
    X237  R237  1.018772
    X237  R293  0.447868
    X237  R345  -0.678309
    X237  R391  -0.842996
    X238  COST  -1.192813
    X238  R238  1.062865
    X238  R277  0.676832
    X238  R321  0.620352
    X239  COST  -1.613375
    X239  R239  1.070718
    X239  R250  0.929899
    X239  R292  -0.613325
    X239  R321  -0.871332
    X239  R382  0.45569
    X240  COST  -1.641261
    X240  R185  -0.180299
    X240  R240  1.069153
    X240  R250  0.596816
    X240  R350  -0.380236
    X240  R465  -0.656225
    X241  COST  -1.127808
    X241  R105  -0.813287
    X241  R119  -0.096807
    X241  R241  1.077147
    X241  R371  -0.298627
    X242  COST  -1.965167
    X242  R34  0.167469
    X242  R242  1.037185
    X243  COST  -1.00593
    X243  R243  1.074626
    X243  R308  0.770243
    X243  R339  0.570761
    X243  R345  0.055559
    X243  R447  0.579451
    X244  COST  -1.451025
    X244  R83  0.723228
    X244  R172  0.020506
    X244  R244  1.019753
    X244  R259  0.166601
    X244  R410  -0.491243
    X244  R455  -0.245227
    X244  R474  0.065706
    X245  COST  -1.762209
    X245  R145  0.436703
    X245  R162  -0.704754
    X245  R245  1.062744
    X246  COST  -1.894109
    X246  R94  -0.808209
    X246  R246  1.033882
    X246  R266  0.405643
    X246  R325  -0.108543
    X246  R336  0.656138
    X246  R416  0.322082
    X246  R445  -0.830932
    X247  COST  -1.287953
    X247  R247  1.063886
    X248  COST  -1.609436
    X248  R15  0.540538
    X248  R98  -0.889106
    X248  R248  1.023904
    X248  R291  0.849068
    X248  R331  -0.776871
    X249  COST  -1.844754
    X249  R98  -0.741115
    X249  R249  1.074205
    X249  R281  0.166946
    X249  R333  -0.483281
    X249  R357  -0.12652
    X249  R462  -0.969774
    X249  R494  0.188379
    X250  COST  -1.763807
    X250  R62  0.44967
    X250  R98  -0.391823
    X250  R163  0.620491
    X250  R250  1.011091
    X250  R284  0.247996
    X250  R433  0.927408
    X250  R492  0.988562
    X251  COST  -1.341534
    X251  R251  1.089717
    X251  R460  0.642245
    X252  COST  -1.404305
    X252  R1  -0.456537
    X252  R67  -0.90561
    X252  R99  0.601
    X252  R178  -0.085912
    X252  R184  -0.110332
    X252  R252  1.00763
    X252  R411  0.243123
    X252  R495  -0.005226
    X253  COST  -1.462768
    X253  R37  -0.81109
    X253  R149  0.731111
    X253  R171  -0.495149
    X253  R181  -0.179085
    X253  R185  -0.392043
    X253  R253  1.010556
    X253  R408  0.931367
    X253  R471  0.173744
    X254  COST  -1.676153
    X254  R254  1.043331
    X254  R323  0.273004
    X254  R325  -0.530402
    X254  R401  -0.444382
    X254  R465  0.088353
    X255  COST  -1.679312
    X255  R15  -0.391957
    X255  R60  -0.128218
    X255  R186  0.284925
    X255  R255  1.054048
    X255  R289  -0.14176
    X255  R343  0.529172
    X255  R368  0.4177
    X255  R406  0.194982
    X255  R409  -0.768326
    X256  COST  -1.113787
    X256  R40  0.999989
    X256  R65  0.175203
    X256  R92  0.720175
    X256  R256  1.069021
    X256  R288  -0.620518
    X256  R301  0.020788
    X256  R342  -0.056623
    X256  R370  -0.333378
    X257  COST  -1.648647
    X257  R257  1.033818
    X257  R294  -0.839562
    X257  R354  0.727176
    X257  R445  -0.457163
    X257  R459  -0.54862
    X258  COST  -1.515067
    X258  R38  -0.281383
    X258  R222  0.172153
    X258  R258  1.041038
    X258  R415  0.215648
    X259  COST  -1.357054
    X259  R259  1.076026
    X259  R449  -0.890267
    X260  COST  -1.677565
    X260  R260  1.006238
    X260  R427  0.842204
    X261  COST  -1.58562
    X261  R45  0.830119
    X261  R216  0.24465
    X261  R261  1.059382
    X261  R278  -0.998037
    X261  R292  0.751673
    X261  R469  -0.865919
    X261  R479  0.421427
    X262  COST  -1.155449
    X262  R28  0.124905
    X262  R201  0.211795
    X262  R262  1.021295
    X262  R282  0.943744
    X262  R451  -0.464683
    X263  COST  -1.574294
    X263  R14  -0.985597
    X263  R110  -0.093753
    X263  R144  0.60031
    X263  R168  0.369872
    X263  R174  0.399516
    X263  R215  0.957066
    X263  R263  1.016864
    X263  R284  -0.298878
    X263  R319  0.883455
    X264  COST  -1.272914
    X264  R151  0.674329
    X264  R242  -0.870219
    X264  R264  1.088105
    X264  R311  -0.818213
    X264  R323  0.120132
    X264  R405  -0.287451
    X264  R460  0.292805
    X264  R479  -0.048496
    X265  COST  -1.368403
    X265  R13  -0.87241
    X265  R79  0.23378
    X265  R108  0.220256
    X265  R243  -0.525788
    X265  R265  1.017106
    X266  COST  -1.47541
    X266  R182  -0.300923
    X266  R266  1.084154
    X266  R312  0.076963
    X267  COST  -1.324123
    X267  R91  -0.875431
    X267  R266  -0.21082
    X267  R267  1.048813
    X267  R293  -0.392585
    X267  R428  0.776243
    X268  COST  -1.10786
    X268  R117  -0.425493
    X268  R144  0.157287
    X268  R243  0.03541
    X268  R267  0.228684
    X268  R268  1.011706
    X268  R289  -0.78217
    X268  R316  0.709997
    X268  R328  0.6914
    X268  R477  -0.069115
    X269  COST  -1.367855
    X269  R9  -0.160572
    X269  R54  0.146228
    X269  R95  -0.393486
    X269  R260  0.684107
    X269  R269  1.058078
    X270  COST  -1.632151
    X270  R232  -0.622344
    X270  R270  1.04507
    X270  R274  0.702603
    X270  R279  -0.999191
    X270  R336  -0.31432
    X271  COST  -1.938674
    X271  R79  0.726137
    X271  R172  -0.841821
    X271  R271  1.05024
    X271  R290  0.953534
    X271  R358  -0.039647
    X271  R452  0.154988
    X272  COST  -1.934895
    X272  R136  0.668602
    X272  R186  -0.646357
    X272  R239  -0.952614
    X272  R272  1.050894
    X272  R330  -0.216679
    X272  R372  0.517058
    X273  COST  -1.661858
    X273  R87  0.375456
    X273  R174  -0.908398
    X273  R185  0.362523
    X273  R217  -0.629274
    X273  R238  -0.200739
    X273  R273  1.050399
    X273  R313  -0.901234
    X273  R463  0.698161
    X274  COST  -1.815566
    X274  R121  0.946924
    X274  R218  0.149242
    X274  R241  -0.736716
    X274  R274  1.000288
    X274  R295  -0.815081
    X274  R392  0.78978
    X274  R411  0.606694
    X274  R437  0.691626
    X275  COST  -1.139496
    X275  R12  0.098647
    X275  R139  0.774164
    X275  R275  1.028241
    X275  R284  -0.649423
    X276  COST  -1.273473
    X276  R82  -0.975698
    X276  R98  0.438066
    X276  R132  -0.589842
    X276  R198  0.438485
    X276  R204  -0.116749
    X276  R213  -0.064736
    X276  R276  1.081625
    X277  COST  -1.769879
    X277  R50  0.408852
    X277  R231  -0.793895
    X277  R267  -0.624711
    X277  R270  -0.1815
    X277  R277  1.04905
    X277  R296  -0.991378
    X277  R302  -0.40909
    X277  R423  0.227892
    X278  COST  -1.048331
    X278  R32  0.438127
    X278  R38  0.473925
    X278  R210  0.33008
    X278  R251  0.671623
    X278  R278  1.087241
    X278  R386  0.468437
    X278  R499  -0.347278
    X279  COST  -1.783336
    X279  R28  0.126226
    X279  R112  0.282147
    X279  R216  0.396896
    X279  R232  0.75583
    X279  R260  0.185495
    X279  R279  1.038463
    X279  R363  -0.145588
    X280  COST  -1.598073
    X280  R237  -0.272423
    X280  R276  -0.487132
    X280  R280  1.017846
    X280  R293  -0.786221
    X280  R386  -0.236116
    X280  R414  0.141773
    X280  R455  0.724756
    X280  R462  -0.827296
    X280  R468  -0.87154
    X281  COST  -1.720086
    X281  R281  1.025725
    X282  COST  -1.867519
    X282  R125  -0.443024
    X282  R149  -0.687821
    X282  R182  0.693123
    X282  R278  -0.749418
    X282  R282  1.088094
    X283  COST  -1.562506
    X283  R32  0.965156
    X283  R260  0.928206
    X283  R283  1.06575
    X283  R408  0.348157
    X284  COST  -1.215392
    X284  R115  -0.438008
    X284  R222  0.278575
    X284  R235  0.877366
    X284  R284  1.094776
    X284  R352  0.481627
    X285  COST  -1.032758
    X285  R285  1.087386
    X285  R287  -0.864953
    X285  R328  -0.98659
    X285  R435  0.439889
    X285  R486  0.247708
    X286  COST  -1.696127
    X286  R4  -0.516554
    X286  R50  -0.454326
    X286  R60  -0.127641
    X286  R80  0.509579
    X286  R286  1.069326
    X286  R326  0.257406
    X286  R393  0.351175
    X286  R436  0.926979
    X286  R440  0.063194
    X287  COST  -1.836641
    X287  R23  0.283975
    X287  R35  -0.025481
    X287  R51  -0.011665
    X287  R101  -0.748533
    X287  R104  0.782414
    X287  R150  -0.347247
    X287  R243  -0.380001
    X287  R287  1.077537
    X287  R367  -0.098004
    X287  R408  -0.528705
    X287  R422  0.198608
    X288  COST  -1.286021
    X288  R31  0.588233
    X288  R86  0.045239
    X288  R199  0.087383
    X288  R217  -0.258551
    X288  R248  -0.069036
    X288  R288  1.027689
    X288  R305  0.468393
    X288  R343  0.143567
    X288  R447  -0.206799
    X289  COST  -1.417174
    X289  R2  0.363549
    X289  R108  0.738598
    X289  R289  1.002537
    X289  R365  -0.996815
    X289  R392  0.184091
    X289  R459  0.842236
    X290  COST  -1.757927
    X290  R14  -0.268803
    X290  R20  -0.780118
    X290  R25  -0.379717
    X290  R59  0.826481
    X290  R290  1.070966
    X290  R386  0.148402
    X290  R397  -0.806274
    X291  COST  -1.237511
    X291  R291  1.042974
    X291  R363  -0.360282
    X292  COST  -1.280099
    X292  R65  -0.793394
    X292  R103  -0.329666
    X292  R181  0.615693
    X292  R292  1.029397
    X292  R375  -0.042746
    X292  R416  -0.985333
    X293  COST  -1.445905
    X293  R102  0.638473
    X293  R136  -0.635529
    X293  R208  -0.414647
    X293  R293  1.03883
    X293  R366  -0.934201
    X293  R377  0.13695
    X293  R460  -0.91264
    X293  R471  0.16077
    X294  COST  -1.96995
    X294  R133  0.327705
    X294  R241  -0.877357
    X294  R294  1.018255
    X294  R306  0.571552
    X295  COST  -1.529394
    X295  R273  -0.425233
    X295  R295  1.034488
    X295  R315  -0.895178
    X295  R394  0.575222
    X295  R428  0.069401
    X295  R475  0.135221
    X296  COST  -1.572223
    X296  R50  -0.638971
    X296  R268  -0.035769
    X296  R274  0.381482
    X296  R275  -0.144167
    X296  R296  1.061857
    X297  COST  -1.367242
    X297  R95  -0.125063
    X297  R153  -0.003119
    X297  R196  0.635173
    X297  R291  0.789392
    X297  R297  1.080565
    X297  R358  0.73316
    X298  COST  -1.987078
    X298  R148  -0.71606
    X298  R298  1.021909
    X298  R454  0.056853
    X298  R499  0.215105
    X299  COST  -1.729705
    X299  R30  -0.728594
    X299  R88  -0.026925
    X299  R135  0.197781
    X299  R296  0.693041
    X299  R299  1.074899
    X299  R304  -0.834574
    X299  R349  -0.680753
    X299  R369  0.545787
    X299  R459  -0.493296
    X300  COST  -1.057476
    X300  R55  0.483487
    X300  R214  0.235121
    X300  R300  1.038957
    X300  R317  0.502887
    X300  R369  0.905778
    X300  R381  0.196211
    X300  R385  -0.282891
    X300  R499  0.071424
    X301  COST  -1.271505
    X301  R20  -0.650208
    X301  R31  0.968675
    X301  R52  0.369282
    X301  R265  -0.237457
    X301  R301  1.035258
    X301  R346  0.62335
    X301  R399  0.92981
    X301  R412  -0.447204
    X302  COST  -1.844266
    X302  R57  -0.134615
    X302  R78  0.988005
    X302  R133  0.788685
    X302  R215  0.83006
    X302  R294  0.171872
    X302  R302  1.045517
    X302  R322  0.485037
    X302  R471  0.636356
    X302  R482  0.350869
    X303  COST  -1.615292
    X303  R27  -0.424242
    X303  R71  -0.767958
    X303  R135  0.407077
    X303  R143  -0.135117
    X303  R145  -0.815965
    X303  R239  0.213891
    X303  R289  0.172788
    X303  R303  1.038121
    X303  R324  0.298381
    X303  R353  0.689901
    X303  R402  -0.555985
    X304  COST  -1.930368
    X304  R51  0.811182
    X304  R94  -0.226371
    X304  R180  0.351392
    X304  R304  1.042795
    X304  R329  0.574696
    X304  R350  0.886553
    X304  R459  0.534306
    X304  R464  -0.058231
    X305  COST  -1.866821
    X305  R81  -0.105509
    X305  R147  -0.640491
    X305  R194  -0.749214
    X305  R252  -0.375354
    X305  R305  1.043952
    X305  R351  0.164055
    X305  R435  0.559402
    X306  COST  -1.139838
    X306  R39  -0.94583
    X306  R195  0.455624
    X306  R267  0.073049
    X306  R306  1.025276
    X306  R471  -0.184108
    X307  COST  -1.956789
    X307  R153  -0.534373
    X307  R305  -0.861703
    X307  R307  1.050769
    X307  R479  0.645963
    X308  COST  -1.893999
    X308  R83  -0.525064
    X308  R169  0.074665
    X308  R269  -0.294826
    X308  R308  1.040628
    X308  R451  0.531666
    X309  COST  -1.190732
    X309  R138  0.517962
    X309  R309  1.063923
    X309  R352  -0.262705
    X309  R439  0.482128
    X310  COST  -1.382361
    X310  R310  1.018585
    X310  R320  -0.270172
    X310  R394  -0.313702
    X310  R399  0.641576
    X311  COST  -1.103793
    X311  R33  0.224459
    X311  R78  -0.105985
    X311  R177  -0.211951
    X311  R212  -0.62349
    X311  R311  1.076889
    X311  R348  0.265701
    X311  R392  -0.740839
    X312  COST  -1.859948
    X312  R39  0.860521
    X312  R110  0.44599
    X312  R111  -0.989394
    X312  R127  -0.24505
    X312  R312  1.036719
    X313  COST  -1.273731
    X313  R76  0.71875
    X313  R313  1.093974
    X313  R378  -0.139337
    X313  R464  -0.236715
    X314  COST  -1.817179
    X314  R39  0.969737
    X314  R94  -0.71517
    X314  R207  -0.841686
    X314  R265  0.74654
    X314  R269  -0.630549
    X314  R314  1.052648
    X314  R458  0.466338
    X314  R466  0.580656
    X315  COST  -1.563031
    X315  R103  -0.97906
    X315  R117  -0.83955
    X315  R196  0.021896
    X315  R266  -0.199128
    X315  R278  0.628027
    X315  R315  1.079576
    X315  R454  0.39019
    X315  R469  -0.989304
    X315  R480  -0.996401
    X316  COST  -1.00647
    X316  R2  -0.138423
    X316  R136  -0.900198
    X316  R169  -0.779652
    X316  R293  -0.716777
    X316  R295  0.03193
    X316  R316  1.070525
    X317  COST  -1.005583
    X317  R173  0.554708
    X317  R219  -0.258447
    X317  R292  -0.380899
    X317  R295  -0.247726
    X317  R311  0.940836
    X317  R317  1.034177
    X317  R328  0.934151
    X317  R476  -0.548124
    X318  COST  -1.811872
    X318  R202  0.393056
    X318  R318  1.015751
    X318  R347  0.68793
    X318  R356  0.561078
    X318  R448  0.349175
    X318  R495  -0.545934
    X319  COST  -1.772367
    X319  R93  0.128569
    X319  R143  0.756453
    X319  R221  -0.915118
    X319  R310  -0.319275
    X319  R319  1.070907
    X319  R320  0.721107
    X319  R337  -0.64489
    X320  COST  -1.872567
    X320  R33  0.495589
    X320  R44  0.116472
    X320  R245  0.504187
    X320  R320  1.095469
    X320  R346  -0.98881
    X320  R379  0.707091
    X321  COST  -1.656211
    X321  R157  -0.059476
    X321  R277  0.395049
    X321  R302  -0.197334
    X321  R321  1.031247
    X321  R343  0.474582
    X322  COST  -1.121693
    X322  R4  0.761249
    X322  R71  -0.683971
    X322  R322  1.062329
    X322  R383  0.172942
    X322  R398  -0.818718
    X323  COST  -1.329684
    X323  R6  -0.236963
    X323  R92  0.230405
    X323  R248  0.776772
    X323  R311  0.137526
    X323  R323  1.053248
    X323  R327  0.721874
    X323  R388  -0.962738
    X324  COST  -1.261461
    X324  R60  -0.086983
    X324  R114  -0.386452
    X324  R227  -0.433497
    X324  R235  0.841261
    X324  R276  -0.303333
    X324  R324  1.025431
    X324  R379  0.531072
    X324  R489  0.570428
    X325  COST  -1.18567
    X325  R168  0.169891
    X325  R173  -0.380494
    X325  R325  1.050869
    X325  R358  -0.893607
    X325  R371  -0.188219
    X326  COST  -1.573383
    X326  R326  1.009051
    X326  R340  -0.472032
    X327  COST  -1.863337
    X327  R7  0.327861
    X327  R134  0.049977
    X327  R228  -0.778691
    X327  R327  1.033538
    X328  COST  -1.505398
    X328  R21  -0.086963
    X328  R91  -0.664733
    X328  R102  0.615947
    X328  R173  -0.57698
    X328  R239  0.797011
    X328  R328  1.045458
    X328  R371  -0.476458
    X328  R384  -0.064309
    X329  COST  -1.436883
    X329  R39  0.614556
    X329  R120  0.96741
    X329  R234  0.874851
    X329  R252  -0.568722
    X329  R275  -0.274265
    X329  R329  1.006159
    X329  R438  -0.393267
    X330  COST  -1.565505
    X330  R107  -0.402149
    X330  R330  1.033482
    X330  R339  -0.813261
    X331  COST  -1.273389
    X331  R102  -0.901689
    X331  R224  0.814651
    X331  R329  0.991416
    X331  R331  1.008409
    X331  R350  0.873133
    X331  R398  0.614612
    X331  R417  -0.249661
    X332  COST  -1.462189
    X332  R96  0.075435
    X332  R152  -0.562474
    X332  R281  -0.742093
    X332  R332  1.08252
    X332  R423  -0.407646
    X332  R444  -0.517254
    X333  COST  -1.881446
    X333  R105  0.456373
    X333  R175  -0.424407
    X333  R259  0.895287
    X333  R292  0.076932
    X333  R327  0.542028
    X333  R333  1.065725
    X333  R398  -0.574709
    X333  R406  -0.856092
    X333  R483  0.314016
    X334  COST  -1.44939
    X334  R62  0.108212
    X334  R116  0.214094
    X334  R238  0.996447
    X334  R334  1.0257
    X335  COST  -1.334316
    X335  R217  0.752251
    X335  R335  1.043365
    X335  R414  -0.015505
    X336  COST  -1.590933
    X336  R7  -0.395901
    X336  R23  0.806897
    X336  R41  0.138526
    X336  R238  0.489989
    X336  R262  -0.605231
    X336  R336  1.031044
    X336  R374  -0.620606
    X336  R437  0.38851
    X337  COST  -1.95904
    X337  R61  0.945328
    X337  R139  -0.785131
    X337  R152  0.576272
    X337  R337  1.075555
    X337  R415  -0.710731
    X338  COST  -1.615733
    X338  R30  0.225214
    X338  R91  0.695911
    X338  R244  0.199396
    X338  R338  1.086167
    X338  R364  -0.956624
    X338  R396  -0.685614
    X339  COST  -1.304135
    X339  R175  0.735796
    X339  R339  1.035101
    X339  R383  0.41201
    X339  R473  -0.054119
    X340  COST  -1.982758
    X340  R11  0.036934
    X340  R42  0.20243
    X340  R77  -0.949834
    X340  R189  0.056313
    X340  R308  -0.682697
    X340  R340  1.094659
    X340  R470  0.981204
    X341  COST  -1.798502
    X341  R135  -0.731403
    X341  R158  -0.040061
    X341  R234  -0.589063
    X341  R313  -0.615607
    X341  R341  1.076976
    X341  R403  -0.113653
    X341  R409  -0.373776
    X342  COST  -1.42584
    X342  R29  -0.551183
    X342  R342  1.020629
    X342  R361  -0.112221
    X342  R414  -0.09634
    X343  COST  -1.550731
    X343  R52  0.905009
    X343  R82  -0.427529
    X343  R128  0.51688
    X343  R165  0.951956
    X343  R334  -0.152662
    X343  R343  1.04975
    X343  R439  -0.920662
    X344  COST  -1.018956
    X344  R4  -0.766915
    X344  R131  0.00084
    X344  R156  0.298649
    X344  R284  -0.72375
    X344  R287  0.707014
    X344  R299  -0.284862
    X344  R344  1.028976
    X344  R352  -0.657037
    X345  COST  -1.850775
    X345  R17  0.497144
    X345  R53  -0.915306
    X345  R89  0.284404
    X345  R164  -0.487785
    X345  R188  -0.848554
    X345  R281  -0.308157
    X345  R341  -0.53509
    X345  R345  1.078831
    X345  R481  0.458364
    X346  COST  -1.500788
    X346  R12  0.766507
    X346  R83  0.552903
    X346  R346  1.005566
    X347  COST  -1.192931
    X347  R48  0.213788
    X347  R78  -0.333469
    X347  R320  -0.4618
    X347  R347  1.008192
    X348  COST  -1.577174
    X348  R50  -0.641146
    X348  R110  0.363314
    X348  R348  1.091722
    X348  R362  0.449772
    X348  R442  -0.969776
    X349  COST  -1.883136
    X349  R10  -0.068657
    X349  R63  -0.946366
    X349  R227  -0.951646
    X349  R349  1.003526
    X349  R354  -0.775252
    X350  COST  -1.619359
    X350  R44  0.495364
    X350  R163  0.423859
    X350  R246  0.175846
    X350  R266  0.573672
    X350  R300  -0.093078
    X350  R310  0.203057
    X350  R350  1.058679
    X351  COST  -1.435353
    X351  R143  -0.84406
    X351  R351  1.024684
    X351  R426  0.905654
    X352  COST  -1.464077
    X352  R57  0.255568
    X352  R81  -0.289398
    X352  R256  -0.662386
    X352  R352  1.036697
    X353  COST  -1.319992
    X353  R255  -0.731757
    X353  R299  0.79141
    X353  R353  1.05655
    X353  R363  -0.255604
    X353  R424  -0.16759
    X353  R478  -0.300521
    X354  COST  -1.225972
    X354  R160  0.038137
    X354  R184  0.561587
    X354  R259  0.785452
    X354  R354  1.093651
    X354  R367  -0.786776
    X354  R432  -0.085938
    X355  COST  -1.0958
    X355  R52  -0.960443
    X355  R355  1.096178
    X355  R369  0.855533
    X355  R370  0.264995
    X355  R443  -0.9934
    X355  R453  -0.659642
    X355  R490  -0.62976
    X356  COST  -1.125079
    X356  R122  0.189505
    X356  R141  -0.833991
    X356  R147  -0.808735
    X356  R356  1.085366
    X356  R380  -0.295572
    X357  COST  -1.783117
    X357  R338  -0.001527
    X357  R357  1.017004
    X358  COST  -1.490767
    X358  R124  -0.176721
    X358  R144  0.855246
    X358  R174  -0.828169
    X358  R301  0.008794
    X358  R342  -0.047602
    X358  R358  1.049314
    X359  COST  -1.287152
    X359  R26  0.576283
    X359  R174  0.724212
    X359  R256  -0.856252
    X359  R359  1.013784
    X360  COST  -1.492304
    X360  R70  -0.37497
    X360  R162  0.103805
    X360  R273  -0.872741
    X360  R286  -0.603962
    X360  R360  1.080061
    X360  R493  0.664166
    X361  COST  -1.576117
    X361  R361  1.046344
    X361  R407  0.801665
    X362  COST  -1.452836
    X362  R258  -0.374934
    X362  R262  0.993015
    X362  R287  0.071691
    X362  R310  -0.722575
    X362  R344  -0.301626
    X362  R362  1.078281
    X362  R377  0.798082
    X363  COST  -1.512636
    X363  R69  0.471316
    X363  R99  0.454349
    X363  R142  0.409023
    X363  R260  0.049373
    X363  R267  -0.644287
    X363  R335  0.09331
    X363  R363  1.059902
    X364  COST  -1.069416
    X364  R161  -0.705761
    X364  R364  1.031152
    X364  R366  0.784367
    X364  R487  -0.275869
    X365  COST  -1.205839
    X365  R82  0.3035
    X365  R103  -0.957223
    X365  R155  -0.021968
    X365  R196  0.077832
    X365  R229  0.580648
    X365  R365  1.004814
    X365  R381  0.211474
    X366  COST  -1.424507
    X366  R33  -0.213597
    X366  R68  -0.554311
    X366  R95  -0.719781
    X366  R297  -0.767409
    X366  R300  -0.121703
    X366  R345  -0.626538
    X366  R366  1.048944
    X366  R415  -0.607922
    X366  R432  -0.151676
    X366  R489  -0.952438
    X367  COST  -1.467807
    X367  R63  0.939715
    X367  R261  -0.547705
    X367  R367  1.015657
    X367  R389  0.071919
    X367  R404  0.618775
    X368  COST  -1.305028
    X368  R58  -0.88412
    X368  R62  0.588406
    X368  R75  0.414154
    X368  R82  -0.261409
    X368  R183  0.137846
    X368  R233  0.115121
    X368  R368  1.081636
    X368  R378  0.715634
    X369  COST  -1.338879
    X369  R117  -0.266803
    X369  R131  -0.432221
    X369  R132  0.938674
    X369  R147  -0.757628
    X369  R200  0.777779
    X369  R230  -0.690075
    X369  R247  -0.437218
    X369  R369  1.087714
    X370  COST  -1.70318
    X370  R148  0.978528
    X370  R250  0.849791
    X370  R277  0.632506
    X370  R301  0.328229
    X370  R370  1.099116
    X370  R396  -0.472958
    X370  R462  0.83553
    X370  R491  0.173297
    X371  COST  -1.328767
    X371  R223  0.014394
    X371  R230  -0.672012
    X371  R371  1.019089
    X372  COST  -1.122518
    X372  R175  0.01476
    X372  R311  0.693538
    X372  R372  1.059478
    X372  R390  -0.670638
    X372  R453  0.73033
    X373  COST  -1.544812
    X373  R15  -0.712273
    X373  R373  1.026244
    X373  R454  0.154986
    X374  COST  -1.610178
    X374  R218  0.356011
    X374  R284  -0.973988
    X374  R319  -0.082948
    X374  R373  -0.677326
    X374  R374  1.059436
    X374  R495  0.783089
    X375  COST  -1.133654
    X375  R104  0.641343
    X375  R238  0.020603
    X375  R282  0.200701
    X375  R375  1.075388
    X375  R468  -0.263529
    X376  COST  -1.87543
    X376  R10  0.629253
    X376  R44  0.163609
    X376  R176  0.818456
    X376  R306  -0.312519
    X376  R376  1.016567
    X376  R404  -0.995361
    X376  R422  -0.136764
    X377  COST  -1.385087
    X377  R162  0.013007
    X377  R193  0.232973
    X377  R264  -0.726961
    X377  R372  0.838344
    X377  R377  1.078003
    X377  R398  -0.957266
    X377  R432  0.880754
    X377  R463  -0.976847
    X377  R492  0.02308
    X378  COST  -1.217857
    X378  R124  0.806406
    X378  R136  0.906925
    X378  R306  -0.565525
    X378  R351  0.081245
    X378  R378  1.003755
    X378  R393  0.123504
    X378  R425  0.450885
    X378  R433  0.303504
    X378  R475  -0.717208
    X378  R497  -0.659432
    X379  COST  -1.615042
    X379  R13  -0.170064
    X379  R56  0.932132
    X379  R298  -0.597881
    X379  R379  1.075386
    X379  R483  0.208692
    X380  COST  -1.703751
    X380  R84  0.976243
    X380  R289  -0.259885
    X380  R380  1.016865
    X380  R397  -0.984909
    X381  COST  -1.223822
    X381  R36  0.756036
    X381  R101  0.033904
    X381  R121  -0.875924
    X381  R184  -0.986502
    X381  R343  -0.270171
    X381  R381  1.048113
    X381  R440  -0.968824
    X382  COST  -1.246659
    X382  R133  -0.902607
    X382  R236  0.070733
    X382  R382  1.066613
    X382  R420  0.032552
    X382  R457  0.812986
    X382  R467  -0.450931
    X382  R482  0.859532
    X383  COST  -1.248121
    X383  R155  -0.051853
    X383  R188  0.619722
    X383  R191  0.520109
    X383  R231  -0.928177
    X383  R316  -0.007232
    X383  R370  0.732837
    X383  R383  1.087792
    X383  R470  0.218988
    X384  COST  -1.36545
    X384  R69  -0.610079
    X384  R129  0.535876
    X384  R384  1.015649
    X384  R389  0.129797
    X385  COST  -1.535937
    X385  R5  -0.72404
    X385  R142  0.11
    X385  R385  1.072241
    X385  R455  0.513287
    X385  R482  -0.000616
    X386  COST  -1.968198
    X386  R17  0.981773
    X386  R35  0.693675
    X386  R49  0.064777
    X386  R382  -0.334327
    X386  R386  1.034802
    X386  R434  -0.558334
    X387  COST  -1.908792
    X387  R44  -0.158573
    X387  R151  0.151262
    X387  R387  1.070997
    X388  COST  -1.576649
    X388  R1  0.862476
    X388  R3  0.312517
    X388  R49  -0.746522
    X388  R129  -0.254493
    X388  R191  -0.394562
    X388  R198  0.345311
    X388  R388  1.044902
    X389  COST  -1.367282
    X389  R8  0.369375
    X389  R12  0.953243
    X389  R34  -0.092859
    X389  R51  0.975619
    X389  R127  -0.774745
    X389  R132  -0.513375
    X389  R134  0.361587
    X389  R389  1.01486
    X390  COST  -1.17492
    X390  R33  0.160162
    X390  R183  -0.500615
    X390  R209  -0.943717
    X390  R211  -0.668645
    X390  R298  -0.055841
    X390  R304  -0.649721
    X390  R313  0.856616
    X390  R372  0.117868
    X390  R390  1.086626
    X391  COST  -1.634291
    X391  R191  -0.297531
    X391  R341  0.348224
    X391  R356  0.781079
    X391  R391  1.028026
    X392  COST  -1.078622
    X392  R14  0.725196
    X392  R43  -0.180884
    X392  R95  -0.604202
    X392  R159  -0.253246
    X392  R314  -0.221953
    X392  R368  -0.438191
    X392  R392  1.024394
    X392  R498  -0.738304
    X393  COST  -1.86571
    X393  R0  0.150166
    X393  R70  -0.297423
    X393  R126  -0.992612
    X393  R209  0.787286
    X393  R226  0.249173
    X393  R393  1.091751
    X393  R451  0.532612
    X393  R479  -0.716772
    X394  COST  -1.534073
    X394  R15  0.936559
    X394  R44  0.61986
    X394  R195  0.372155
    X394  R218  -0.921
    X394  R225  0.670864
    X394  R394  1.030734
    X395  COST  -1.979036
    X395  R26  -0.861208
    X395  R36  0.660517
    X395  R75  0.177467
    X395  R83  0.467655
    X395  R254  0.066016
    X395  R292  0.337584
    X395  R395  1.022707
    X395  R406  0.995821
    X396  COST  -1.7131
    X396  R276  -0.081963
    X396  R295  0.328117
    X396  R305  0.980351
    X396  R381  -0.645225
    X396  R396  1.045227
    X397  COST  -1.108663
    X397  R76  -0.044898
    X397  R106  0.948822
    X397  R170  0.000801
    X397  R199  -0.185394
    X397  R248  -0.658852
    X397  R253  0.846589
    X397  R318  -0.946111
    X397  R381  -0.172442
    X397  R382  0.705847
    X397  R397  1.031608
    X397  R402  0.740135
    X397  R447  -0.647696
    X397  R489  -0.709356
    X398  COST  -1.850245
    X398  R175  -0.129426
    X398  R291  0.24008
    X398  R353  0.040796
    X398  R398  1.048844
    X398  R441  0.950666
    X399  COST  -1.728948
    X399  R341  -0.555399
    X399  R399  1.045503
    X399  R415  -0.888445
    X400  COST  -1.151157
    X400  R195  0.835059
    X400  R312  0.584898
    X400  R400  1.032282
    X400  R411  0.544566
    X401  COST  -1.246599
    X401  R255  0.488016
    X401  R280  -0.436068
    X401  R401  1.012843
    X402  COST  -1.285898
    X402  R24  0.651113
    X402  R99  -0.686009
    X402  R110  0.780731
    X402  R390  0.769408
    X402  R402  1.064563
    X403  COST  -1.476375
    X403  R172  -0.869076
    X403  R403  1.069932
    X403  R412  0.185238
    X403  R428  -0.015395
    X404  COST  -1.451379
    X404  R11  -0.656951
    X404  R125  -0.723871
    X404  R234  0.33015
    X404  R385  -0.344661
    X404  R404  1.028403
    X404  R409  0.497362
    X404  R477  -0.91275
    X405  COST  -1.256588
    X405  R177  0.738186
    X405  R405  1.07914
    X405  R468  -0.852542
    X406  COST  -1.676806
    X406  R118  -0.591133
    X406  R271  -0.019222
    X406  R286  -0.840437
    X406  R307  0.179694
    X406  R322  0.895036
    X406  R358  -0.128699
    X406  R404  0.193721
    X406  R406  1.026974
    X406  R457  -0.974282
    X407  COST  -1.507699
    X407  R70  0.467694
    X407  R74  0.591608
    X407  R90  0.732038
    X407  R394  -0.766739
    X407  R407  1.078248
    X408  COST  -1.934831
    X408  R17  -0.226307
    X408  R72  0.394777
    X408  R191  0.410164
    X408  R408  1.000954
    X408  R418  -0.880387
    X409  COST  -1.075916
    X409  R26  -0.82729
    X409  R113  -0.187224
    X409  R176  0.725717
    X409  R203  -0.401818
    X409  R231  0.178927
    X409  R326  0.90859
    X409  R403  -0.611976
    X409  R409  1.041187
    X409  R434  -0.858659
    X410  COST  -1.733503
    X410  R68  -0.835246
    X410  R281  0.453536
    X410  R410  1.041808
    X410  R435  -0.646205
    X410  R453  -0.005685
    X411  COST  -1.070851
    X411  R190  -0.112197
    X411  R400  -0.399393
    X411  R411  1.026331
    X411  R425  -0.095406
    X412  COST  -1.217558
    X412  R88  0.57367
    X412  R145  -0.244445
    X412  R207  0.565535
    X412  R272  0.991937
    X412  R412  1.001436
    X413  COST  -1.599917
    X413  R52  -0.975343
    X413  R88  0.545462
    X413  R139  -0.032827
    X413  R221  0.140522
    X413  R282  -0.830255
    X413  R318  0.748468
    X413  R413  1.050269
    X414  COST  -1.60509
    X414  R150  -0.298864
    X414  R322  -0.298966
    X414  R414  1.080567
    X414  R438  0.350884
    X415  COST  -1.703071
    X415  R0  0.863581
    X415  R26  0.369944
    X415  R415  1.046223
    X416  COST  -1.995925
    X416  R41  -0.912927
    X416  R304  0.448305
    X416  R395  -0.685922
    X416  R416  1.007444
    X416  R468  -0.549247
    X417  COST  -1.179445
    X417  R8  0.615226
    X417  R14  -0.990659
    X417  R92  -0.660309
    X417  R211  0.390978
    X417  R264  -0.53193
    X417  R329  -0.99675
    X417  R370  0.068227
    X417  R417  1.011811
    X418  COST  -1.958311
    X418  R33  0.931218
    X418  R86  -0.735394
    X418  R116  0.151005
    X418  R334  -0.653454
    X418  R418  1.077011
    X419  COST  -1.445847
    X419  R61  0.945838
    X419  R419  1.021689
    X420  COST  -1.947643
    X420  R20  -0.070122
    X420  R104  0.217445
    X420  R326  0.899143
    X420  R420  1.092372
    X421  COST  -1.86405
    X421  R53  0.502568
    X421  R252  0.454536
    X421  R330  0.882406
    X421  R342  -0.515709
    X421  R421  1.037072
    X421  R436  -0.300774
    X422  COST  -1.294602
    X422  R114  -0.793709
    X422  R237  -0.162681
    X422  R318  -0.933374
    X422  R378  -0.997678
    X422  R422  1.085662
    X422  R449  -0.894304
    X422  R455  0.768758
    X423  COST  -1.931464
    X423  R208  0.376027
    X423  R360  -0.061162
    X423  R423  1.078812
    X423  R429  0.905695
    X423  R473  0.30541
    X424  COST  -1.970887
    X424  R28  -0.190973
    X424  R393  -0.726401
    X424  R424  1.014698
    X424  R444  0.088668
    X425  COST  -1.74762
    X425  R257  0.584618
    X425  R425  1.025844
    X425  R462  -0.473753
    X426  COST  -1.294008
    X426  R335  0.180594
    X426  R426  1.002029
    X426  R464  -0.732008
    X427  COST  -1.897677
    X427  R82  -0.309626
    X427  R427  1.065308
    X427  R469  -0.409071
    X427  R472  0.923102
    X428  COST  -1.807385
    X428  R112  -0.567214
    X428  R141  0.225444
    X428  R157  -0.562051
    X428  R302  -0.110086
    X428  R371  -0.378447
    X428  R428  1.024593
    X428  R465  0.19049
    X428  R485  -0.161695
    X429  COST  -1.982787
    X429  R30  -0.609105
    X429  R77  -0.437632
    X429  R270  0.150647
    X429  R330  0.188834
    X429  R429  1.01043
    X429  R443  -0.664145
    X429  R485  0.331094
    X430  COST  -1.78537
    X430  R185  -0.259356
    X430  R205  0.679099
    X430  R242  0.759106
    X430  R430  1.091075
    X431  COST  -1.622099
    X431  R62  -0.988831
    X431  R141  0.978857
    X431  R158  -0.590076
    X431  R179  0.871974
    X431  R247  -0.704736
    X431  R279  -0.812909
    X431  R297  0.485602
    X431  R328  0.869498
    X431  R431  1.041522
    X431  R453  -0.732024
    X431  R495  0.603573
    X432  COST  -1.284603
    X432  R90  -0.961701
    X432  R329  -0.753386
    X432  R367  -0.384813
    X432  R432  1.01312
    X432  R442  0.629576
    X433  COST  -1.507263
    X433  R12  0.842096
    X433  R332  -0.141974
    X433  R418  -0.767814
    X433  R430  0.025952
    X433  R433  1.093836
    X433  R456  0.441943
    X433  R497  -0.797274
    X434  COST  -1.39798
    X434  R213  -0.303581
    X434  R421  -0.840215
    X434  R434  1.047958
    X435  COST  -1.501603
    X435  R36  0.30076
    X435  R140  -0.044492
    X435  R294  -0.623908
    X435  R331  0.074752
    X435  R337  -0.79435
    X435  R428  -0.510156
    X435  R435  1.029979
    X435  R472  -0.486309
    X435  R475  0.883047
    X435  R487  -0.870198
    X436  COST  -1.024545
    X436  R10  -0.039988
    X436  R25  0.940792
    X436  R57  0.059013
    X436  R110  -0.571676
    X436  R254  0.543136
    X436  R333  -0.293783
    X436  R346  0.164993
    X436  R379  -0.405684
    X436  R436  1.013989
    X436  R449  -0.612952
    X436  R482  0.843739
    X437  COST  -1.058321
    X437  R58  0.925184
    X437  R111  0.711563
    X437  R235  0.172055
    X437  R236  -0.915727
    X437  R255  0.778916
    X437  R283  -0.887838
    X437  R437  1.016008
    X437  R465  0.918227
    X438  COST  -1.759022
    X438  R61  -0.68642
    X438  R106  -0.980496
    X438  R228  -0.765844
    X438  R431  0.131258
    X438  R438  1.096264
    X438  R480  0.413971
    X439  COST  -1.918084
    X439  R37  -0.876414
    X439  R43  0.458438
    X439  R52  0.183959
    X439  R119  0.9448
    X439  R125  0.082721
    X439  R127  -0.460436
    X439  R164  0.275844
    X439  R186  -0.105535
    X439  R279  0.982816
    X439  R341  -0.237174
    X439  R342  -0.434143
    X439  R382  0.286837
    X439  R383  0.651734
    X439  R421  0.448789
    X439  R439  1.027428
    X439  R494  -0.737441
    X440  COST  -1.661117
    X440  R124  -0.665118
    X440  R133  -0.92679
    X440  R226  -0.897342
    X440  R233  0.003146
    X440  R275  -0.141491
    X440  R304  -0.521479
    X440  R384  0.371882
    X440  R440  1.052137
    X440  R450  0.929108
    X441  COST  -1.174165
    X441  R35  0.804293
    X441  R324  0.061109
    X441  R350  -0.395737
    X441  R441  1.074647
    X441  R491  0.620622
    X442  COST  -1.440817
    X442  R170  -0.475968
    X442  R207  0.275811
    X442  R225  -0.91379
    X442  R258  -0.751043
    X442  R315  0.2823
    X442  R326  0.576083
    X442  R408  -0.585638
    X442  R442  1.088301
    X442  R444  0.592726
    X443  COST  -1.042476
    X443  R43  0.393943
    X443  R126  0.274867
    X443  R201  0.744155
    X443  R256  0.094117
    X443  R356  -0.222002
    X443  R396  0.198422
    X443  R443  1.014757
    X443  R497  0.300358
    X444  COST  -1.351542
    X444  R42  -0.497069
    X444  R206  -0.315853
    X444  R258  -0.104183
    X444  R319  0.30883
    X444  R359  -0.259053
    X444  R376  -0.744374
    X444  R426  -0.906896
    X444  R444  1.031878
    X445  COST  -1.850338
    X445  R65  0.486688
    X445  R89  0.048527
    X445  R107  -0.387362
    X445  R132  0.214238
    X445  R193  0.081161
    X445  R418  -0.768502
    X445  R430  -0.835013
    X445  R445  1.074639
    X445  R476  -0.563952
    X446  COST  -1.475187
    X446  R78  0.08299
    X446  R115  -0.633489
    X446  R135  -0.88119
    X446  R203  0.972169
    X446  R234  -0.117305
    X446  R299  0.420684
    X446  R349  0.575806
    X446  R446  1.002087
    X447  COST  -1.462174
    X447  R9  -0.053586
    X447  R146  -0.142149
    X447  R156  -0.154633
    X447  R183  -0.396837
    X447  R195  -0.054006
    X447  R221  0.4656
    X447  R406  0.348768
    X447  R410  0.375902
    X447  R447  1.052412
    X448  COST  -1.047998
    X448  R185  -0.226345
    X448  R300  -0.197748
    X448  R320  -0.373128
    X448  R369  0.232192
    X448  R395  -0.824483
    X448  R407  -0.931499
    X448  R448  1.042688
    X449  COST  -1.029848
    X449  R425  -0.745932
    X449  R449  1.069089
    X450  COST  -1.496849
    X450  R156  0.969574
    X450  R423  0.566167
    X450  R426  -0.06992
    X450  R427  -0.185656
    X450  R450  1.090649
    X450  R459  -0.862972
    X451  COST  -1.621118
    X451  R148  -0.895696
    X451  R154  -0.686885
    X451  R294  0.815668
    X451  R373  -0.956797
    X451  R451  1.095871
    X452  COST  -1.098324
    X452  R268  0.499328
    X452  R389  0.642918
    X452  R405  0.128412
    X452  R452  1.055655
    X452  R487  -0.867028
    X452  R492  0.754213
    X453  COST  -1.82542
    X453  R453  1.012837
    X454  COST  -1.671169
    X454  R3  -0.036821
    X454  R106  -0.404576
    X454  R344  0.335527
    X454  R454  1.042409
    X455  COST  -1.834422
    X455  R48  -0.45388
    X455  R227  -0.210262
    X455  R247  0.444598
    X455  R424  0.555898
    X455  R455  1.063629
    X456  COST  -1.305518
    X456  R54  0.176276
    X456  R150  -0.980246
    X456  R171  -0.007902
    X456  R343  0.508554
    X456  R360  -0.820522
    X456  R373  -0.709989
    X456  R424  -0.736229
    X456  R456  1.057655
    X457  COST  -1.960967
    X457  R60  -0.587681
    X457  R84  -0.018545
    X457  R291  -0.74929
    X457  R457  1.031602
    X457  R475  -0.097177
    X458  COST  -1.898778
    X458  R77  0.476632
    X458  R183  0.805078
    X458  R246  0.668573
    X458  R458  1.068689
    X459  COST  -1.256479
    X459  R150  -0.254227
    X459  R162  -0.847449
    X459  R186  -0.37456
    X459  R249  0.801123
    X459  R432  -0.490181
    X459  R459  1.038344
    X460  COST  -1.41844
    X460  R178  -0.231209
    X460  R261  -0.07389
    X460  R306  -0.420589
    X460  R411  -0.173828
    X460  R433  0.479184
    X460  R460  1.037106
    X461  COST  -1.57286
    X461  R104  -0.553477
    X461  R148  0.39224
    X461  R179  -0.605137
    X461  R181  -0.216006
    X461  R461  1.099152
    X461  R494  -0.252514
    X462  COST  -1.599393
    X462  R16  0.976796
    X462  R138  -0.79459
    X462  R161  0.813423
    X462  R283  0.283222
    X462  R350  0.894517
    X462  R462  1.036789
    X462  R475  0.150544
    X463  COST  -1.187708
    X463  R357  0.190878
    X463  R374  0.822509
    X463  R463  1.099579
    X464  COST  -1.659605
    X464  R177  0.580715
    X464  R314  -0.639038
    X464  R464  1.010038
    X465  COST  -1.315672
    X465  R53  -0.774182
    X465  R124  -0.616797
    X465  R357  0.301388
    X465  R377  0.171966
    X465  R461  -0.49987
    X465  R465  1.034553
    X466  COST  -1.205325
    X466  R162  0.338854
    X466  R184  -0.97366
    X466  R282  -0.002981
    X466  R413  -0.775045
    X466  R466  1.071559
    X466  R498  -0.359242
    X467  COST  -1.083858
    X467  R205  0.150395
    X467  R224  0.127466
    X467  R345  -0.506365
    X467  R400  0.666799
    X467  R422  0.773503
    X467  R467  1.076272
    X468  COST  -1.979165
    X468  R51  0.92455
    X468  R319  -0.346778
    X468  R457  -0.187583
    X468  R468  1.071912
    X469  COST  -1.068336
    X469  R129  0.893401
    X469  R226  0.942128
    X469  R244  0.650821
    X469  R320  -0.523051
    X469  R469  1.000778
    X470  COST  -1.80122
    X470  R57  -0.336828
    X470  R128  -0.786202
    X470  R134  -0.754278
    X470  R239  -0.579892
    X470  R386  0.218591
    X470  R448  0.616859
    X470  R470  1.024793
    X471  COST  -1.935347
    X471  R339  -0.662462
    X471  R360  0.435535
    X471  R417  -0.008571
    X471  R441  -0.833468
    X471  R471  1.069723
    X472  COST  -1.304221
    X472  R22  -0.04919
    X472  R58  -0.225985
    X472  R87  -0.701364
    X472  R290  0.166775
    X472  R321  -0.509705
    X472  R339  -0.808947
    X472  R408  0.618128
    X472  R448  0.517414
    X472  R472  1.003844
    X473  COST  -1.637876
    X473  R111  -0.21471
    X473  R239  0.531271
    X473  R255  -0.986586
    X473  R338  0.380536
    X473  R368  0.63462
    X473  R452  -0.847232
    X473  R473  1.01056
    X474  COST  -1.237307
    X474  R42  -0.559772
    X474  R119  0.720291
    X474  R187  0.365655
    X474  R334  0.221379
    X474  R427  0.525662
    X474  R474  1.077745
    X475  COST  -1.015137
    X475  R91  0.466405
    X475  R123  0.345603
    X475  R355  0.244154
    X475  R475  1.09545
    X476  COST  -1.306862
    X476  R400  0.257818
    X476  R451  -0.790371
    X476  R476  1.036989
    X477  COST  -1.179699
    X477  R0  -0.082859
    X477  R11  -0.30891
    X477  R19  0.033535
    X477  R22  -0.628808
    X477  R194  -0.052243
    X477  R227  -0.581659
    X477  R368  0.264647
    X477  R384  0.17936
    X477  R419  -0.600157
    X477  R425  0.230967
    X477  R438  -0.871502
    X477  R444  -0.841336
    X477  R477  1.009929
    X477  R489  -0.288702
    X478  COST  -1.215244
    X478  R21  -0.984059
    X478  R166  -0.668221
    X478  R167  -0.943483
    X478  R180  0.352717
    X478  R181  -0.12932
    X478  R419  -0.275734
    X478  R460  0.276772
    X478  R463  0.493669
    X478  R478  1.004641
    X479  COST  -1.066367
    X479  R206  0.879501
    X479  R299  0.858238
    X479  R479  1.054171
    X479  R492  -0.384737
    X480  COST  -1.093677
    X480  R250  0.402711
    X480  R314  0.638017
    X480  R333  0.933228
    X480  R480  1.049592
    X481  COST  -1.329119
    X481  R38  -0.150673
    X481  R105  -0.196809
    X481  R112  -0.238455
    X481  R118  0.993389
    X481  R208  -0.688357
    X481  R446  -0.558913
    X481  R481  1.027426
    X482  COST  -1.95464
    X482  R40  0.025173
    X482  R482  1.051672
    X483  COST  -1.60689
    X483  R6  0.582256
    X483  R56  -0.580753
    X483  R111  0.489147
    X483  R336  0.535106
    X483  R365  -0.953607
    X483  R472  0.933287
    X483  R483  1.043501
    X484  COST  -1.223689
    X484  R24  -0.770539
    X484  R31  -0.681805
    X484  R109  0.849016
    X484  R146  0.272841
    X484  R200  0.746499
    X484  R220  -0.389641
    X484  R262  -0.599415
    X484  R316  0.741062
    X484  R344  -0.318968
    X484  R387  -0.617498
    X484  R410  0.326083
    X484  R421  0.372729
    X484  R461  0.87108
    X484  R484  1.04447
    X485  COST  -1.165427
    X485  R138  -0.401679
    X485  R178  -0.727366
    X485  R203  0.792752
    X485  R204  -0.019785
    X485  R271  -0.387362
    X485  R298  -0.855883
    X485  R417  -0.021021
    X485  R429  0.032567
    X485  R452  -0.624592
    X485  R485  1.072441
    X486  COST  -1.377434
    X486  R1  0.065564
    X486  R12  -0.329241
    X486  R55  -0.644321
    X486  R81  -0.154594
    X486  R100  -0.081611
    X486  R152  0.694256
    X486  R272  0.556889
    X486  R403  -0.313703
    X486  R486  1.036711
    X487  COST  -1.406949
    X487  R171  0.736854
    X487  R340  0.963106
    X487  R388  0.665497
    X487  R423  -0.117579
    X487  R487  1.00727
    X488  COST  -1.523513
    X488  R99  -0.427722
    X488  R269  0.237439
    X488  R450  0.822646
    X488  R476  -0.097816
    X488  R488  1.04912
    X489  COST  -1.277322
    X489  R169  0.673088
    X489  R238  -0.539884
    X489  R280  0.924616
    X489  R370  0.932753
    X489  R375  -0.267106
    X489  R378  0.013448
    X489  R467  -0.460171
    X489  R489  1.004994
    X489  R498  0.815909
    X490  COST  -1.008977
    X490  R2  0.464083
    X490  R214  -0.758835
    X490  R490  1.066918
    X491  COST  -1.155531
    X491  R113  -0.719728
    X491  R155  -0.14511
    X491  R491  1.029741
    X492  COST  -1.663929
    X492  R48  -0.377156
    X492  R85  0.090279
    X492  R96  0.779767
    X492  R118  -0.975638
    X492  R165  -0.122082
    X492  R189  0.888692
    X492  R413  0.945859
    X492  R428  0.373465
    X492  R429  -0.798921
    X492  R492  1.043716
    X493  COST  -1.554091
    X493  R47  0.114664
    X493  R122  0.485708
    X493  R297  -0.246614
    X493  R389  -0.042505
    X493  R407  0.530738
    X493  R415  0.036977
    X493  R416  0.082656
    X493  R493  1.018542
    X494  COST  -1.005548
    X494  R31  -0.096143
    X494  R77  0.539468
    X494  R242  0.420855
    X494  R306  0.66285
    X494  R494  1.07376
    X495  COST  -1.173334
    X495  R86  0.775847
    X495  R215  -0.838251
    X495  R229  0.330499
    X495  R328  -0.173984
    X495  R355  0.918341
    X495  R366  0.36799
    X495  R483  0.119176
    X495  R485  -0.608304
    X495  R495  1.082235
    X496  COST  -1.685985
    X496  R115  -0.681362
    X496  R145  -0.190065
    X496  R352  0.994365
    X496  R454  -0.429868
    X496  R496  1.027127
    X497  COST  -1.226434
    X497  R129  -0.772142
    X497  R166  -0.166755
    X497  R190  -0.648491
    X497  R445  -0.363489
    X497  R497  1.029284
    X498  COST  -1.963213
    X498  R36  0.47102
    X498  R66  0.47804
    X498  R93  0.633916
    X498  R107  0.224381
    X498  R201  0.343104
    X498  R228  -0.841772
    X498  R232  0.033626
    X498  R391  0.006685
    X498  R466  -0.188923
    X498  R473  0.888101
    X498  R484  0.109546
    X498  R498  1.072569
    X499  COST  -1.606708
    X499  R217  0.449303
    X499  R271  -0.92363
    X499  R286  0.682186
    X499  R496  -0.748716
    X499  R497  0.77563
    X499  R499  1.009318
RHS
    RHS  R0  24.515935
    RHS  R1  11.357185
    RHS  R2  17.138958
    RHS  R3  5.503704
    RHS  R4  19.219991
    RHS  R5  7.716287
    RHS  R6  23.120445
    RHS  R7  5.516361
    RHS  R8  7.341046
    RHS  R9  12.161436
    RHS  R10  15.989549
    RHS  R11  21.009409
    RHS  R12  11.10084
    RHS  R13  13.557451
    RHS  R14  18.652558
    RHS  R15  24.103346
    RHS  R16  10.452659
    RHS  R17  9.737243
    RHS  R18  10.661815
    RHS  R19  24.016702
    RHS  R20  17.138766
    RHS  R21  18.143586
    RHS  R22  7.643984
    RHS  R23  19.827329
    RHS  R24  6.890084
    RHS  R25  11.106673
    RHS  R26  12.244256
    RHS  R27  23.700312
    RHS  R28  20.541156
    RHS  R29  12.207505
    RHS  R30  13.87001
    RHS  R31  10.388366
    RHS  R32  8.133149
    RHS  R33  12.613233
    RHS  R34  6.098482
    RHS  R35  24.094677
    RHS  R36  8.742213
    RHS  R37  13.037976
    RHS  R38  23.207495
    RHS  R39  18.983444
    RHS  R40  17.15509
    RHS  R41  19.045227
    RHS  R42  18.703335
    RHS  R43  21.024322
    RHS  R44  21.713131
    RHS  R45  8.938363
    RHS  R46  20.12815
    RHS  R47  18.173565
    RHS  R48  7.583518
    RHS  R49  13.358869
    RHS  R50  17.601501
    RHS  R51  23.963515
    RHS  R52  6.52508
    RHS  R53  16.214884
    RHS  R54  21.619841
    RHS  R55  8.573878
    RHS  R56  6.944279
    RHS  R57  7.827426
    RHS  R58  24.292018
    RHS  R59  9.71409
    RHS  R60  14.566388
    RHS  R61  24.565254
    RHS  R62  6.265643
    RHS  R63  15.337393
    RHS  R64  21.800162
    RHS  R65  6.895481
    RHS  R66  8.660131
    RHS  R67  17.534533
    RHS  R68  24.76529
    RHS  R69  24.760836
    RHS  R70  21.625725
    RHS  R71  24.14435
    RHS  R72  23.969382
    RHS  R73  11.251324
    RHS  R74  23.755605
    RHS  R75  11.238027
    RHS  R76  23.292863
    RHS  R77  9.298855
    RHS  R78  16.643711
    RHS  R79  23.454405
    RHS  R80  8.848219
    RHS  R81  22.4002
    RHS  R82  7.329647
    RHS  R83  22.09012
    RHS  R84  24.73121
    RHS  R85  18.436569
    RHS  R86  16.465642
    RHS  R87  13.292009
    RHS  R88  8.089274
    RHS  R89  21.984768
    RHS  R90  7.206609
    RHS  R91  23.805988
    RHS  R92  19.209426
    RHS  R93  22.092825
    RHS  R94  22.58466
    RHS  R95  21.172511
    RHS  R96  24.816478
    RHS  R97  9.035719
    RHS  R98  14.102473
    RHS  R99  6.267197
    RHS  R100  6.229164
    RHS  R101  23.497227
    RHS  R102  13.426507
    RHS  R103  13.394476
    RHS  R104  16.362442
    RHS  R105  8.926916
    RHS  R106  9.90222
    RHS  R107  12.797523
    RHS  R108  24.447437
    RHS  R109  15.474281
    RHS  R110  23.481954
    RHS  R111  10.882668
    RHS  R112  17.666944
    RHS  R113  15.197698
    RHS  R114  11.503802
    RHS  R115  11.157565
    RHS  R116  10.101472
    RHS  R117  22.780968
    RHS  R118  10.048261
    RHS  R119  7.49992
    RHS  R120  14.92394
    RHS  R121  17.936757
    RHS  R122  5.674109
    RHS  R123  9.86912
    RHS  R124  18.745496
    RHS  R125  24.075951
    RHS  R126  18.880401
    RHS  R127  18.468415
    RHS  R128  21.665477
    RHS  R129  5.877453
    RHS  R130  5.216547
    RHS  R131  5.81923
    RHS  R132  15.558997
    RHS  R133  18.91212
    RHS  R134  7.606858
    RHS  R135  9.68669
    RHS  R136  23.524006
    RHS  R137  20.822665
    RHS  R138  19.132837
    RHS  R139  9.399167
    RHS  R140  10.9722
    RHS  R141  15.909466
    RHS  R142  12.15366
    RHS  R143  14.204656
    RHS  R144  20.26386
    RHS  R145  18.752313
    RHS  R146  12.829892
    RHS  R147  13.462841
    RHS  R148  5.100951
    RHS  R149  17.804153
    RHS  R150  14.810591
    RHS  R151  11.86914
    RHS  R152  8.084548
    RHS  R153  10.137991
    RHS  R154  7.468605
    RHS  R155  12.633347
    RHS  R156  10.954292
    RHS  R157  6.592546
    RHS  R158  16.629641
    RHS  R159  16.816562
    RHS  R160  24.280803
    RHS  R161  17.991071
    RHS  R162  22.668318
    RHS  R163  14.447421
    RHS  R164  18.560858
    RHS  R165  11.435559
    RHS  R166  16.453254
    RHS  R167  24.273336
    RHS  R168  15.205972
    RHS  R169  11.245794
    RHS  R170  18.042234
    RHS  R171  20.260822
    RHS  R172  22.012571
    RHS  R173  11.453083
    RHS  R174  17.092341
    RHS  R175  8.062293
    RHS  R176  18.918121
    RHS  R177  22.777803
    RHS  R178  5.511952
    RHS  R179  16.681532
    RHS  R180  22.936288
    RHS  R181  6.429069
    RHS  R182  14.620532
    RHS  R183  17.256174
    RHS  R184  22.787167
    RHS  R185  15.464776
    RHS  R186  18.909014
    RHS  R187  9.363131
    RHS  R188  15.631385
    RHS  R189  6.354397
    RHS  R190  24.846276
    RHS  R191  10.065005
    RHS  R192  7.671348
    RHS  R193  20.742887
    RHS  R194  20.012037
    RHS  R195  7.448182
    RHS  R196  22.808645
    RHS  R197  9.856801
    RHS  R198  12.072522
    RHS  R199  17.765294
    RHS  R200  14.46392
    RHS  R201  18.851387
    RHS  R202  10.530187
    RHS  R203  21.526891
    RHS  R204  24.830332
    RHS  R205  16.633924
    RHS  R206  6.001594
    RHS  R207  8.132737
    RHS  R208  13.728464
    RHS  R209  15.66691
    RHS  R210  23.758078
    RHS  R211  21.632103
    RHS  R212  24.79687
    RHS  R213  11.033569
    RHS  R214  14.677633
    RHS  R215  20.55148
    RHS  R216  19.726755
    RHS  R217  5.605057
    RHS  R218  22.191616
    RHS  R219  8.679547
    RHS  R220  21.362603
    RHS  R221  17.365932
    RHS  R222  15.054254
    RHS  R223  22.209306
    RHS  R224  9.577781
    RHS  R225  14.324825
    RHS  R226  10.670371
    RHS  R227  15.814895
    RHS  R228  10.028835
    RHS  R229  16.964791
    RHS  R230  17.016963
    RHS  R231  8.070357
    RHS  R232  16.284802
    RHS  R233  22.323022
    RHS  R234  10.797753
    RHS  R235  10.525319
    RHS  R236  7.370854
    RHS  R237  9.237228
    RHS  R238  11.096235
    RHS  R239  21.25445
    RHS  R240  8.660842
    RHS  R241  17.375675
    RHS  R242  10.399871
    RHS  R243  11.302883
    RHS  R244  13.911163
    RHS  R245  23.334754
    RHS  R246  12.560721
    RHS  R247  24.495961
    RHS  R248  8.117121
    RHS  R249  12.550004
    RHS  R250  6.250514
    RHS  R251  14.452876
    RHS  R252  21.832709
    RHS  R253  16.496924
    RHS  R254  11.124544
    RHS  R255  21.391409
    RHS  R256  17.178168
    RHS  R257  9.295427
    RHS  R258  10.476893
    RHS  R259  15.848634
    RHS  R260  14.914993
    RHS  R261  19.363096
    RHS  R262  15.757187
    RHS  R263  20.127887
    RHS  R264  12.550149
    RHS  R265  10.40155
    RHS  R266  24.25345
    RHS  R267  12.39062
    RHS  R268  13.369307
    RHS  R269  14.867303
    RHS  R270  5.730302
    RHS  R271  12.307822
    RHS  R272  19.266909
    RHS  R273  21.84066
    RHS  R274  16.414038
    RHS  R275  13.627052
    RHS  R276  11.708837
    RHS  R277  15.982042
    RHS  R278  9.078752
    RHS  R279  23.905499
    RHS  R280  8.651714
    RHS  R281  9.328646
    RHS  R282  14.393571
    RHS  R283  13.542539
    RHS  R284  11.436967
    RHS  R285  8.040073
    RHS  R286  11.115982
    RHS  R287  5.943397
    RHS  R288  16.427187
    RHS  R289  18.452841
    RHS  R290  5.170634
    RHS  R291  21.841891
    RHS  R292  10.111958
    RHS  R293  13.495803
    RHS  R294  23.98172
    RHS  R295  15.781042
    RHS  R296  20.779433
    RHS  R297  8.780145
    RHS  R298  13.3135
    RHS  R299  17.930032
    RHS  R300  7.199048
    RHS  R301  14.875562
    RHS  R302  10.200175
    RHS  R303  16.671223
    RHS  R304  12.119485
    RHS  R305  12.104321
    RHS  R306  23.645323
    RHS  R307  24.252778
    RHS  R308  14.150354
    RHS  R309  9.613751
    RHS  R310  24.721528
    RHS  R311  21.867197
    RHS  R312  15.399274
    RHS  R313  18.098887
    RHS  R314  24.877349
    RHS  R315  17.787563
    RHS  R316  13.449389
    RHS  R317  14.422536
    RHS  R318  10.104059
    RHS  R319  10.080958
    RHS  R320  12.575863
    RHS  R321  8.499924
    RHS  R322  16.367242
    RHS  R323  15.178676
    RHS  R324  8.6575
    RHS  R325  24.323437
    RHS  R326  10.515604
    RHS  R327  24.91705
    RHS  R328  19.602502
    RHS  R329  5.447466
    RHS  R330  15.702312
    RHS  R331  12.124616
    RHS  R332  23.354884
    RHS  R333  9.673948
    RHS  R334  10.936699
    RHS  R335  7.713642
    RHS  R336  7.203451
    RHS  R337  9.481308
    RHS  R338  11.091776
    RHS  R339  10.487408
    RHS  R340  9.157473
    RHS  R341  9.419664
    RHS  R342  12.000096
    RHS  R343  15.853261
    RHS  R344  7.447813
    RHS  R345  11.753553
    RHS  R346  21.536031
    RHS  R347  11.892405
    RHS  R348  21.409795
    RHS  R349  12.997012
    RHS  R350  15.863405
    RHS  R351  5.735043
    RHS  R352  17.217837
    RHS  R353  17.191926
    RHS  R354  24.862108
    RHS  R355  6.615904
    RHS  R356  9.943545
    RHS  R357  18.881279
    RHS  R358  10.548988
    RHS  R359  6.64655
    RHS  R360  7.045965
    RHS  R361  22.096074
    RHS  R362  18.3828
    RHS  R363  12.398709
    RHS  R364  8.095402
    RHS  R365  17.045566
    RHS  R366  14.38684
    RHS  R367  9.473143
    RHS  R368  21.339938
    RHS  R369  21.597062
    RHS  R370  23.137548
    RHS  R371  24.520307
    RHS  R372  15.914937
    RHS  R373  18.931746
    RHS  R374  19.850019
    RHS  R375  14.880889
    RHS  R376  21.681646
    RHS  R377  19.51394
    RHS  R378  5.176932
    RHS  R379  16.652758
    RHS  R380  8.902939
    RHS  R381  13.115265
    RHS  R382  8.348388
    RHS  R383  15.05307
    RHS  R384  24.155714
    RHS  R385  17.094317
    RHS  R386  18.811167
    RHS  R387  22.723462
    RHS  R388  8.693124
    RHS  R389  18.419547
    RHS  R390  19.216807
    RHS  R391  11.759373
    RHS  R392  16.110483
    RHS  R393  5.638632
    RHS  R394  9.09325
    RHS  R395  17.93789
    RHS  R396  21.406518
    RHS  R397  16.817864
    RHS  R398  18.012412
    RHS  R399  6.260446
    RHS  R400  22.61384
    RHS  R401  14.836899
    RHS  R402  10.835599
    RHS  R403  7.209233
    RHS  R404  9.146224
    RHS  R405  18.289036
    RHS  R406  6.625415
    RHS  R407  15.278209
    RHS  R408  22.948473
    RHS  R409  23.238164
    RHS  R410  9.86968
    RHS  R411  17.39184
    RHS  R412  13.388439
    RHS  R413  6.036987
    RHS  R414  5.80811
    RHS  R415  21.70134
    RHS  R416  24.39461
    RHS  R417  24.839515
    RHS  R418  14.343866
    RHS  R419  10.562771
    RHS  R420  8.018566
    RHS  R421  18.999595
    RHS  R422  21.213319
    RHS  R423  18.655386
    RHS  R424  24.616798
    RHS  R425  7.303497
    RHS  R426  17.904256
    RHS  R427  10.284486
    RHS  R428  23.969536
    RHS  R429  15.76288
    RHS  R430  19.447587
    RHS  R431  16.499021
    RHS  R432  9.114054
    RHS  R433  9.910763
    RHS  R434  20.350093
    RHS  R435  20.237281
    RHS  R436  6.797353
    RHS  R437  20.472318
    RHS  R438  22.028602
    RHS  R439  15.086652
    RHS  R440  10.436398
    RHS  R441  14.367572
    RHS  R442  7.968145
    RHS  R443  22.252388
    RHS  R444  21.832852
    RHS  R445  16.738343
    RHS  R446  24.855078
    RHS  R447  14.480833
    RHS  R448  12.786238
    RHS  R449  5.088904
    RHS  R450  13.741025
    RHS  R451  21.605727
    RHS  R452  10.974211
    RHS  R453  11.798936
    RHS  R454  10.28691
    RHS  R455  18.119616
    RHS  R456  17.999039
    RHS  R457  11.524848
    RHS  R458  16.464826
    RHS  R459  19.382366
    RHS  R460  15.549779
    RHS  R461  6.210867
    RHS  R462  7.685817
    RHS  R463  19.231169
    RHS  R464  24.389505
    RHS  R465  9.758334
    RHS  R466  8.708433
    RHS  R467  8.897797
    RHS  R468  11.500071
    RHS  R469  6.473207
    RHS  R470  13.689582
    RHS  R471  9.269717
    RHS  R472  23.931257
    RHS  R473  7.851052
    RHS  R474  23.898299
    RHS  R475  16.239615
    RHS  R476  23.864149
    RHS  R477  17.884687
    RHS  R478  11.205654
    RHS  R479  14.452194
    RHS  R480  19.227308
    RHS  R481  10.89469
    RHS  R482  5.133158
    RHS  R483  20.6829
    RHS  R484  16.620515
    RHS  R485  20.834241
    RHS  R486  9.342674
    RHS  R487  10.290013
    RHS  R488  9.783559
    RHS  R489  5.140389
    RHS  R490  13.117823
    RHS  R491  16.899117
    RHS  R492  24.54283
    RHS  R493  5.915448
    RHS  R494  15.87478
    RHS  R495  10.237316
    RHS  R496  19.574617
    RHS  R497  20.610593
    RHS  R498  7.988202
    RHS  R499  17.892151
BOUNDS
 UP BND  X0  1.131617
 UP BND  X1  9.421544
 UP BND  X2  9.131335
 UP BND  X3  8.171382
 UP BND  X4  5.909803
 UP BND  X5  2.198813
 UP BND  X6  1.079282
 UP BND  X7  5.663653
 UP BND  X8  7.499452
 UP BND  X9  1.885244
 UP BND  X10  1.882469
 UP BND  X11  7.41243
 UP BND  X12  9.403114
 UP BND  X13  9.503032
 UP BND  X14  3.258734
 UP BND  X15  9.754625
 UP BND  X16  7.309724
 UP BND  X17  9.778682
 UP BND  X18  8.87564
 UP BND  X19  4.563458
 UP BND  X20  5.586733
 UP BND  X21  1.457496
 UP BND  X22  8.700009
 UP BND  X23  7.947656
 UP BND  X24  5.979398
 UP BND  X25  7.844297
 UP BND  X26  1.877418
 UP BND  X27  9.873848
 UP BND  X28  5.889869
 UP BND  X29  4.178263
 UP BND  X30  4.502111
 UP BND  X31  4.106834
 UP BND  X32  9.076196
 UP BND  X33  2.516525
 UP BND  X34  9.950957
 UP BND  X35  4.811573
 UP BND  X36  3.233995
 UP BND  X37  7.018808
 UP BND  X38  9.618133
 UP BND  X39  8.068681
 UP BND  X40  2.621037
 UP BND  X41  1.344256
 UP BND  X42  3.014575
 UP BND  X43  8.294468
 UP BND  X44  7.214382
 UP BND  X45  3.673757
 UP BND  X46  1.127289
 UP BND  X47  9.804908
 UP BND  X48  6.715913
 UP BND  X49  9.70635
 UP BND  X50  8.145475
 UP BND  X51  6.547188
 UP BND  X52  6.224356
 UP BND  X53  4.491229
 UP BND  X54  2.010249
 UP BND  X55  6.956511
 UP BND  X56  7.709925
 UP BND  X57  8.099119
 UP BND  X58  1.305914
 UP BND  X59  5.379575
 UP BND  X60  7.544035
 UP BND  X61  2.484134
 UP BND  X62  9.140736
 UP BND  X63  6.082961
 UP BND  X64  5.234015
 UP BND  X65  2.197788
 UP BND  X66  5.172094
 UP BND  X67  9.676817
 UP BND  X68  9.558971
 UP BND  X69  7.593303
 UP BND  X70  8.926362
 UP BND  X71  2.047559
 UP BND  X72  4.644005
 UP BND  X73  7.74621
 UP BND  X74  2.966416
 UP BND  X75  7.543083
 UP BND  X76  6.480365
 UP BND  X77  6.651865
 UP BND  X78  1.747752
 UP BND  X79  7.839058
 UP BND  X80  8.299265
 UP BND  X81  6.56578
 UP BND  X82  5.988835
 UP BND  X83  8.385652
 UP BND  X84  5.267324
 UP BND  X85  9.485366
 UP BND  X86  1.336521
 UP BND  X87  7.454137
 UP BND  X88  6.179224
 UP BND  X89  2.982492
 UP BND  X90  6.948545
 UP BND  X91  2.252385
 UP BND  X92  3.475655
 UP BND  X93  3.752017
 UP BND  X94  9.991983
 UP BND  X95  5.916547
 UP BND  X96  1.763778
 UP BND  X97  1.0088
 UP BND  X98  5.853749
 UP BND  X99  6.947322
 UP BND  X100  4.763744
 UP BND  X101  9.360682
 UP BND  X102  7.385308
 UP BND  X103  9.766206
 UP BND  X104  6.062595
 UP BND  X105  5.842924
 UP BND  X106  1.579854
 UP BND  X107  3.176586
 UP BND  X108  8.841233
 UP BND  X109  9.190783
 UP BND  X110  4.793205
 UP BND  X111  4.676037
 UP BND  X112  7.091993
 UP BND  X113  9.557668
 UP BND  X114  5.644739
 UP BND  X115  1.729302
 UP BND  X116  8.817344
 UP BND  X117  4.545434
 UP BND  X118  7.819291
 UP BND  X119  7.496981
 UP BND  X120  8.023431
 UP BND  X121  6.435042
 UP BND  X122  7.078224
 UP BND  X123  1.700187
 UP BND  X124  5.85448
 UP BND  X125  2.002184
 UP BND  X126  9.77123
 UP BND  X127  4.99457
 UP BND  X128  3.42101
 UP BND  X129  1.937965
 UP BND  X130  8.26282
 UP BND  X131  2.617717
 UP BND  X132  8.358098
 UP BND  X133  4.129767
 UP BND  X134  4.443499
 UP BND  X135  1.801113
 UP BND  X136  8.017433
 UP BND  X137  3.345841
 UP BND  X138  8.761452
 UP BND  X139  1.370707
 UP BND  X140  5.285388
 UP BND  X141  1.588786
 UP BND  X142  4.728753
 UP BND  X143  5.766729
 UP BND  X144  6.221188
 UP BND  X145  4.92956
 UP BND  X146  1.600044
 UP BND  X147  1.913979
 UP BND  X148  2.543799
 UP BND  X149  6.956418
 UP BND  X150  1.799955
 UP BND  X151  5.022494
 UP BND  X152  5.557665
 UP BND  X153  9.251294
 UP BND  X154  7.887298
 UP BND  X155  8.196079
 UP BND  X156  3.159926
 UP BND  X157  2.679257
 UP BND  X158  6.995822
 UP BND  X159  3.352279
 UP BND  X160  5.433071
 UP BND  X161  9.621124
 UP BND  X162  4.741731
 UP BND  X163  2.237144
 UP BND  X164  5.807462
 UP BND  X165  6.772733
 UP BND  X166  7.082126
 UP BND  X167  5.387284
 UP BND  X168  5.453911
 UP BND  X169  5.103405
 UP BND  X170  3.53304
 UP BND  X171  8.092311
 UP BND  X172  8.086949
 UP BND  X173  5.89238
 UP BND  X174  4.089948
 UP BND  X175  3.081334
 UP BND  X176  1.957452
 UP BND  X177  2.541952
 UP BND  X178  6.163999
 UP BND  X179  6.215872
 UP BND  X180  3.167901
 UP BND  X181  5.051665
 UP BND  X182  7.503001
 UP BND  X183  7.17051
 UP BND  X184  8.604407
 UP BND  X185  4.727368
 UP BND  X186  7.402708
 UP BND  X187  6.299526
 UP BND  X188  3.018118
 UP BND  X189  7.591335
 UP BND  X190  1.88931
 UP BND  X191  6.129201
 UP BND  X192  5.944264
 UP BND  X193  8.843129
 UP BND  X194  5.838801
 UP BND  X195  6.455209
 UP BND  X196  1.23183
 UP BND  X197  5.693436
 UP BND  X198  6.042332
 UP BND  X199  2.991095
 UP BND  X200  2.507788
 UP BND  X201  8.105156
 UP BND  X202  7.315813
 UP BND  X203  7.890782
 UP BND  X204  3.309872
 UP BND  X205  3.334496
 UP BND  X206  6.73184
 UP BND  X207  3.815225
 UP BND  X208  2.672937
 UP BND  X209  1.176342
 UP BND  X210  2.045672
 UP BND  X211  3.258151
 UP BND  X212  6.401799
 UP BND  X213  4.419653
 UP BND  X214  1.727171
 UP BND  X215  8.880817
 UP BND  X216  9.167714
 UP BND  X217  2.38775
 UP BND  X218  2.977345
 UP BND  X219  5.714635
 UP BND  X220  5.165745
 UP BND  X221  3.244328
 UP BND  X222  4.354378
 UP BND  X223  6.275551
 UP BND  X224  9.201315
 UP BND  X225  7.055491
 UP BND  X226  8.70959
 UP BND  X227  7.246777
 UP BND  X228  2.373846
 UP BND  X229  9.580669
 UP BND  X230  2.191344
 UP BND  X231  5.176003
 UP BND  X232  2.633469
 UP BND  X233  9.514782
 UP BND  X234  3.691393
 UP BND  X235  5.947291
 UP BND  X236  7.65963
 UP BND  X237  2.434893
 UP BND  X238  4.876897
 UP BND  X239  7.739937
 UP BND  X240  6.130088
 UP BND  X241  1.095864
 UP BND  X242  7.718752
 UP BND  X243  8.299421
 UP BND  X244  9.252235
 UP BND  X245  2.609639
 UP BND  X246  7.61178
 UP BND  X247  7.805454
 UP BND  X248  7.955105
 UP BND  X249  6.56284
 UP BND  X250  5.6184
 UP BND  X251  2.093623
 UP BND  X252  6.516352
 UP BND  X253  3.751009
 UP BND  X254  5.075192
 UP BND  X255  1.830053
 UP BND  X256  9.511264
 UP BND  X257  2.858922
 UP BND  X258  3.541038
 UP BND  X259  4.650262
 UP BND  X260  3.256596
 UP BND  X261  6.93837
 UP BND  X262  5.505608
 UP BND  X263  3.287702
 UP BND  X264  6.743465
 UP BND  X265  9.211705
 UP BND  X266  5.148806
 UP BND  X267  6.441672
 UP BND  X268  6.605398
 UP BND  X269  1.590485
 UP BND  X270  5.559879
 UP BND  X271  3.026547
 UP BND  X272  2.597452
 UP BND  X273  4.260046
 UP BND  X274  5.222109
 UP BND  X275  7.157967
 UP BND  X276  2.49648
 UP BND  X277  4.005778
 UP BND  X278  8.217242
 UP BND  X279  7.32145
 UP BND  X280  7.052321
 UP BND  X281  2.654918
 UP BND  X282  7.962702
 UP BND  X283  8.152815
 UP BND  X284  8.956327
 UP BND  X285  4.892862
 UP BND  X286  6.927891
 UP BND  X287  3.143185
 UP BND  X288  5.885065
 UP BND  X289  4.529609
 UP BND  X290  3.04009
 UP BND  X291  2.875282
 UP BND  X292  5.998546
 UP BND  X293  1.964171
 UP BND  X294  8.905902
 UP BND  X295  6.12425
 UP BND  X296  8.108275
 UP BND  X297  7.195614
 UP BND  X298  7.233854
 UP BND  X299  9.992614
 UP BND  X300  1.946323
 UP BND  X301  2.960314
 UP BND  X302  9.950115
 UP BND  X303  6.326714
 UP BND  X304  9.71119
 UP BND  X305  4.276178
 UP BND  X306  7.332631
 UP BND  X307  9.035742
 UP BND  X308  1.226962
 UP BND  X309  4.083927
 UP BND  X310  6.004464
 UP BND  X311  7.368927
 UP BND  X312  4.347461
 UP BND  X313  4.993117
 UP BND  X314  2.887513
 UP BND  X315  1.142195
 UP BND  X316  6.392815
 UP BND  X317  9.600456
 UP BND  X318  3.636644
 UP BND  X319  5.479792
 UP BND  X320  2.149823
 UP BND  X321  8.00524
 UP BND  X322  6.926632
 UP BND  X323  7.29535
 UP BND  X324  4.776434
 UP BND  X325  3.063077
 UP BND  X326  7.624728
 UP BND  X327  3.782174
 UP BND  X328  7.847503
 UP BND  X329  7.016802
 UP BND  X330  7.952651
 UP BND  X331  3.124615
 UP BND  X332  7.376656
 UP BND  X333  7.692702
 UP BND  X334  1.440003
 UP BND  X335  7.016059
 UP BND  X336  9.435537
 UP BND  X337  1.898612
 UP BND  X338  3.836535
 UP BND  X339  2.227304
 UP BND  X340  7.893272
 UP BND  X341  8.000603
 UP BND  X342  4.134194
 UP BND  X343  3.593131
 UP BND  X344  1.070375
 UP BND  X345  7.975266
 UP BND  X346  3.668101
 UP BND  X347  6.582588
 UP BND  X348  9.876142
 UP BND  X349  5.564392
 UP BND  X350  7.123352
 UP BND  X351  7.700279
 UP BND  X352  3.997421
 UP BND  X353  7.675679
 UP BND  X354  5.71866
 UP BND  X355  2.483484
 UP BND  X356  6.998242
 UP BND  X357  9.754328
 UP BND  X358  2.647463
 UP BND  X359  2.286197
 UP BND  X360  6.692437
 UP BND  X361  8.684618
 UP BND  X362  6.301442
 UP BND  X363  5.035648
 UP BND  X364  1.404121
 UP BND  X365  5.291846
 UP BND  X366  6.087835
 UP BND  X367  8.327341
 UP BND  X368  7.469957
 UP BND  X369  3.244161
 UP BND  X370  9.188915
 UP BND  X371  3.289751
 UP BND  X372  2.87068
 UP BND  X373  6.298621
 UP BND  X374  6.923366
 UP BND  X375  3.744762
 UP BND  X376  9.160117
 UP BND  X377  6.582552
 UP BND  X378  8.372347
 UP BND  X379  5.278984
 UP BND  X380  2.866239
 UP BND  X381  8.405932
 UP BND  X382  3.736686
 UP BND  X383  4.509329
 UP BND  X384  1.205567
 UP BND  X385  9.087712
 UP BND  X386  2.876864
 UP BND  X387  7.673905
 UP BND  X388  7.108428
 UP BND  X389  4.280719
 UP BND  X390  4.405542
 UP BND  X391  8.933941
 UP BND  X392  9.773018
 UP BND  X393  2.794784
 UP BND  X394  9.858101
 UP BND  X395  3.929151
 UP BND  X396  4.029028
 UP BND  X397  5.020775
 UP BND  X398  8.058882
 UP BND  X399  6.72371
 UP BND  X400  1.849068
 UP BND  X401  2.275032
 UP BND  X402  3.879132
 UP BND  X403  6.466359
 UP BND  X404  9.613002
 UP BND  X405  2.745353
 UP BND  X406  7.038409
 UP BND  X407  9.5351
 UP BND  X408  4.880702
 UP BND  X409  3.45133
 UP BND  X410  5.732816
 UP BND  X411  8.447593
 UP BND  X412  1.358904
 UP BND  X413  7.204545
 UP BND  X414  2.213366
 UP BND  X415  9.58659
 UP BND  X416  2.535534
 UP BND  X417  1.455305
 UP BND  X418  4.038484
 UP BND  X419  7.889773
 UP BND  X420  8.618716
 UP BND  X421  5.297714
 UP BND  X422  4.482029
 UP BND  X423  6.07886
 UP BND  X424  1.818816
 UP BND  X425  5.269168
 UP BND  X426  1.422913
 UP BND  X427  6.186667
 UP BND  X428  9.870544
 UP BND  X429  5.595831
 UP BND  X430  7.684652
 UP BND  X431  6.930869
 UP BND  X432  8.761201
 UP BND  X433  4.137739
 UP BND  X434  4.619663
 UP BND  X435  5.642364
 UP BND  X436  9.051181
 UP BND  X437  7.020305
 UP BND  X438  6.428668
 UP BND  X439  2.392869
 UP BND  X440  9.94637
 UP BND  X441  4.381132
 UP BND  X442  2.27208
 UP BND  X443  3.015882
 UP BND  X444  4.303385
 UP BND  X445  9.022045
 UP BND  X446  1.313047
 UP BND  X447  8.835742
 UP BND  X448  3.014819
 UP BND  X449  9.514713
 UP BND  X450  1.050431
 UP BND  X451  7.596297
 UP BND  X452  4.510974
 UP BND  X453  9.067148
 UP BND  X454  7.435693
 UP BND  X455  8.977645
 UP BND  X456  8.06958
 UP BND  X457  7.247298
 UP BND  X458  1.886533
 UP BND  X459  4.751915
 UP BND  X460  3.785896
 UP BND  X461  8.278577
 UP BND  X462  2.855875
 UP BND  X463  1.120523
 UP BND  X464  8.635742
 UP BND  X465  4.982716
 UP BND  X466  7.740216
 UP BND  X467  4.020248
 UP BND  X468  4.895032
 UP BND  X469  6.549547
 UP BND  X470  9.432099
 UP BND  X471  7.306375
 UP BND  X472  9.291136
 UP BND  X473  6.710194
 UP BND  X474  2.363702
 UP BND  X475  1.793191
 UP BND  X476  4.951036
 UP BND  X477  7.049985
 UP BND  X478  8.663716
 UP BND  X479  8.235817
 UP BND  X480  5.665769
 UP BND  X481  7.048785
 UP BND  X482  6.273205
 UP BND  X483  4.968348
 UP BND  X484  1.986676
 UP BND  X485  5.576167
 UP BND  X486  1.631983
 UP BND  X487  1.683866
 UP BND  X488  2.78459
 UP BND  X489  3.703827
 UP BND  X490  4.72036
 UP BND  X491  8.570497
 UP BND  X492  6.84619
 UP BND  X493  2.530883
 UP BND  X494  1.689487
 UP BND  X495  1.508935
 UP BND  X496  5.981273
 UP BND  X497  6.786662
 UP BND  X498  9.41446
 UP BND  X499  7.641769
ENDATA
