NAME          SCHED_S42
ROWS
 N  COST
 G  DEM_T1
 G  DEM_T2
 G  DEM_T3
 G  DEM_T4
 G  DEM_T5
 G  DEM_T6
 L  SU_T1U1
 L  SU_T1U2
 L  SU_T2U1
 L  SU_T2U2
 L  SU_T3U1
 L  SU_T3U2
 L  SU_T4U1
 L  SU_T4U2
 L  SU_T5U1
 L  SU_T5U2
 L  SU_T6U1
 L  SU_T6U2
COLUMNS
    MARK0000  'MARKER'                 'INTORG'
    X_T1U1  COST  33.8963  DEM_T1  1
    X_T1U1  SU_T1U1  1  SU_T2U1  -1
    X_T1U2  COST  33.3907  DEM_T1  1
    X_T1U2  SU_T1U2  1  SU_T2U2  -1
    X_T2U1  COST  23.375  DEM_T2  1
    X_T2U1  SU_T2U1  1  SU_T3U1  -1
    X_T2U2  COST  23.7775  DEM_T2  1
    X_T2U2  SU_T2U2  1  SU_T3U2  -1
    X_T3U1  COST  14.286  DEM_T3  1
    X_T3U1  SU_T3U1  1  SU_T4U1  -1
    X_T3U2  COST  11.6923  DEM_T3  1
    X_T3U2  SU_T3U2  1  SU_T4U2  -1
    X_T4U1  COST  38.1566  DEM_T4  1
    X_T4U1  SU_T4U1  1  SU_T5U1  -1
    X_T4U2  COST  39.7663  DEM_T4  1
    X_T4U2  SU_T4U2  1  SU_T5U2  -1
    X_T5U1  COST  28.3496  DEM_T5  1
    X_T5U1  SU_T5U1  1  SU_T6U1  -1
    X_T5U2  COST  10.6919  DEM_T5  1
    X_T5U2  SU_T5U2  1  SU_T6U2  -1
    X_T6U1  COST  21.9958  DEM_T6  1
    X_T6U1  SU_T6U1  1
    X_T6U2  COST  39.2127  DEM_T6  1
    X_T6U2  SU_T6U2  1
    S_T1U1  COST  77.5152  SU_T1U1  -1
    S_T1U2  COST  139.528  SU_T1U2  -1
    S_T2U1  COST  64.9962  SU_T2U1  -1
    S_T2U2  COST  100.056  SU_T2U2  -1
    S_T3U1  COST  147.633  SU_T3U1  -1
    S_T3U2  COST  158.3  SU_T3U2  -1
    S_T4U1  COST  50.1168  SU_T4U1  -1
    S_T4U2  COST  142.622  SU_T4U2  -1
    S_T5U1  COST  51.0599  SU_T5U1  -1
    S_T5U2  COST  128.716  SU_T5U2  -1
    S_T6U1  COST  56.9999  SU_T6U1  -1
    S_T6U2  COST  84.9157  SU_T6U2  -1
    MARK0001  'MARKER'                 'INTEND'
RHS
    RHS       DEM_T1  1.03624
    RHS       DEM_T2  1.24735
    RHS       DEM_T3  1.15298
    RHS       DEM_T4  1.39329
    RHS       DEM_T5  1.18671
    RHS       DEM_T6  1.34398
BOUNDS
 UP BND       X_T1U1  1
 UP BND       X_T1U2  1
 UP BND       X_T2U1  1
 UP BND       X_T2U2  1
 UP BND       X_T3U1  1
 UP BND       X_T3U2  1
 UP BND       X_T4U1  1
 UP BND       X_T4U2  1
 UP BND       X_T5U1  1
 UP BND       X_T5U2  1
 UP BND       X_T6U1  1
 UP BND       X_T6U2  1
 UP BND       S_T1U1  1
 UP BND       S_T1U2  1
 UP BND       S_T2U1  1
 UP BND       S_T2U2  1
 UP BND       S_T3U1  1
 UP BND       S_T3U2  1
 UP BND       S_T4U1  1
 UP BND       S_T4U2  1
 UP BND       S_T5U1  1
 UP BND       S_T5U2  1
 UP BND       S_T6U1  1
 UP BND       S_T6U2  1
ENDATA
